ITEM: TIMESTEP
652
ITEM: NUMBER OF ATOMS
112
ITEM: BOX BOUNDS abc origin pp pp ff
21.9283220753 0.0 0.0 0.0
0.0 151.9238718369 0.0 0.0
0.0 0.0 157.6727165488 -3.8845567841
ITEM: ATOMS x y z
4.83789 65.133 74.7828
10.32 65.133 74.7828
2.19795 69.6237 74.737
2.15008 66.5794 74.5945
7.63216 66.5794 74.5945
4.93017 68.1063 74.6464
7.68003 69.6237 74.737
13.1621 69.6237 74.737
10.4123 68.1063 74.6464
13.1142 66.5794 74.5945
15.8943 68.1063 74.6464
21.3764 68.1063 74.6464
18.5963 66.5794 74.5945
18.6442 69.6237 74.737
2.22484 72.8065 74.7604
7.70692 72.8065 74.7604
10.4596 74.3844 74.7645
10.4296 71.2256 74.7468
13.189 72.8065 74.7604
15.9417 74.3844 74.7645
15.9117 71.2256 74.7468
21.4238 74.3844 74.7645
21.3938 71.2256 74.7468
18.6711 72.8065 74.7604
2.60973 65.91 77.3946
8.09181 65.91 77.3946
15.8021 65.133 74.7828
13.5739 65.91 77.3946
21.2841 65.133 74.7828
19.056 65.91 77.3946
2.4085 69.4278 77.5477
-0.306435 67.6725 77.4646
-0.337836 71.0697 77.5695
7.89058 69.4278 77.5477
5.14424 71.0697 77.5695
5.17565 67.6725 77.4646
10.6577 67.6725 77.4646
10.6263 71.0697 77.5695
16.1084 71.0697 77.5695
13.3727 69.4278 77.5477
16.1398 67.6725 77.4646
18.8547 69.4278 77.5477
2.38422 72.7134 77.5877
-0.362106 74.3435 77.5908
4.94756 71.2256 74.7468
4.97752 74.3844 74.7645
7.8663 72.7134 77.5877
5.11997 74.3435 77.5908
10.6021 74.3435 77.5908
13.3484 72.7134 77.5877
16.0841 74.3435 77.5908
18.8305 72.7134 77.5877
2.24012 75.9683 74.7732
2.22484 79.1302 74.7604
7.70692 79.1302 74.7604
4.97752 77.5523 74.7645
7.7222 75.9683 74.7732
13.2043 75.9683 74.7732
10.4596 77.5523 74.7645
13.189 79.1302 74.7604
15.9417 77.5523 74.7645
21.4238 77.5523 74.7645
18.6711 79.1302 74.7604
18.6864 75.9683 74.7732
2.19795 82.3129 74.737
4.93017 83.8304 74.6464
4.94756 80.7111 74.7468
7.68003 82.3129 74.737
13.1621 82.3129 74.737
10.4123 83.8304 74.6464
10.4296 80.7111 74.7468
15.8943 83.8304 74.6464
15.9117 80.7111 74.7468
21.3764 83.8304 74.6464
21.3938 80.7111 74.7468
18.6442 82.3129 74.737
2.15008 85.3573 74.5945
7.63216 85.3573 74.5945
10.32 86.8037 74.7828
13.1142 85.3573 74.5945
15.8021 86.8037 74.7828
21.2841 86.8037 74.7828
18.5963 85.3573 74.5945
2.38422 79.2233 77.5877
-0.362106 77.5932 77.5908
2.38029 75.9683 77.6017
7.8663 79.2233 77.5877
5.11997 77.5932 77.5908
7.86237 75.9683 77.6017
10.6021 77.5932 77.5908
16.0841 77.5932 77.5908
13.3484 79.2233 77.5877
13.3444 75.9683 77.6017
18.8305 79.2233 77.5877
18.8265 75.9683 77.6017
2.4085 82.5089 77.5477
-0.337836 80.867 77.5695
-0.306435 84.2642 77.4646
7.89058 82.5089 77.5477
5.17565 84.2642 77.4646
5.14424 80.867 77.5695
10.6263 80.867 77.5695
10.6577 84.2642 77.4646
16.1398 84.2642 77.4646
13.3727 82.5089 77.5477
16.1084 80.867 77.5695
18.8547 82.5089 77.5477
2.60973 86.0267 77.3946
4.83789 86.8037 74.7828
8.09181 86.0267 77.3946
13.5739 86.0267 77.3946
19.056 86.0267 77.3946
