ITEM: TIMESTEP
4090
ITEM: NUMBER OF ATOMS
23952
ITEM: BOX BOUNDS pp pp ss
0.0000000000000000e+00 2.1824953608198122e+01
0.0000000000000000e+00 1.5120771408893131e+02
-4.0909317027830356e+00 7.5937726606026501e+01
ITEM: ATOMS id type x y z
8175 2 2.71755 1.09676 -3.53024
2048 1 1.7986 2.68017 -2.48612
2014 1 4.52474 1.1113 -2.46713
8176 2 5.44694 2.66468 -3.54903
8078 2 8.17379 1.09676 -3.53024
2012 1 7.25484 2.68017 -2.48612
1887 1 9.98098 1.1113 -2.46713
8076 2 10.9032 2.66468 -3.54903
1662 1 15.4372 1.1113 -2.46713
7887 2 13.63 1.09676 -3.53024
1888 1 12.7111 2.68017 -2.48612
1660 1 18.1673 2.68017 -2.48612
7888 2 16.3594 2.66468 -3.54903
1344 1 20.8935 1.1113 -2.46713
7600 2 19.0863 1.09676 -3.53024
8190 2 21.8157 2.66468 -3.54903
8171 2 2.72015 4.23305 -3.56871
2013 1 4.52884 4.24948 -2.50603
8169 2 5.44964 5.80192 -3.58923
8077 2 8.17638 4.23305 -3.56871
1883 1 9.98508 4.24948 -2.50603
8079 2 10.9059 5.80192 -3.58923
1661 1 15.4413 4.24948 -2.50603
7883 2 13.6326 4.23305 -3.56871
7881 2 16.3621 5.80192 -3.58923
1343 1 20.8976 4.24948 -2.50603
7599 2 19.0889 4.23305 -3.56871
8191 2 21.8184 5.80192 -3.58923
8170 2 2.72295 7.37136 -3.61053
2044 1 1.80299 5.81928 -2.5268
2006 1 4.53353 7.38963 -2.54839
8070 2 8.17919 7.37136 -3.61053
2015 1 7.25923 5.81928 -2.5268
1882 1 9.98977 7.38963 -2.54839
1654 1 15.446 7.38963 -2.54839
1881 1 12.7155 5.81928 -2.5268
7882 2 13.6354 7.37136 -3.61053
1663 1 18.1717 5.81928 -2.5268
1342 1 20.9022 7.38963 -2.54839
7594 2 19.0917 7.37136 -3.61053
8160 2 2.72593 10.5122 -3.65525
2045 1 1.80797 8.96057 -2.57074
8172 2 5.45254 8.94142 -3.63256
2005 1 4.53878 10.5322 -2.59378
8069 2 8.18217 10.5122 -3.65525
2004 1 7.2642 8.96057 -2.57074
8068 2 10.9088 8.94142 -3.63256
1871 1 9.99502 10.5322 -2.59378
1653 1 15.4513 10.5322 -2.59378
1884 1 12.7204 8.96057 -2.57074
7871 2 13.6384 10.5122 -3.65525
1652 1 18.1767 8.96057 -2.57074
7884 2 16.365 8.94142 -3.63256
8188 2 21.8213 8.94142 -3.63256
1335 1 20.9075 10.5322 -2.59378
7593 2 19.0946 10.5122 -3.65525
8159 2 2.72904 13.6561 -3.70227
2040 1 1.81349 12.1045 -2.61744
8158 2 5.45559 12.0837 -3.67852
1991 1 4.54455 13.6775 -2.64161
2007 1 7.26973 12.1045 -2.61744
8054 2 8.18528 13.6561 -3.70227
8071 2 10.9118 12.0837 -3.67852
1870 1 10.0008 13.6775 -2.64161
1638 1 15.457 13.6775 -2.64161
1869 1 12.726 12.1045 -2.61744
7870 2 13.6415 13.6561 -3.70227
1655 1 18.1822 12.1045 -2.61744
7869 2 16.3681 12.0837 -3.67852
8189 2 21.8243 12.0837 -3.67852
1334 1 20.9133 13.6775 -2.64161
7580 2 19.0978 13.6561 -3.70227
8148 2 2.73223 16.8036 -3.75084
2041 1 1.81948 15.2514 -2.66621
8161 2 5.45875 15.2293 -3.72641
1990 1 4.55073 16.8262 -2.69112
1989 1 7.27572 15.2514 -2.66621
8053 2 8.18847 16.8036 -3.75084
1851 1 10.007 16.8262 -2.69112
8052 2 10.915 15.2293 -3.72641
1637 1 15.4632 16.8262 -2.69112
1872 1 12.732 15.2514 -2.66621
7851 2 13.6447 16.8036 -3.75084
1636 1 18.1882 15.2514 -2.66621
7872 2 16.3712 15.2293 -3.72641
8186 2 21.8275 15.2293 -3.72641
1319 1 20.9194 16.8262 -2.69112
7579 2 19.1009 16.8036 -3.75084
8147 2 2.73543 19.9551 -3.80003
2036 1 1.82581 18.4018 -2.71622
8146 2 5.46195 18.3788 -3.77542
1975 1 4.55718 19.9784 -2.74138
1992 1 7.28205 18.4018 -2.71622
8031 2 8.19167 19.9551 -3.80003
1850 1 10.0134 19.9784 -2.74138
8055 2 10.9182 18.3788 -3.77542
1614 1 15.4697 19.9784 -2.74138
1849 1 12.7383 18.4018 -2.71622
7850 2 13.6479 19.9551 -3.80003
1639 1 18.1945 18.4018 -2.71622
7849 2 16.3744 18.3788 -3.77542
8187 2 21.8307 18.3788 -3.77542
1318 1 20.9259 19.9784 -2.74138
7558 2 19.1041 19.9551 -3.80003
8136 2 2.73859 23.1111 -3.8488
2037 1 1.83232 21.556 -2.76645
8149 2 5.46514 21.5325 -3.82454
1974 1 4.56371 23.1345 -2.79128
1973 1 7.28856 21.556 -2.76645
8030 2 8.19483 23.1111 -3.8488
1824 1 10.0199 23.1345 -2.79128
8029 2 10.9214 21.5325 -3.82454
1613 1 15.4762 23.1345 -2.79128
1852 1 12.7448 21.556 -2.76645
7823 2 13.6511 23.1111 -3.8488
1612 1 18.201 21.556 -2.76645
7852 2 16.3776 21.5325 -3.82454
8184 2 21.8339 21.5325 -3.82454
1295 1 20.9324 23.1345 -2.79128
7557 2 19.1073 23.1111 -3.8488
2032 1 1.83882 24.714 -2.81572
8135 2 2.74166 26.2717 -3.89595
8120 2 0.918312 26.3015 -1.39737
8134 2 5.46826 24.6908 -3.87265
1959 1 4.57012 26.2946 -2.8396
8133 2 3.64579 24.7218 -1.37343
1976 1 7.29506 24.714 -2.81572
8007 2 8.1979 26.2717 -3.89595
8001 2 9.10203 24.7218 -1.37343
8002 2 6.37455 26.3015 -1.39737
8032 2 10.9245 24.6908 -3.87265
1823 1 10.0264 26.2946 -2.8396
7784 2 11.8308 26.3015 -1.39737
1822 1 12.7513 24.714 -2.81572
1582 1 15.4826 26.2946 -2.8396
7822 2 13.6541 26.2717 -3.89595
7820 2 14.5583 24.7218 -1.37343
1615 1 18.2075 24.714 -2.81572
7821 2 16.3807 24.6908 -3.87265
7524 2 17.287 26.3015 -1.39737
8185 2 21.837 24.6908 -3.87265
1294 1 20.9388 26.2946 -2.8396
7528 2 19.1104 26.2717 -3.89595
7523 2 20.0145 24.7218 -1.37343
2033 1 1.8451 27.876 -2.86276
8124 2 2.74458 29.437 -3.94024
8119 2 0.919517 29.464 -1.44291
8137 2 5.47126 27.8537 -3.91853
1958 1 4.57621 29.4585 -2.88504
8118 2 3.64705 27.8822 -1.42059
1957 1 7.30133 27.876 -2.86276
8006 2 8.20082 29.437 -3.94024
8004 2 9.10328 27.8822 -1.42059
7979 2 6.37576 29.464 -1.44291
8005 2 10.9275 27.8537 -3.91853
1796 1 10.0324 29.4585 -2.88504
7783 2 11.832 29.464 -1.44291
1825 1 12.7576 27.876 -2.86276
1581 1 15.4887 29.4585 -2.88504
7788 2 13.6571 29.437 -3.94024
7782 2 14.5595 27.8822 -1.42059
1580 1 18.2138 27.876 -2.86276
7824 2 16.3837 27.8537 -3.91853
7487 2 17.2882 29.464 -1.44291
8182 2 21.84 27.8537 -3.91853
1263 1 20.9449 29.4585 -2.88504
7527 2 19.1133 29.437 -3.94024
7526 2 20.0158 27.8822 -1.42059
2028 1 1.85095 31.0419 -2.90626
8122 2 5.47408 31.0213 -3.96092
8121 2 3.6482 31.0467 -1.46419
1960 1 7.30719 31.0419 -2.90626
7977 2 9.10444 31.0467 -1.46419
8008 2 10.9303 31.0213 -3.96092
1794 1 12.7634 31.0419 -2.90626
7785 2 14.5607 31.0467 -1.46419
1583 1 18.2197 31.0419 -2.90626
7786 2 16.3866 31.0213 -3.96092
8183 2 21.8428 31.0213 -3.96092
7485 2 20.0169 31.0467 -1.46419
8123 2 2.74728 32.6068 -3.98042
2029 1 1.8562 34.2111 -2.94489
8180 2 0.0203975 34.1933 -3.99857
8108 2 0.920627 32.6305 -1.48425
8125 2 5.47664 34.1933 -3.99857
1943 1 4.58178 32.6261 -2.92626
8106 2 3.64926 34.2152 -1.50294
1941 1 7.31244 34.2111 -2.94489
7983 2 8.20351 32.6068 -3.98042
7978 2 6.37687 32.6305 -1.48425
7980 2 9.1055 34.2152 -1.50294
1795 1 10.038 32.6261 -2.92626
7981 2 10.9329 34.1933 -3.99857
7748 2 11.8331 32.6305 -1.48425
1543 1 15.4943 32.6261 -2.92626
1797 1 12.7687 34.2111 -2.94489
7787 2 13.6598 32.6068 -3.98042
7746 2 14.5617 34.2152 -1.50294
1541 1 18.2249 34.2111 -2.94489
7789 2 16.3891 34.1933 -3.99857
7486 2 17.2893 32.6305 -1.48425
1262 1 20.9505 32.6261 -2.92626
7490 2 19.116 32.6068 -3.98042
7488 2 20.018 34.2152 -1.50294
8181 2 0.0226038 37.3691 -4.03031
8112 2 2.74967 35.7807 -4.01525
2024 1 1.86065 37.3834 -2.97746
8107 2 0.921624 35.8008 -1.52011
8110 2 5.47884 37.3691 -4.03031
1942 1 4.58665 35.7969 -2.962
8109 2 3.65019 37.3872 -1.53562
1944 1 7.31688 37.3834 -2.97746
7982 2 8.20591 35.7807 -4.01525
7953 2 9.10642 37.3872 -1.53562
7955 2 6.37786 35.8008 -1.52011
1768 1 10.0429 35.7969 -2.962
7984 2 10.9351 37.3691 -4.03031
7747 2 11.8341 35.8008 -1.52011
1542 1 15.4991 35.7969 -2.962
1766 1 12.7731 37.3834 -2.97746
7752 2 13.6621 35.7807 -4.01525
7749 2 14.5627 37.3872 -1.53562
1544 1 18.2294 37.3834 -2.97746
7750 2 16.3913 37.3691 -4.03031
7442 2 17.2903 35.8008 -1.52011
1223 1 20.9554 35.7969 -2.962
7489 2 19.1184 35.7807 -4.01525
7440 2 20.0189 37.3872 -1.53562
8178 2 0.0243441 40.5481 -4.0551
8111 2 2.75166 38.9582 -4.04363
2025 1 1.86412 40.5581 -3.0029
8096 2 0.922461 38.9744 -1.54933
8113 2 5.48058 40.5481 -4.0551
1927 1 4.59063 38.9705 -2.99113
8094 2 3.65092 40.5623 -1.56114
1925 1 7.32035 40.5581 -3.0029
7959 2 8.2079 38.9582 -4.04363
7954 2 6.3787 38.9744 -1.54933
7956 2 9.10715 40.5623 -1.56114
1767 1 10.0469 38.9705 -2.99113
7957 2 10.9368 40.5481 -4.0551
7712 2 11.8349 38.9744 -1.54933
1503 1 15.5031 38.9705 -2.99113
1769 1 12.7766 40.5581 -3.0029
7751 2 13.6641 38.9582 -4.04363
7710 2 14.5634 40.5623 -1.56114
1501 1 18.2328 40.5581 -3.0029
7753 2 16.3931 40.5481 -4.0551
7441 2 17.2912 38.9744 -1.54933
1222 1 20.9593 38.9705 -2.99113
7445 2 19.1204 38.9582 -4.04363
7443 2 20.0196 40.5623 -1.56114
8179 2 0.0254994 43.7295 -4.07212
8100 2 2.75312 42.1386 -4.06463
8095 2 0.923066 42.1508 -1.57095
2020 1 1.86644 43.7346 -3.02037
8098 2 5.48174 43.7295 -4.07212
8097 2 3.65138 43.7397 -1.57866
1926 1 4.59355 42.1462 -3.01267
1928 1 7.32268 43.7346 -3.02037
7930 2 9.10762 43.7397 -1.57866
7932 2 6.3793 42.1508 -1.57095
7958 2 8.20936 42.1386 -4.06463
1740 1 10.0498 42.1462 -3.01267
7711 2 11.8355 42.1508 -1.57095
7960 2 10.938 43.7295 -4.07212
1502 1 15.506 42.1462 -3.01267
1738 1 12.7789 43.7346 -3.02037
7713 2 14.5639 43.7397 -1.57866
7716 2 13.6656 42.1386 -4.06463
1504 1 18.2352 43.7346 -3.02037
7396 2 17.2918 42.1508 -1.57095
7714 2 16.3942 43.7295 -4.07212
1176 1 20.9623 42.1462 -3.01267
7394 2 20.0201 43.7397 -1.57866
7444 2 19.1218 42.1386 -4.06463
8177 2 0.0259716 46.9125 -4.08077
8099 2 2.75394 45.3209 -4.07752
8088 2 0.923368 45.329 -1.58423
2021 1 1.86751 46.9122 -3.0293
8101 2 5.48221 46.9125 -4.08077
8086 2 3.65151 46.9185 -1.58758
1912 1 4.59526 45.3233 -3.02593
1910 1 7.32375 46.9122 -3.0293
7931 2 6.37961 45.329 -1.58423
7933 2 9.10774 46.9185 -1.58758
7936 2 8.21018 45.3209 -4.07752
1739 1 10.0515 45.3233 -3.02593
7680 2 11.8358 45.329 -1.58423
7934 2 10.9384 46.9125 -4.08077
1464 1 15.5077 45.3233 -3.02593
1741 1 12.78 46.9122 -3.0293
7678 2 14.564 46.9185 -1.58758
7715 2 13.6664 45.3209 -4.07752
1462 1 18.2362 46.9122 -3.0293
7395 2 17.2921 45.329 -1.58423
7717 2 16.3947 46.9125 -4.08077
1175 1 20.964 45.3233 -3.02593
7397 2 20.0202 46.9185 -1.58758
7399 2 19.1227 45.3209 -4.07752
8089 2 2.75405 48.5042 -4.08185
8087 2 0.923311 48.5082 -1.58871
10368 2 0.0257094 50.096 -4.08075
4095 1 1.86725 50.0902 -3.02936
1911 1 4.59566 48.5012 -3.03044
10350 2 5.48195 50.096 -4.08075
10349 2 3.65126 50.0979 -1.58759
7913 2 6.37955 48.5082 -1.58871
7935 2 8.21029 48.5042 -4.08185
10249 2 9.1075 50.0979 -1.58759
4064 1 7.32349 50.0902 -3.02936
1713 1 10.0519 48.5012 -3.03044
7679 2 11.8358 48.5082 -1.58871
10256 2 10.9382 50.096 -4.08075
1463 1 15.5081 48.5012 -3.03044
7681 2 13.6665 48.5042 -4.08185
3934 1 12.7797 50.0902 -3.02936
10061 2 14.5637 50.0979 -1.58759
7353 2 17.292 48.5082 -1.58871
3712 1 18.236 50.0902 -3.02936
10062 2 16.3944 50.096 -4.08075
1128 1 20.9644 48.5012 -3.03044
7398 2 19.1228 48.5042 -4.08185
9772 2 20.02 50.0979 -1.58759
8167 2 0.905041 1.12564 -1.02396
2010 1 2.72086 1.14032 0.198708
8164 2 1.81397 2.72593 1.51118
8165 2 3.63408 2.69468 -1.04301
2011 1 5.4501 2.71013 0.179579
8062 2 4.54104 1.15569 1.53037
8074 2 6.36128 1.12564 -1.02396
1879 1 8.1771 1.14032 0.198708
8075 2 9.09032 2.69468 -1.04301
8060 2 7.2702 2.72593 1.51118
7879 2 11.8175 1.12564 -1.02396
1877 1 10.9063 2.71013 0.179579
7875 2 9.99727 1.15569 1.53037
1658 1 13.6333 1.14032 0.198708
7877 2 14.5466 2.69468 -1.04301
7587 2 15.4535 1.15569 1.53037
7876 2 12.7264 2.72593 1.51118
7597 2 17.2738 1.12564 -1.02396
1659 1 16.3626 2.71013 0.179579
7585 2 18.1827 2.72593 1.51118
1341 1 19.0896 1.14032 0.198708
7598 2 20.0028 2.69468 -1.04301
2042 1 21.8188 2.71013 0.179579
7232 2 20.9098 1.15569 1.53037
8166 2 0.906899 4.26407 -1.06297
2002 1 2.72313 4.28026 0.159526
8061 2 4.54316 4.29644 1.49105
8066 2 6.36314 4.26407 -1.06297
1878 1 8.17937 4.28026 0.159526
7878 2 11.8194 4.26407 -1.06297
7863 2 9.9994 4.29644 1.49105
1650 1 13.6356 4.28026 0.159526
7586 2 15.4556 4.29644 1.49105
7591 2 17.2756 4.26407 -1.06297
1340 1 19.0918 4.28026 0.159526
7231 2 20.9119 4.29644 1.49105
8156 2 0.908777 7.4041 -1.10545
2001 1 2.72551 7.42166 0.116823
8152 2 1.81613 5.86724 1.47003
8168 2 3.63596 5.83386 -1.0838
2000 1 5.45243 5.85075 0.138591
8046 2 4.54536 7.43839 1.44817
8065 2 6.36502 7.4041 -1.10545
8064 2 9.0922 5.83386 -1.0838
1867 1 8.18175 7.42166 0.116823
8063 2 7.27237 5.86724 1.47003
7867 2 11.8213 7.4041 -1.10545
1880 1 10.9087 5.85075 0.138591
7862 2 10.0016 7.43839 1.44817
7880 2 14.5484 5.83386 -1.0838
1649 1 13.638 7.42166 0.116823
7573 2 15.4578 7.43839 1.44817
7861 2 12.7286 5.86724 1.47003
7590 2 17.2775 7.4041 -1.10545
1648 1 16.3649 5.85075 0.138591
7588 2 18.1848 5.86724 1.47003
7589 2 20.0047 5.83386 -1.0838
2043 1 21.8211 5.85075 0.138591
1333 1 19.0942 7.42166 0.116823
7230 2 20.9141 7.43839 1.44817
8155 2 0.910624 10.5461 -1.15096
1987 1 2.72796 10.5649 0.0710381
8153 2 1.81835 9.00992 1.42553
8154 2 3.63783 8.97484 -1.12786
2003 1 5.45485 8.99302 0.0942827
8045 2 4.54757 10.5819 1.40217
8067 2 9.09406 8.97484 -1.12786
8050 2 6.36686 10.5461 -1.15096
1866 1 8.1842 10.5649 0.0710381
8044 2 7.27459 9.00992 1.42553
7866 2 11.8231 10.5461 -1.15096
1865 1 10.9111 8.99302 0.0942827
7843 2 10.0038 10.5819 1.40217
7865 2 14.5503 8.97484 -1.12786
1634 1 13.6404 10.5649 0.0710381
7572 2 15.4601 10.5819 1.40217
7864 2 12.7308 9.00992 1.42553
7577 2 17.2793 10.5461 -1.15096
1651 1 16.3673 8.99302 0.0942827
7571 2 18.1871 9.00992 1.42553
7592 2 20.0065 8.97484 -1.12786
2038 1 21.8236 8.99302 0.0942827
1332 1 19.0967 10.5649 0.0710381
7223 2 20.9163 10.5819 1.40217
8144 2 0.912395 13.6906 -1.19892
1986 1 2.73041 13.7103 0.0227661
8140 2 1.82056 12.1543 1.37817
8157 2 3.63964 12.118 -1.17468
1985 1 5.45731 12.1373 0.0471691
8023 2 4.54976 13.7272 1.35363
8048 2 9.09588 12.118 -1.17468
8049 2 6.36863 13.6906 -1.19892
1847 1 8.18665 13.7103 0.0227661
8047 2 7.27679 12.1543 1.37817
7847 2 11.8249 13.6906 -1.19892
1868 1 10.9135 12.1373 0.0471691
7842 2 10.006 13.7272 1.35363
7868 2 14.5521 12.118 -1.17468
1633 1 13.6429 13.7103 0.0227661
7551 2 15.4622 13.7272 1.35363
7841 2 12.733 12.1543 1.37817
7576 2 17.2811 13.6906 -1.19892
1632 1 16.3698 12.1373 0.0471691
7574 2 18.1893 12.1543 1.37817
7575 2 20.0084 12.118 -1.17468
2039 1 21.826 12.1373 0.0471691
1317 1 19.0991 13.7103 0.0227661
7222 2 20.9185 13.7272 1.35363
8143 2 0.914058 16.838 -1.24855
1971 1 2.73283 16.8583 -0.0272226
8141 2 1.8227 15.3007 1.32864
8142 2 3.64136 15.2639 -1.22358
1988 1 5.45975 15.284 -0.00206888
8022 2 4.55186 16.8749 1.30332
8027 2 6.3703 16.838 -1.24855
8051 2 9.0976 15.2639 -1.22358
1846 1 8.18907 16.8583 -0.0272226
8021 2 7.27894 15.3007 1.32864
7846 2 11.8265 16.838 -1.24855
1845 1 10.916 15.284 -0.00206888
7815 2 10.0081 16.8749 1.30332
7845 2 14.5538 15.2639 -1.22358
1610 1 13.6453 16.8583 -0.0272226
7550 2 15.4643 16.8749 1.30332
7844 2 12.7352 15.3007 1.32864
7555 2 17.2828 16.838 -1.24855
1635 1 16.3722 15.284 -0.00206888
7549 2 18.1914 15.3007 1.32864
7578 2 20.0101 15.2639 -1.22358
2034 1 21.8285 15.284 -0.00206888
1316 1 19.1015 16.8583 -0.0272226
7207 2 20.9206 16.8749 1.30332
8132 2 0.915597 19.9887 -1.29892
8128 2 1.82474 18.4496 1.27779
1970 1 2.73516 20.0093 -0.0779787
8145 2 3.64296 18.4129 -1.27371
1969 1 5.46213 18.4334 -0.0525708
7999 2 4.55383 20.0251 1.25219
8025 2 9.0992 18.4129 -1.27371
8026 2 6.37184 19.9887 -1.29892
1820 1 8.1914 20.0093 -0.0779787
8024 2 7.28098 18.4496 1.27779
7819 2 11.8281 19.9887 -1.29892
1848 1 10.9184 18.4334 -0.0525708
7814 2 10.0101 20.0251 1.25219
7848 2 14.5554 18.4129 -1.27371
1609 1 13.6476 20.0093 -0.0779787
7521 2 15.4663 20.0251 1.25219
7813 2 12.7372 18.4496 1.27779
7554 2 17.2843 19.9887 -1.29892
1608 1 16.3746 18.4334 -0.0525708
7552 2 18.1935 18.4496 1.27779
7553 2 20.0117 18.4129 -1.27371
2035 1 21.8308 18.4334 -0.0525708
1293 1 19.1039 20.0093 -0.0779787
7206 2 20.9225 20.0251 1.25219
8131 2 0.91701 23.1431 -1.34894
8129 2 1.82664 21.6013 1.22665
1955 1 2.73737 23.1634 -0.128388
8130 2 3.64444 21.5654 -1.32405
1972 1 5.4644 21.5859 -0.103302
7998 2 4.55565 23.1782 1.20134
8003 2 6.37325 23.1431 -1.34894
8028 2 9.10068 21.5654 -1.32405
1819 1 8.19361 23.1634 -0.128388
7997 2 7.28288 21.6013 1.22665
7818 2 11.8295 23.1431 -1.34894
1818 1 10.9206 21.5859 -0.103302
7780 2 10.0119 23.1782 1.20134
7817 2 14.5569 21.5654 -1.32405
1578 1 13.6498 23.1634 -0.128388
7520 2 15.4681 23.1782 1.20134
7816 2 12.7391 21.6013 1.22665
7525 2 17.2857 23.1431 -1.34894
1611 1 16.3769 21.5859 -0.103302
7519 2 18.1954 21.6013 1.22665
7556 2 20.0132 21.5654 -1.32405
2030 1 21.8331 21.5859 -0.103302
1292 1 19.1061 23.1634 -0.128388
7183 2 20.9244 23.1782 1.20134
8116 2 1.82838 24.756 1.17641
1954 1 2.73943 26.3211 -0.177205
1953 1 5.46654 24.7418 -0.153077
7975 2 4.5573 26.3346 1.15204
8000 2 7.28461 24.756 1.17641
1792 1 8.19567 26.3211 -0.177205
1821 1 10.9228 24.7418 -0.153077
7779 2 10.0135 26.3346 1.15204
7778 2 12.7409 24.756 1.17641
1577 1 13.6519 26.3211 -0.177205
7483 2 15.4698 26.3346 1.15204
1576 1 16.379 24.7418 -0.153077
7522 2 18.1971 24.756 1.17641
2031 1 21.8353 24.7418 -0.153077
1261 1 19.1081 26.3211 -0.177205
7182 2 20.926 26.3346 1.15204
8117 2 1.82995 27.914 1.12838
1939 1 2.74133 29.4822 -0.223106
1956 1 5.46852 27.9012 -0.200604
7974 2 4.55879 29.4943 1.10561
7973 2 7.28619 27.914 1.12838
1791 1 8.19757 29.4822 -0.223106
1790 1 10.9248 27.9012 -0.200604
7744 2 10.015 29.4943 1.10561
7781 2 12.7424 27.914 1.12838
1539 1 13.6538 29.4822 -0.223106
7482 2 15.4713 29.4943 1.10561
1579 1 16.381 27.9012 -0.200604
7481 2 18.1987 27.914 1.12838
2026 1 21.8372 27.9012 -0.200604
1260 1 19.11 29.4822 -0.223106
7151 2 20.9275 29.4943 1.10561
8104 2 1.83136 31.0754 1.08391
1937 1 5.47033 31.0641 -0.244542
7976 2 7.28759 31.0754 1.08391
1793 1 10.9266 31.0641 -0.244542
7742 2 12.7438 31.0754 1.08391
1537 1 16.3828 31.0641 -0.244542
7484 2 18.2001 31.0754 1.08391
2027 1 21.839 31.0641 -0.244542
8105 2 1.83259 34.2401 1.04435
1938 1 2.74304 32.6467 -0.26475
1940 1 5.47194 34.2302 -0.28357
7951 2 4.56012 32.6573 1.06343
1764 1 8.19928 32.6467 -0.26475
7949 2 7.28883 34.2401 1.04435
1762 1 10.9282 34.2302 -0.28357
7743 2 10.0164 32.6573 1.06343
1538 1 13.6555 32.6467 -0.26475
7438 2 15.4726 32.6573 1.06343
7745 2 12.7451 34.2401 1.04435
1540 1 16.3844 34.2302 -0.28357
7436 2 18.2013 34.2401 1.04435
2022 1 21.8407 34.2302 -0.28357
1221 1 19.1118 32.6467 -0.26475
7150 2 20.9288 32.6573 1.06343
8092 2 1.83364 37.4077 1.01098
1923 1 2.74453 35.8145 -0.300854
2023 1 0.0170638 37.3994 -0.316461
1921 1 5.4733 37.3994 -0.316461
7950 2 4.56126 35.8235 1.02682
1763 1 8.20077 35.8145 -0.300854
7952 2 7.28988 37.4077 1.01098
1765 1 10.9295 37.3994 -0.316461
7708 2 10.0175 35.8235 1.02682
1499 1 13.657 35.8145 -0.300854
7437 2 15.4737 35.8235 1.02682
7706 2 12.7461 37.4077 1.01098
1497 1 16.3858 37.3994 -0.316461
7439 2 18.2024 37.4077 1.01098
1220 1 19.1132 35.8145 -0.300854
7111 2 20.93 35.8235 1.02682
8093 2 1.83445 40.5779 0.984906
1922 1 2.74576 38.985 -0.330264
2018 1 0.0181243 40.5712 -0.342148
1924 1 5.47436 40.5712 -0.342148
7928 2 4.5622 38.9925 0.996973
1736 1 8.20199 38.985 -0.330264
7926 2 7.29069 40.5779 0.984906
1734 1 10.9306 40.5712 -0.342148
7707 2 10.0184 38.9925 0.996973
1498 1 13.6582 38.985 -0.330264
7392 2 15.4747 38.9925 0.996973
7709 2 12.7469 40.5779 0.984906
1500 1 16.3868 40.5712 -0.342148
7390 2 18.2032 40.5779 0.984906
1174 1 19.1145 38.985 -0.330264
7110 2 20.9309 38.9925 0.996973
8084 2 1.83497 43.7501 0.967007
1908 1 2.74664 42.1578 -0.352014
2019 1 0.0188096 43.7448 -0.359781
1906 1 5.47505 43.7448 -0.359781
7927 2 4.56287 42.1638 0.974889
1735 1 8.20288 42.1578 -0.352014
7929 2 7.29121 43.7501 0.967007
1737 1 10.9313 43.7448 -0.359781
7676 2 10.0191 42.1638 0.974889
1460 1 13.6591 42.1578 -0.352014
7391 2 15.4753 42.1638 0.974889
7674 2 12.7474 43.7501 0.967007
1458 1 16.3875 43.7448 -0.359781
7393 2 18.2037 43.7501 0.967007
1173 1 19.1154 42.1578 -0.352014
7064 2 20.9316 42.1638 0.974889
8085 2 1.83513 46.9235 0.957903
1907 1 2.74711 45.3321 -0.365382
2017 1 0.0190576 46.9196 -0.368772
1909 1 5.4753 46.9196 -0.368772
7912 2 4.56322 45.3367 0.961329
1712 1 8.20335 45.3321 -0.365382
7910 2 7.29137 46.9235 0.957903
1710 1 10.9315 46.9196 -0.368772
7675 2 10.0195 45.3367 0.961329
1459 1 13.6596 45.3321 -0.365382
7352 2 15.4757 45.3367 0.961329
7677 2 12.7476 46.9235 0.957903
1461 1 16.3878 46.9196 -0.368772
7350 2 18.2038 46.9235 0.957903
1127 1 19.1158 45.3321 -0.365382
7063 2 20.9319 45.3367 0.961329
1897 1 2.74712 48.5072 -0.369921
10339 2 1.83491 50.0972 0.95791
4094 1 0.018832 50.0948 -0.368817
7911 2 4.56319 48.5103 0.956761
4057 1 5.47507 50.0948 -0.368817
1711 1 8.20336 48.5072 -0.369921
10248 2 7.29115 50.0972 0.95791
7649 2 10.0194 48.5103 0.956761
3933 1 10.9313 50.0948 -0.368817
1425 1 13.6596 48.5072 -0.369921
7351 2 15.4757 48.5103 0.956761
10050 2 12.7474 50.0972 0.95791
3705 1 16.3875 50.0948 -0.368817
9771 2 18.2036 50.0972 0.95791
1126 1 19.1158 48.5072 -0.369921
7016 2 20.9319 48.5103 0.956761
1998 1 0.902333 1.17047 2.79668
8058 2 2.72079 1.18576 4.09774
1996 1 3.63159 2.74135 2.7774
8059 2 5.45006 2.75709 4.07846
1875 1 6.35857 1.17047 2.79668
7859 2 8.17702 1.18576 4.09774
1876 1 9.08783 2.74135 2.7774
1646 1 11.8148 1.17047 2.79668
7857 2 10.9063 2.75709 4.07846
7583 2 13.6333 1.18576 4.09774
1644 1 14.5441 2.74135 2.7774
1338 1 17.271 1.17047 2.79668
7584 2 16.3625 2.75709 4.07846
7229 2 19.0895 1.18576 4.09774
8150 2 21.8188 2.75709 4.07846
1339 1 20.0003 2.74135 2.7774
1997 1 0.904645 4.31246 2.75716
8042 2 2.72314 4.32859 4.05823
1863 1 6.36088 4.31246 2.75716
7858 2 8.17938 4.32859 4.05823
1645 1 11.8171 4.31246 2.75716
7569 2 13.6356 4.32859 4.05823
1330 1 17.2734 4.31246 2.75716
7228 2 19.0919 4.32859 4.05823
1983 1 0.907075 7.45547 2.71403
8041 2 2.72562 7.47222 4.0151
1999 1 3.63397 5.88382 2.73603
8040 2 5.45249 5.9003 4.0371
1861 1 9.09021 5.88382 2.73603
1862 1 6.36331 7.45547 2.71403
7839 2 8.18186 7.47222 4.0151
1630 1 11.8196 7.45547 2.71403
7860 2 10.9087 5.9003 4.0371
1647 1 14.5464 5.88382 2.73603
7568 2 13.6381 7.47222 4.0151
1329 1 17.2758 7.45547 2.71403
7567 2 16.365 5.9003 4.0371
8151 2 21.8212 5.9003 4.0371
1328 1 20.0027 5.88382 2.73603
7221 2 19.0943 7.47222 4.0151
1982 1 0.909569 10.5998 2.66771
8019 2 2.72819 10.6169 3.96875
1981 1 3.63644 9.02745 2.69124
8043 2 5.45502 9.04441 3.9923
1843 1 6.36581 10.5998 2.66771
1864 1 9.09268 9.02745 2.69124
7838 2 8.18442 10.6169 3.96875
1629 1 11.822 10.5998 2.66771
7837 2 10.9113 9.04441 3.9923
1628 1 14.5489 9.02745 2.69124
7547 2 13.6407 10.6169 3.96875
1314 1 17.2783 10.5998 2.66771
7570 2 16.3675 9.04441 3.9923
8138 2 21.8237 9.04441 3.9923
1331 1 20.0052 9.02745 2.69124
7220 2 19.0969 10.6169 3.96875
1967 1 0.912066 13.7457 2.61877
8018 2 2.73076 13.7628 3.91977
1984 1 3.63894 12.1725 2.64352
8017 2 5.45759 12.1897 3.94455
1841 1 9.09518 12.1725 2.64352
1842 1 6.3683 13.7457 2.61877
7811 2 8.187 13.7628 3.91977
1606 1 11.8245 13.7457 2.61877
7840 2 10.9138 12.1897 3.94455
1631 1 14.5514 12.1725 2.64352
7546 2 13.6432 13.7628 3.91977
1313 1 17.2808 13.7457 2.61877
7545 2 16.3701 12.1897 3.94455
8139 2 21.8263 12.1897 3.94455
1312 1 20.0077 12.1725 2.64352
7205 2 19.0995 13.7628 3.91977
1966 1 0.914505 16.8936 2.568
7995 2 2.73328 16.9104 3.86889
1965 1 3.64142 15.3194 2.59356
8020 2 5.46015 15.3364 3.89451
1816 1 6.37074 16.8936 2.568
1844 1 9.09765 15.3194 2.59356
7810 2 8.18952 16.9104 3.86889
1605 1 11.827 16.8936 2.568
7809 2 10.9164 15.3364 3.89451
1604 1 14.5539 15.3194 2.59356
7517 2 13.6458 16.9104 3.86889
1290 1 17.2832 16.8936 2.568
7548 2 16.3726 15.3364 3.89451
8126 2 21.8289 15.3364 3.89451
1315 1 20.0101 15.3194 2.59356
7204 2 19.102 16.9104 3.86889
1951 1 0.916828 20.0437 2.51633
7994 2 2.73569 20.0599 3.81706
1968 1 3.6438 18.4683 2.54221
7993 2 5.46262 18.4849 3.84302
1814 1 9.10004 18.4683 2.54221
1815 1 6.37307 20.0437 2.51633
7776 2 8.19192 20.0599 3.81706
1574 1 11.8293 20.0437 2.51633
7812 2 10.9189 18.4849 3.84302
1607 1 14.5563 18.4683 2.54221
7516 2 13.6482 20.0599 3.81706
1289 1 17.2855 20.0437 2.51633
7515 2 16.3751 18.4849 3.84302
8127 2 21.8313 18.4849 3.84302
1288 1 20.0125 18.4683 2.54221
7181 2 19.1044 20.0599 3.81706
1950 1 0.918993 23.1964 2.46491
7971 2 2.73792 23.2117 3.7654
1949 1 3.64605 21.6197 2.49051
7996 2 5.46495 21.6355 3.79113
1788 1 6.37523 23.1964 2.46491
1817 1 9.10229 21.6197 2.49051
7775 2 8.19416 23.2117 3.7654
1573 1 11.8315 23.1964 2.46491
7774 2 10.9212 21.6355 3.79113
1572 1 14.5585 21.6197 2.49051
7479 2 13.6504 23.2117 3.7654
1258 1 17.2877 23.1964 2.46491
7518 2 16.3774 21.6355 3.79113
8114 2 21.8337 21.6355 3.79113
1291 1 20.0148 21.6197 2.49051
7180 2 19.1066 23.2117 3.7654
1935 1 0.920973 26.3518 2.41502
7970 2 2.73996 26.366 3.7152
1952 1 3.64813 24.7737 2.43969
7969 2 5.46709 24.7885 3.74003
1786 1 9.10437 24.7737 2.43969
1787 1 6.37721 26.3518 2.41502
7740 2 8.1962 26.366 3.7152
7777 2 10.9233 24.7885 3.74003
1535 1 11.8335 26.3518 2.41502
1575 1 14.5606 24.7737 2.43969
7478 2 13.6524 26.366 3.7152
7477 2 16.3796 24.7885 3.74003
1257 1 17.2897 26.3518 2.41502
8115 2 21.8358 24.7885 3.74003
1256 1 20.0168 24.7737 2.43969
7149 2 19.1087 26.366 3.7152
1934 1 0.922754 29.5102 2.36802
7947 2 2.74179 29.5229 3.66783
1933 1 3.65001 27.9306 2.39107
7972 2 5.46902 27.9441 3.69107
1789 1 9.10625 27.9306 2.39107
1760 1 6.37899 29.5102 2.36802
7739 2 8.19803 29.5229 3.66783
7738 2 10.9253 27.9441 3.69107
1534 1 11.8352 29.5102 2.36802
1533 1 14.5625 27.9306 2.39107
7434 2 13.6543 29.5229 3.66783
7480 2 16.3815 27.9441 3.69107
1218 1 17.2915 29.5102 2.36802
8102 2 21.8377 27.9441 3.69107
1259 1 20.0187 27.9306 2.39107
7148 2 19.1105 29.5229 3.66783
8103 2 0.0144998 31.1025 3.64566
1936 1 3.65169 31.0905 2.34604
7945 2 5.47074 31.1025 3.64566
1758 1 9.10793 31.0905 2.34604
7741 2 10.927 31.1025 3.64566
1536 1 14.5642 31.0905 2.34604
7432 2 16.3832 31.1025 3.64566
1216 1 20.0204 31.0905 2.34604
1919 1 0.924328 32.6714 2.32531
7946 2 2.7434 32.6827 3.62473
8090 2 0.0159965 34.2636 3.60521
1917 1 3.65315 34.2531 2.30599
7948 2 5.47223 34.2636 3.60521
1759 1 6.38057 32.6714 2.32531
1761 1 9.10939 34.2531 2.30599
7704 2 8.19963 32.6827 3.62473
1495 1 11.8368 32.6714 2.32531
7702 2 10.9285 34.2636 3.60521
1493 1 14.5656 34.2531 2.30599
7433 2 13.6559 32.6827 3.62473
1217 1 17.293 32.6714 2.32531
7435 2 16.3847 34.2636 3.60521
1219 1 20.0219 34.2531 2.30599
7109 2 19.1121 32.6827 3.62473
8091 2 0.0172534 37.4272 3.57105
1918 1 0.925679 35.8355 2.28824
7924 2 2.74478 35.8451 3.58727
1920 1 3.65438 37.4184 2.27221
7922 2 5.47349 37.4272 3.57105
1730 1 9.11062 37.4184 2.27221
1732 1 6.38192 35.8355 2.28824
7703 2 8.20101 35.8451 3.58727
1494 1 11.8382 35.8355 2.28824
7705 2 10.9297 37.4272 3.57105
1496 1 14.5669 37.4184 2.27221
7388 2 13.6573 35.8451 3.58727
1171 1 17.2944 35.8355 2.28824
7386 2 16.386 37.4272 3.57105
1169 1 20.0231 37.4184 2.27221
7108 2 19.1135 35.8451 3.58727
8082 2 0.018229 40.593 3.54434
1904 1 0.926774 39.0019 2.25802
7923 2 2.7459 39.0098 3.5567
1902 1 3.65533 40.5859 2.24581
7925 2 5.47447 40.593 3.54434
1731 1 6.38301 39.0019 2.25802
1733 1 9.11157 40.5859 2.24581
7672 2 8.20214 39.0098 3.5567
1456 1 11.8393 39.0019 2.25802
7670 2 10.9307 40.593 3.54434
1454 1 14.5678 40.5859 2.24581
7387 2 13.6584 39.0098 3.5567
1170 1 17.2955 39.0019 2.25802
7389 2 16.3869 40.593 3.54434
1172 1 20.024 40.5859 2.24581
7062 2 19.1146 39.0098 3.5567
8083 2 0.0188636 43.7604 3.52601
1903 1 0.927563 42.1703 2.23567
7908 2 2.74671 42.1765 3.53408
1905 1 3.65594 43.755 2.22769
7906 2 5.4751 43.7604 3.52601
1706 1 9.11218 43.755 2.22769
1708 1 6.3838 42.1703 2.23567
7671 2 8.20295 42.1765 3.53408
1455 1 11.84 42.1703 2.23567
7673 2 10.9313 43.7604 3.52601
1457 1 14.5684 43.755 2.22769
7348 2 13.6592 42.1765 3.53408
1124 1 17.2963 42.1703 2.23567
7346 2 16.3876 43.7604 3.52601
1122 1 20.0247 43.755 2.22769
7061 2 19.1154 42.1765 3.53408
8081 2 0.0190988 46.9289 3.5167
1896 1 0.927988 45.3401 2.22194
7907 2 2.74715 45.3446 3.5202
1894 1 3.65617 46.9252 2.21846
7909 2 5.47534 46.9289 3.5167
1707 1 6.38423 45.3401 2.22194
1709 1 9.11241 46.9252 2.21846
7648 2 8.20339 45.3446 3.5202
1424 1 11.8405 45.3401 2.22194
7646 2 10.9316 46.9289 3.5167
1422 1 14.5686 46.9252 2.21846
7347 2 13.6596 45.3446 3.5202
1123 1 17.2967 45.3401 2.22194
7349 2 16.3878 46.9289 3.5167
1125 1 20.0249 46.9252 2.21846
7015 2 19.1159 45.3446 3.5202
1895 1 0.928004 48.5105 2.2173
7897 2 2.74718 48.5133 3.51554
10338 2 0.0189039 50.0977 3.51674
4056 1 3.65598 50.0958 2.21844
10233 2 5.47514 50.0977 3.51674
1689 1 6.38424 48.5105 2.2173
7647 2 8.20341 48.5133 3.51554
3922 1 9.11221 50.0958 2.21844
1423 1 11.8405 48.5105 2.2173
10049 2 10.9314 50.0977 3.51674
7313 2 13.6597 48.5133 3.51554
3704 1 14.5685 50.0958 2.21844
1081 1 17.2967 48.5105 2.2173
9758 2 16.3876 50.0977 3.51674
7014 2 19.1159 48.5133 3.51554
3385 1 20.0247 50.0958 2.21844
8038 2 0.900599 1.21581 6.66974
1995 1 1.81179 2.77292 5.35946
1859 1 4.53868 1.20104 5.37882
8036 2 3.62995 2.78815 6.65045
7855 2 6.35684 1.21581 6.66974
1857 1 7.26802 2.77292 5.35946
7856 2 9.08619 2.78815 6.65045
1642 1 9.99492 1.20104 5.37882
7565 2 11.8131 1.21581 6.66974
1326 1 15.4512 1.20104 5.37882
1643 1 12.7243 2.77292 5.35946
7563 2 14.5424 2.78815 6.65045
7226 2 17.2693 1.21581 6.66974
1324 1 18.1805 2.77292 5.35946
960 1 20.9074 1.20104 5.37882
7227 2 19.9987 2.78815 6.65045
8037 2 0.903117 4.36056 6.6302
1858 1 4.54117 4.34492 5.33914
7835 2 6.35936 4.36056 6.6302
1626 1 9.99741 4.34492 5.33914
7564 2 11.8156 4.36056 6.6302
1325 1 15.4536 4.34492 5.33914
7218 2 17.2718 4.36056 6.6302
959 1 20.9099 4.34492 5.33914
1979 1 1.81436 5.91707 5.31789
8015 2 0.905822 7.50565 6.58697
1839 1 4.54382 7.48938 5.29576
8039 2 3.63257 5.93305 6.60903
1860 1 7.2706 5.91707 5.31789
7833 2 9.08881 5.93305 6.60903
7834 2 6.36206 7.50565 6.58697
1625 1 10.0001 7.48938 5.29576
7543 2 11.8183 7.50565 6.58697
1310 1 15.4563 7.48938 5.29576
1624 1 12.7268 5.91707 5.31789
7566 2 14.545 5.93305 6.60903
1327 1 18.1831 5.91707 5.31789
7217 2 17.2745 7.50565 6.58697
958 1 20.9125 7.48938 5.29576
7216 2 20.0013 5.93305 6.60903
1980 1 1.81707 9.06188 5.27279
8014 2 0.908665 10.6513 6.54043
1838 1 4.54658 10.6346 5.24907
8013 2 3.63535 9.07838 6.56408
1837 1 7.27331 9.06188 5.27279
7807 2 6.3649 10.6513 6.54043
7836 2 9.09159 9.07838 6.56408
1602 1 10.0028 10.6346 5.24907
7542 2 11.8211 10.6513 6.54043
1309 1 15.4591 10.6346 5.24907
1627 1 12.7296 9.06188 5.27279
7541 2 14.5478 9.07838 6.56408
1308 1 18.1858 9.06188 5.27279
7202 2 17.2774 10.6513 6.54043
951 1 20.9153 10.6346 5.24907
7219 2 20.0041 9.07838 6.56408
1963 1 1.81987 12.2076 5.22466
7991 2 0.911577 13.7976 6.49111
1812 1 4.54939 13.7809 5.19964
8016 2 3.63824 12.2243 6.51607
1840 1 7.27611 12.2076 5.22466
7805 2 9.09447 12.2243 6.51607
7806 2 6.36782 13.7976 6.49111
1601 1 10.0056 13.7809 5.19964
7513 2 11.8241 13.7976 6.49111
1286 1 15.4619 13.7809 5.19964
1600 1 12.7323 12.2076 5.22466
7544 2 14.5507 12.2243 6.51607
1311 1 18.1886 12.2076 5.22466
7201 2 17.2803 13.7976 6.49111
950 1 20.9181 13.7809 5.19964
7200 2 20.007 12.2243 6.51607
1964 1 1.82266 15.3544 5.17412
7990 2 0.914481 16.9449 6.43974
1811 1 4.55216 16.9284 5.14821
7989 2 3.64115 15.3711 6.46563
1810 1 7.2789 15.3544 5.17412
7772 2 6.37072 16.9449 6.43974
7808 2 9.09739 15.3711 6.46563
1570 1 10.0084 16.9284 5.14821
7512 2 11.827 16.9449 6.43974
1285 1 15.4646 16.9284 5.14821
1603 1 12.7351 15.3544 5.17412
7511 2 14.5536 15.3711 6.46563
1284 1 18.1914 15.3544 5.17412
7178 2 17.2832 16.9449 6.43974
935 1 20.9209 16.9284 5.14821
7203 2 20.0099 15.3711 6.46563
1947 1 1.82539 18.5028 5.12203
7967 2 0.917294 20.0934 6.38724
1784 1 4.55482 20.0776 5.09573
7992 2 3.64402 18.519 6.41357
1813 1 7.28163 18.5028 5.12203
7770 2 9.10026 18.519 6.41357
7771 2 6.37353 20.0934 6.38724
1569 1 10.0111 20.0776 5.09573
7475 2 11.8298 20.0934 6.38724
1254 1 15.4673 20.0776 5.09573
1568 1 12.7379 18.5028 5.12203
7514 2 14.5565 18.519 6.41357
1287 1 18.1941 18.5028 5.12203
7177 2 17.286 20.0934 6.38724
934 1 20.9235 20.0776 5.09573
7176 2 20.0127 18.519 6.41357
1948 1 1.82797 21.6528 5.06944
7966 2 0.919941 23.2436 6.33473
1783 1 4.55731 23.2286 5.04333
7965 2 3.64676 21.6683 6.36091
1782 1 7.28421 21.6528 5.06944
7736 2 6.37618 23.2436 6.33473
7773 2 9.103 21.6683 6.36091
1531 1 10.0135 23.2286 5.04333
7474 2 11.8324 23.2436 6.33473
1253 1 15.4698 23.2286 5.04333
1571 1 12.7404 21.6528 5.06944
7473 2 14.5592 21.6683 6.36091
1252 1 18.1967 21.6528 5.06944
7146 2 17.2887 23.2436 6.33473
911 1 20.926 23.2286 5.04333
7179 2 20.0155 21.6683 6.36091
1931 1 1.83035 24.805 5.01757
7943 2 0.922371 26.3958 6.28353
7968 2 3.64931 24.8194 6.30888
1756 1 4.55957 26.3819 4.99233
1785 1 7.28659 24.805 5.01757
7734 2 9.10554 24.8194 6.30888
7735 2 6.37861 26.3958 6.28353
1530 1 10.0158 26.3819 4.99233
7430 2 11.8348 26.3958 6.28353
1529 1 12.7428 24.805 5.01757
7476 2 14.5618 24.8194 6.30888
1214 1 15.4721 26.3819 4.99233
1255 1 18.1991 24.805 5.01757
7145 2 17.2911 26.3958 6.28353
7144 2 20.018 24.8194 6.30888
910 1 20.9283 26.3819 4.99233
1932 1 1.8325 27.9595 4.9678
7942 2 0.924557 29.55 6.23508
7941 2 3.65161 27.9726 6.25887
1755 1 4.5616 29.5376 4.94417
1754 1 7.28874 27.9595 4.9678
7737 2 9.10785 27.9726 6.25887
7700 2 6.38079 29.55 6.23508
1491 1 10.0178 29.5376 4.94417
7429 2 11.837 29.55 6.23508
1532 1 12.745 27.9595 4.9678
7428 2 14.5641 27.9726 6.25887
1213 1 15.4741 29.5376 4.94417
1212 1 18.2012 27.9595 4.9678
7106 2 17.2933 29.55 6.23508
7147 2 20.0203 27.9726 6.25887
879 1 20.9303 29.5376 4.94417
1915 1 1.8344 31.1164 4.9216
7944 2 3.65367 31.128 6.21235
1757 1 7.29063 31.1164 4.9216
7698 2 9.10991 31.128 6.21235
1489 1 12.7469 31.1164 4.9216
7431 2 14.5662 31.128 6.21235
1215 1 18.2031 31.1164 4.9216
7104 2 20.0224 31.128 6.21235
1916 1 1.83604 34.2757 4.88042
7920 2 0.926489 32.7066 6.19087
1728 1 4.56337 32.6957 4.9003
7918 2 3.65548 34.2858 6.17081
1726 1 7.29228 34.2757 4.88042
7699 2 6.38273 32.7066 6.19087
7701 2 9.11172 34.2858 6.17081
1490 1 10.0196 32.6957 4.9003
7384 2 11.839 32.7066 6.19087
1167 1 15.4758 32.6957 4.9003
1492 1 12.7485 34.2757 4.88042
7382 2 14.568 34.2858 6.17081
1165 1 18.2048 34.2757 4.88042
7105 2 17.2952 32.7066 6.19087
878 1 20.9321 32.6957 4.9003
7107 2 20.0242 34.2858 6.17081
1900 1 1.83743 37.4373 4.84564
7919 2 0.928161 35.8654 6.15236
1727 1 4.56489 35.8562 4.86215
7921 2 3.65701 37.4457 6.13567
1729 1 7.29366 37.4373 4.84564
7666 2 9.11325 37.4457 6.13567
7668 2 6.3844 35.8654 6.15236
1452 1 10.0211 35.8562 4.86215
7383 2 11.8406 35.8654 6.15236
1166 1 15.4774 35.8562 4.86215
1450 1 12.7499 37.4373 4.84564
7385 2 14.5695 37.4457 6.13567
1168 1 18.2061 37.4373 4.84564
7059 2 17.2969 35.8654 6.15236
839 1 20.9336 35.8562 4.86215
7057 2 20.0257 37.4457 6.13567
1901 1 1.8385 40.6008 4.81843
7904 2 0.92954 39.0263 6.1209
1704 1 4.56612 39.0188 4.83102
7902 2 3.65822 40.6075 6.10817
1702 1 7.29474 40.6008 4.81843
7667 2 6.38578 39.0263 6.1209
7669 2 9.11446 40.6075 6.10817
1451 1 10.0224 39.0188 4.83102
7344 2 11.842 39.0263 6.1209
1120 1 15.4786 39.0188 4.83102
1453 1 12.751 40.6008 4.81843
7342 2 14.5707 40.6075 6.10817
1118 1 18.2072 40.6008 4.81843
7058 2 17.2983 39.0263 6.1209
838 1 20.9348 39.0188 4.83102
7060 2 20.0269 40.6075 6.10817
1892 1 1.83921 43.7658 4.79977
7903 2 0.930564 42.1889 6.0976
1703 1 4.56703 42.1832 4.80799
7905 2 3.65903 43.7707 6.0893
1705 1 7.29545 43.7658 4.79977
7642 2 9.11527 43.7707 6.0893
7644 2 6.3868 42.1889 6.0976
1420 1 10.0233 42.1832 4.80799
7343 2 11.843 42.1889 6.0976
1119 1 15.4795 42.1832 4.80799
1418 1 12.7517 43.7658 4.79977
7345 2 14.5715 43.7707 6.0893
1121 1 18.2079 43.7658 4.79977
7012 2 17.2993 42.1889 6.0976
793 1 20.9357 42.1832 4.80799
7010 2 20.0277 43.7707 6.0893
1893 1 1.83949 46.9317 4.7903
7896 2 0.931146 45.3527 6.08333
1688 1 4.56753 45.3487 4.79386
7894 2 3.65937 46.9349 6.07974
1686 1 7.29573 46.9317 4.7903
7643 2 6.38738 45.3527 6.08333
7645 2 9.11561 46.9349 6.07974
1419 1 10.0238 45.3487 4.79386
7312 2 11.8436 45.3527 6.08333
1080 1 15.48 45.3487 4.79386
1421 1 12.752 46.9317 4.7903
7310 2 14.5718 46.9349 6.07974
1078 1 18.2082 46.9317 4.7903
7011 2 17.2999 45.3527 6.08333
792 1 20.9362 45.3487 4.79386
7013 2 20.0281 46.9349 6.07974
7895 2 0.931214 48.5171 6.07859
4042 1 1.8393 50.0979 4.79035
1687 1 4.56758 48.5148 4.78913
10232 2 3.65917 50.0993 6.07986
7625 2 6.38745 48.5171 6.07859
3921 1 7.29554 50.0979 4.79035
10030 2 9.1154 50.0993 6.07986
1393 1 10.0238 48.5148 4.78913
7311 2 11.8437 48.5171 6.07859
1079 1 15.4801 48.5148 4.78913
3689 1 12.7518 50.0979 4.79035
9757 2 14.5716 50.0993 6.07986
6969 2 17.2999 48.5171 6.07859
3384 1 18.208 50.0979 4.79035
747 1 20.9363 48.5148 4.78913
9401 2 20.0279 50.0993 6.07986
1855 1 2.71856 1.2308 7.95583
8035 2 1.80979 2.81864 9.22412
7831 2 4.53664 1.24535 9.24333
1856 1 5.44795 2.80362 7.93649
1622 1 8.1748 1.2308 7.95583
7829 2 7.26603 2.81864 9.22412
7561 2 9.99288 1.24535 9.24333
1620 1 10.9042 2.80362 7.93649
1322 1 13.631 1.2308 7.95583
7214 2 15.4491 1.24535 9.24333
7562 2 12.7223 2.81864 9.22412
1323 1 16.3604 2.80362 7.93649
7212 2 18.1785 2.81864 9.22412
957 1 19.0873 1.2308 7.95583
6848 2 20.9054 1.24535 9.24333
1977 1 21.8167 2.80362 7.93649
1835 1 2.72117 4.37647 7.91618
7830 2 4.53924 4.3919 9.20393
1621 1 8.17741 4.37647 7.91618
7539 2 9.99548 4.3919 9.20393
1306 1 13.6336 4.37647 7.91618
7213 2 15.4517 4.3919 9.20393
956 1 19.0899 4.37647 7.91618
6847 2 20.908 4.3919 9.20393
1834 1 2.724 7.52225 7.87276
8011 2 1.81252 5.96514 9.18281
1833 1 5.45068 5.94934 7.89492
7803 2 4.54209 7.53836 9.16078
1598 1 8.18024 7.52225 7.87276
7832 2 7.26876 5.96514 9.18281
1623 1 10.9069 5.94934 7.89492
7538 2 9.99833 7.53836 9.16078
1305 1 13.6365 7.52225 7.87276
7198 2 15.4546 7.53836 9.16078
7537 2 12.725 5.96514 9.18281
1304 1 16.3632 5.94934 7.89492
7215 2 18.1812 5.96514 9.18281
1978 1 21.8194 5.94934 7.89492
949 1 19.0927 7.52225 7.87276
6846 2 20.9108 7.53836 9.16078
1808 1 2.72701 10.6683 7.82593
8012 2 1.81548 9.11157 9.1379
1836 1 5.45361 9.09522 7.84975
7802 2 4.54514 10.6848 9.11422
1597 1 8.18325 10.6683 7.82593
7801 2 7.27171 9.11157 9.1379
1596 1 10.9098 9.09522 7.84975
7509 2 10.0014 10.6848 9.11422
1282 1 13.6395 10.6683 7.82593
7197 2 15.4576 10.6848 9.11422
7540 2 12.728 9.11157 9.1379
1307 1 16.3661 9.09522 7.84975
7196 2 18.1842 9.11157 9.1379
1961 1 21.8223 9.09522 7.84975
948 1 19.0957 10.6683 7.82593
6839 2 20.9139 10.6848 9.11422
1807 1 2.73012 13.8147 7.77621
7987 2 1.81861 12.2581 9.08981
1806 1 5.45667 12.2414 7.8014
7768 2 4.54834 13.8314 9.06473
1566 1 8.18635 13.8147 7.77621
7804 2 7.27485 12.2581 9.08981
1599 1 10.9129 12.2414 7.8014
7508 2 10.0046 13.8314 9.06473
1281 1 13.6426 13.8147 7.77621
7174 2 15.4608 13.8314 9.06473
7507 2 12.7311 12.2581 9.08981
1280 1 16.3691 12.2414 7.8014
7199 2 18.1873 12.2581 9.08981
1962 1 21.8254 12.2414 7.8014
933 1 19.0988 13.8147 7.77621
6838 2 20.9171 13.8314 9.06473
1780 1 2.73324 16.9618 7.72429
7988 2 1.82184 15.4047 9.03909
1809 1 5.4598 15.3882 7.75048
7767 2 4.55159 16.9783 9.01298
1565 1 8.18948 16.9618 7.72429
7766 2 7.27808 15.4047 9.03909
1564 1 10.916 15.3882 7.75048
7471 2 10.0078 16.9783 9.01298
1250 1 13.6457 16.9618 7.72429
7173 2 15.4641 16.9783 9.01298
7510 2 12.7343 15.4047 9.03909
1283 1 16.3723 15.3882 7.75048
7172 2 18.1906 15.4047 9.03909
1945 1 21.8285 15.3882 7.75048
932 1 19.102 16.9618 7.72429
6823 2 20.9203 16.9783 9.01298
1779 1 2.73629 20.1099 7.67109
7963 2 1.82509 18.5519 8.98653
1778 1 5.4629 18.5357 7.69779
7732 2 4.5548 20.1258 8.95985
1527 1 8.19253 20.1099 7.67109
7769 2 7.28132 18.5519 8.98653
1567 1 10.9191 18.5357 7.69779
7470 2 10.011 20.1258 8.95985
1249 1 13.6488 20.1099 7.67109
7142 2 15.4673 20.1258 8.95985
7469 2 12.7376 18.5519 8.98653
1248 1 16.3754 18.5357 7.69779
7175 2 18.1938 18.5519 8.98653
1946 1 21.8316 18.5357 7.69779
909 1 19.105 20.1099 7.67109
6822 2 20.9235 20.1258 8.95985
1752 1 2.73917 23.2593 7.61775
7964 2 1.82824 21.6999 8.93311
1781 1 5.46587 21.6844 7.64436
7731 2 4.55787 23.2743 8.90645
1526 1 8.19541 23.2593 7.61775
7730 2 7.28448 21.6999 8.93311
1525 1 10.9221 21.6844 7.64436
7426 2 10.0141 23.2743 8.90645
1210 1 13.6516 23.2593 7.61775
7141 2 15.4703 23.2743 8.90645
7472 2 12.7407 21.6999 8.93311
1251 1 16.3783 21.6844 7.64436
7140 2 18.197 21.6999 8.93311
1929 1 21.8346 21.6844 7.64436
908 1 19.1079 23.2593 7.61775
6799 2 20.9266 23.2743 8.90645
7939 2 1.83121 24.849 8.88007
1751 1 2.74181 26.4103 7.56561
1750 1 5.46864 24.8346 7.59144
7696 2 4.56073 26.4242 8.85413
7733 2 7.28745 24.849 8.88007
1487 1 8.19805 26.4103 7.56561
1528 1 10.9249 24.8346 7.59144
7425 2 10.017 26.4242 8.85413
7424 2 12.7437 24.849 8.88007
1209 1 13.6543 26.4103 7.56561
7102 2 15.4732 26.4242 8.85413
1208 1 16.3811 24.8346 7.59144
7143 2 18.1999 24.849 8.88007
1930 1 21.8374 24.8346 7.59144
877 1 19.1105 26.4103 7.56561
6798 2 20.9294 26.4242 8.85413
7940 2 1.83395 27.9997 8.82883
1724 1 2.74418 29.5633 7.51617
1753 1 5.47115 27.9865 7.54046
7694 2 7.29018 27.9997 8.82883
1486 1 8.20042 29.5633 7.51617
1485 1 10.9274 27.9865 7.54046
7427 2 12.7464 27.9997 8.82883
1163 1 13.6567 29.5633 7.51617
1211 1 16.3836 27.9865 7.54046
7100 2 18.2027 27.9997 8.82883
1913 1 21.8399 27.9865 7.54046
876 1 19.1129 29.5633 7.51617
7916 2 1.83641 31.1522 8.78097
1914 1 0.0171468 31.1405 7.49295
1722 1 5.47339 31.1405 7.49295
7695 2 4.56333 29.5757 8.80438
7697 2 7.29265 31.1522 8.78097
1488 1 10.9296 31.1405 7.49295
7380 2 10.0196 29.5757 8.80438
7101 2 15.4758 29.5757 8.80438
7378 2 12.7489 31.1522 8.78097
1161 1 16.3859 31.1405 7.49295
7103 2 18.2051 31.1522 8.78097
6767 2 20.932 29.5757 8.80438
1723 1 2.74628 32.7183 7.47099
7917 2 1.83861 34.3066 8.73809
1898 1 0.0191046 34.2966 7.45048
1696 1 0.929103 32.74 10.0405
1725 1 5.47534 34.2966 7.45048
7664 2 4.56567 32.7292 8.75881
1694 1 3.65838 34.3167 10.0192
1448 1 8.20252 32.7183 7.47099
7662 2 7.29485 34.3066 8.73809
1443 1 6.38534 32.74 10.0405
1445 1 9.11462 34.3167 10.0192
1446 1 10.9316 34.2966 7.45048
7379 2 10.0219 32.7292 8.75881
1112 1 11.8416 32.74 10.0405
1162 1 13.6588 32.7183 7.47099
7055 2 15.4781 32.7292 8.75881
7381 2 12.7511 34.3066 8.73809
1110 1 14.5709 34.3167 10.0192
1164 1 16.3878 34.2966 7.45048
7053 2 18.2073 34.3066 8.73809
833 1 17.2978 32.74 10.0405
837 1 19.115 32.7183 7.47099
6766 2 20.9344 32.7292 8.75881
835 1 20.0271 34.3167 10.0192
1700 1 2.7481 35.8754 7.4316
1899 1 0.0207751 37.4547 7.41452
7900 2 1.84052 37.463 8.70173
1695 1 0.931351 35.8938 9.99962
1698 1 5.47701 37.4547 7.41452
7663 2 4.56772 35.8846 8.71901
1697 1 3.66048 37.4713 9.98186
1447 1 8.20434 35.8754 7.4316
7665 2 7.29676 37.463 8.70173
1410 1 9.11672 37.4713 9.98186
1412 1 6.38759 35.8938 9.99962
1449 1 10.9333 37.4547 7.41452
7340 2 10.024 35.8846 8.71901
1111 1 11.8438 35.8938 9.99962
1116 1 13.6606 35.8754 7.4316
7054 2 15.4802 35.8846 8.71901
7338 2 12.753 37.463 8.70173
1113 1 14.573 37.4713 9.98186
1114 1 16.3895 37.4547 7.41452
7056 2 18.2092 37.463 8.70173
788 1 17.3001 35.8938 9.99962
836 1 19.1168 35.8754 7.4316
6728 2 20.9364 35.8846 8.71901
786 1 20.0292 37.4713 9.98186
1699 1 2.74961 39.0344 7.3994
1890 1 0.0221103 40.6145 7.38637
7901 2 1.84208 40.6211 8.67323
1680 1 0.933286 39.0493 9.96611
1701 1 5.47835 40.6145 7.38637
7640 2 4.56947 39.0418 8.68642
1678 1 3.66222 40.6276 9.95254
1416 1 8.20585 39.0344 7.3994
7638 2 7.29832 40.6211 8.67323
1411 1 6.38952 39.0493 9.96611
1413 1 9.11846 40.6276 9.95254
1414 1 10.9346 40.6145 7.38637
7339 2 10.0257 39.0418 8.68642
1072 1 11.8458 39.0493 9.96611
1115 1 13.6621 39.0344 7.3994
7008 2 15.4819 39.0418 8.68642
7341 2 12.7546 40.6211 8.67323
1070 1 14.5747 40.6276 9.95254
1117 1 16.3908 40.6145 7.38637
7006 2 18.2108 40.6211 8.67323
787 1 17.302 39.0493 9.96611
791 1 19.1183 39.0344 7.3994
6727 2 20.9382 39.0418 8.68642
789 1 20.0309 40.6276 9.95254
1684 1 2.75075 42.195 7.37556
1891 1 0.0230233 43.7757 7.36706
7892 2 1.84317 43.7805 8.65367
1679 1 0.934801 42.2062 9.94127
1682 1 5.47926 43.7757 7.36706
7639 2 4.57081 42.2006 8.66228
1681 1 3.66347 43.7851 9.93242
1415 1 8.20698 42.195 7.37556
7641 2 7.2994 43.7805 8.65367
1386 1 9.11971 43.7851 9.93242
1388 1 6.39104 42.2062 9.94127
1417 1 10.9355 43.7757 7.36706
7308 2 10.027 42.2006 8.66228
1071 1 11.8473 42.2062 9.94127
1076 1 13.6632 42.195 7.37556
7007 2 15.4833 42.2006 8.66228
7306 2 12.7556 43.7805 8.65367
1073 1 14.5759 43.7851 9.93242
1074 1 16.3917 43.7757 7.36706
7009 2 18.2119 43.7805 8.65367
743 1 17.3035 42.2062 9.94127
790 1 19.1195 42.195 7.37556
6688 2 20.9395 42.2006 8.66228
741 1 20.0322 43.7851 9.93242
1683 1 2.75141 45.3566 7.36096
1889 1 0.0234158 46.9377 7.3573
7893 2 1.84366 46.9407 8.64379
1672 1 0.935735 45.3642 9.92607
1685 1 5.47965 46.9377 7.3573
7624 2 4.57161 45.3605 8.64749
1670 1 3.66405 46.9435 9.92228
1392 1 8.20765 45.3566 7.36096
7622 2 7.29989 46.9407 8.64379
1387 1 6.39197 45.3642 9.92607
1389 1 9.12029 46.9435 9.92228
1390 1 10.9359 46.9377 7.3573
7307 2 10.0279 45.3605 8.64749
1040 1 11.8482 45.3642 9.92607
1075 1 13.6639 45.3566 7.36096
6968 2 15.4841 45.3605 8.64749
7309 2 12.7561 46.9407 8.64379
1038 1 14.5765 46.9435 9.92228
1077 1 16.3921 46.9377 7.3573
6966 2 18.2124 46.9407 8.64379
742 1 17.3045 45.3642 9.92607
746 1 19.1201 45.3566 7.36096
6687 2 20.9403 45.3605 8.64749
744 1 20.0328 46.9435 9.92228
1673 1 2.75152 48.5189 7.35612
4041 1 0.0232257 50.1 7.35745
10210 2 1.84346 50.1012 8.64397
1671 1 0.935943 48.5228 9.92109
7623 2 4.57177 48.5209 8.64262
3902 1 5.47946 50.1 7.35745
3901 1 3.66387 50.102 9.9225
1391 1 8.20776 48.5189 7.35612
3665 1 9.12011 50.102 9.9225
10029 2 7.2997 50.1012 8.64397
1369 1 6.39218 48.5228 9.92109
7281 2 10.028 48.5209 8.64262
3688 1 10.9357 50.1 7.35745
1039 1 11.8484 48.5228 9.92109
1041 1 13.664 48.5189 7.35612
6967 2 15.4842 48.5209 8.64262
3368 1 14.5763 50.102 9.9225
9736 2 12.7559 50.1012 8.64397
3369 1 16.3919 50.1 7.35745
9400 2 18.2122 50.1012 8.64397
702 1 17.3047 48.5228 9.92109
745 1 19.1202 48.5189 7.35612
6648 2 20.9405 48.5209 8.64262
3001 1 20.0326 50.102 9.9225
1831 1 0.898337 1.26015 10.5311
7827 2 2.71639 1.27462 11.8174
1829 1 3.62775 2.8339 10.5119
7828 2 5.44577 2.84888 11.7984
1618 1 6.35458 1.26015 10.5311
7535 2 8.17263 1.27462 11.8174
1619 1 9.08399 2.8339 10.5119
1302 1 11.8108 1.26015 10.5311
7533 2 10.902 2.84888 11.7984
7210 2 13.6289 1.27462 11.8174
1300 1 14.5402 2.8339 10.5119
954 1 17.2671 1.26015 10.5311
7211 2 16.3582 2.84888 11.7984
6845 2 19.0851 1.27462 11.8174
955 1 19.9965 2.8339 10.5119
8009 2 21.8145 2.84888 11.7984
1830 1 0.900991 4.40758 10.4917
7799 2 2.71899 4.423 11.7784
1594 1 6.35723 4.40758 10.4917
7534 2 8.17523 4.423 11.7784
1301 1 11.8135 4.40758 10.4917
7194 2 13.6315 4.423 11.7784
946 1 17.2697 4.40758 10.4917
6844 2 19.0877 4.423 11.7784
1804 1 0.903924 7.55467 10.4485
7798 2 2.72189 7.57083 11.7355
1832 1 3.63054 5.98117 10.4705
7797 2 5.44852 5.99698 11.7574
1592 1 9.08678 5.98117 10.4705
1593 1 6.36016 7.55467 10.4485
7505 2 8.17812 7.57083 11.7355
1278 1 11.8164 7.55467 10.4485
7536 2 10.9048 5.99698 11.7574
1303 1 14.543 5.98117 10.4705
7193 2 13.6344 7.57083 11.7355
945 1 17.2726 7.55467 10.4485
7192 2 16.361 5.99698 11.7574
944 1 19.9993 5.98117 10.4705
8010 2 21.8172 5.99698 11.7574
6837 2 19.0906 7.57083 11.7355
1803 1 0.9071 10.7015 10.4017
7764 2 2.72506 10.7181 11.6891
1802 1 3.6336 9.1281 10.4255
7800 2 5.45156 9.14454 11.7127
1562 1 6.36334 10.7015 10.4017
1595 1 9.08984 9.1281 10.4255
7504 2 8.1813 10.7181 11.6891
1277 1 11.8196 10.7015 10.4017
7503 2 10.9078 9.14454 11.7127
1276 1 14.5461 9.1281 10.4255
7170 2 13.6375 10.7181 11.6891
930 1 17.2758 10.7015 10.4017
7195 2 16.364 9.14454 11.7127
947 1 20.0023 9.1281 10.4255
7985 2 21.8203 9.14454 11.7127
6836 2 19.0938 10.7181 11.6891
1776 1 0.910459 13.8481 10.3519
7763 2 2.72847 13.8649 11.6397
1805 1 3.63688 12.2748 10.3772
7762 2 5.45486 12.2916 11.6647
1519 1 4.54659 13.8816 12.9279
1560 1 9.09312 12.2748 10.3772
1561 1 6.3667 13.8481 10.3519
7467 2 8.18471 13.8649 11.6397
1246 1 11.8229 13.8481 10.3519
7506 2 10.9111 12.2916 11.6647
1241 1 10.0028 13.8816 12.9279
1279 1 14.5494 12.2748 10.3772
7169 2 13.6409 13.8649 11.6397
902 1 15.4591 13.8816 12.9279
929 1 17.2792 13.8481 10.3519
7168 2 16.3673 12.2916 11.6647
928 1 20.0056 12.2748 10.3772
7986 2 21.8236 12.2916 11.6647
6821 2 19.0972 13.8649 11.6397
582 1 20.9153 13.8816 12.9279
1775 1 0.913914 16.9947 10.2997
7728 2 2.73203 17.0114 11.5877
1773 1 1.82033 15.4548 12.902
1774 1 3.6403 15.4214 10.326
7765 2 5.45836 15.4382 11.6139
1518 1 4.55034 17.0278 12.8755
1523 1 6.37015 16.9947 10.2997
1563 1 9.09654 15.4214 10.326
7466 2 8.18827 17.0114 11.5877
1517 1 7.27656 15.4548 12.902
1245 1 11.8264 16.9947 10.2997
7465 2 10.9146 15.4382 11.6139
1202 1 10.0066 17.0278 12.8755
1244 1 14.5528 15.4214 10.326
7138 2 13.6445 17.0114 11.5877
901 1 15.4628 17.0278 12.8755
1243 1 12.7328 15.4548 12.902
906 1 17.2826 16.9947 10.2997
7171 2 16.3708 15.4382 11.6139
900 1 18.189 15.4548 12.902
931 1 20.009 15.4214 10.326
7961 2 21.8271 15.4382 11.6139
6820 2 19.1007 17.0114 11.5877
567 1 20.9191 17.0278 12.8755
1748 1 0.917356 20.1416 10.2458
7727 2 2.73563 20.1578 11.534
1744 1 1.82413 18.6007 12.8485
1777 1 3.64376 18.5681 10.2729
7726 2 5.46195 18.5846 11.561
1479 1 4.55417 20.1736 12.8212
1521 1 9.1 18.5681 10.2729
1522 1 6.37359 20.1416 10.2458
7422 2 8.19187 20.1578 11.534
1520 1 7.28037 18.6007 12.8485
1206 1 11.8298 20.1416 10.2458
7468 2 10.9182 18.5846 11.561
1201 1 10.0104 20.1736 12.8212
1247 1 14.5562 18.5681 10.2729
7137 2 13.6481 20.1578 11.534
870 1 15.4666 20.1736 12.8212
1200 1 12.7366 18.6007 12.8485
905 1 17.2861 20.1416 10.2458
7136 2 16.3744 18.5846 11.561
903 1 18.1928 18.6007 12.8485
904 1 20.0125 18.5681 10.2729
7962 2 21.8307 18.5846 11.561
6797 2 19.1044 20.1578 11.534
566 1 20.9229 20.1736 12.8212
1747 1 0.92067 23.2892 10.1916
7692 2 2.73916 23.3046 11.4797
1745 1 1.82796 21.7464 12.7936
1746 1 3.64715 21.7153 10.2187
7729 2 5.46554 21.7311 11.5068
1478 1 4.55796 23.3193 12.7659
1483 1 6.37691 23.2892 10.1916
1524 1 9.10339 21.7153 10.2187
7421 2 8.1954 23.3046 11.4797
1477 1 7.2842 21.7464 12.7936
1205 1 11.8331 23.2892 10.1916
7420 2 10.9218 21.7311 11.5068
1155 1 10.0142 23.3193 12.7659
1204 1 14.5596 21.7153 10.2187
7098 2 13.6516 23.3046 11.4797
869 1 15.4704 23.3193 12.7659
1203 1 12.7404 21.7464 12.7936
874 1 17.2894 23.2892 10.1916
7139 2 16.378 21.7311 11.5068
868 1 18.1967 21.7464 12.7936
907 1 20.0159 21.7153 10.2187
7937 2 21.8343 21.7311 11.5068
6796 2 19.1079 23.3046 11.4797
543 1 20.9267 23.3193 12.7659
1720 1 0.92376 26.4379 10.1382
7691 2 2.74251 26.4521 11.4261
1716 1 1.83168 24.8923 12.7384
1749 1 3.65037 24.8634 10.1647
7690 2 5.46899 24.8782 11.4527
1440 1 4.56158 26.4656 12.7112
1481 1 9.1066 24.8634 10.1647
1482 1 6.38 26.4379 10.1382
7376 2 8.19875 26.4521 11.4261
1480 1 7.28792 24.8923 12.7384
7423 2 10.9252 24.8782 11.4527
1159 1 11.8362 26.4379 10.1382
1154 1 10.0178 26.4656 12.7112
1207 1 14.5628 24.8634 10.1647
7097 2 13.655 26.4521 11.4261
1153 1 12.7442 24.8923 12.7384
830 1 15.4741 26.4656 12.7112
7096 2 16.3815 24.8782 11.4527
873 1 17.2925 26.4379 10.1382
871 1 18.2004 24.8923 12.7384
872 1 20.0191 24.8634 10.1647
7938 2 21.8377 24.8782 11.4527
6765 2 19.1112 26.4521 11.4261
542 1 20.9303 26.4656 12.7112
1717 1 1.83517 28.0391 12.6845
1718 1 3.65332 28.0128 10.1123
7693 2 5.47222 28.0263 11.4
1484 1 9.10956 28.0128 10.1123
1438 1 7.29141 28.0391 12.6845
7374 2 10.9285 28.0263 11.4
1157 1 14.5658 28.0128 10.1123
1156 1 12.7477 28.0391 12.6845
7099 2 16.3847 28.0263 11.4
828 1 18.2039 28.0391 12.6845
875 1 20.022 28.0128 10.1123
7914 2 21.8409 28.0263 11.4
1719 1 0.926574 29.5881 10.0873
1692 1 1.8384 31.187 12.6336
7660 2 2.74562 29.6008 11.3748
7915 2 0.0189549 31.1758 11.3505
1721 1 3.65599 31.1638 10.0633
7658 2 5.47519 31.1758 11.3505
1439 1 4.56494 29.6129 12.6585
1442 1 9.11223 31.1638 10.0633
1444 1 6.38281 29.5881 10.0873
1441 1 7.29464 31.187 12.6336
7375 2 8.20186 29.6008 11.3748
1158 1 11.8391 29.5881 10.0873
7377 2 10.9314 31.1758 11.3505
1108 1 10.0212 29.6129 12.6585
1160 1 14.5685 31.1638 10.0633
1106 1 12.7509 31.187 12.6336
7051 2 13.6581 29.6008 11.3748
829 1 15.4774 29.6129 12.6585
834 1 17.2953 29.5881 10.0873
831 1 18.2071 31.187 12.6336
7049 2 16.3877 31.1758 11.3505
832 1 20.0247 31.1638 10.0633
6764 2 19.1143 29.6008 11.3748
511 1 20.9337 29.6129 12.6585
1693 1 1.84137 34.3366 12.5877
7659 2 2.74846 32.7511 11.3276
7898 2 0.0216694 34.3269 11.306
1408 1 4.56803 32.7616 12.6099
7661 2 5.47791 34.3269 11.306
1406 1 7.29761 34.3366 12.5877
7336 2 8.2047 32.7511 11.3276
1107 1 10.0243 32.7616 12.6099
7334 2 10.9341 34.3269 11.306
784 1 15.4805 32.7616 12.6099
1109 1 12.7538 34.3366 12.5877
7050 2 13.6609 32.7511 11.3276
782 1 18.2101 34.3366 12.5877
7052 2 16.3904 34.3269 11.306
510 1 20.9368 32.7616 12.6099
6726 2 19.1172 32.7511 11.3276
1676 1 1.84407 37.4878 12.5485
7636 2 2.75105 35.9032 11.2861
7899 2 0.0241058 37.4798 11.2681
1407 1 4.57088 35.912 12.5671
7634 2 5.48034 37.4798 11.2681
1409 1 7.30031 37.4878 12.5485
7335 2 8.20728 35.9032 11.2861
1068 1 10.0271 35.912 12.5671
7337 2 10.9366 37.4798 11.2681
783 1 15.4834 35.912 12.5671
1066 1 12.7566 37.4878 12.5485
7004 2 13.6635 35.9032 11.2861
785 1 18.2128 37.4878 12.5485
7002 2 16.3928 37.4798 11.2681
475 1 20.9396 35.912 12.5671
6725 2 19.1198 35.9032 11.2861
1677 1 1.84642 40.6406 12.5177
7635 2 2.75331 39.0569 11.2521
7890 2 0.0261706 40.6343 11.2384
1384 1 4.57343 39.064 12.532
7637 2 5.48241 40.6343 11.2384
1382 1 7.30266 40.6406 12.5177
7304 2 8.20955 39.0569 11.2521
1067 1 10.0297 39.064 12.532
7302 2 10.9386 40.6343 11.2384
739 1 15.4859 39.064 12.532
1069 1 12.7589 40.6406 12.5177
7003 2 13.6658 39.0569 11.2521
737 1 18.2151 40.6406 12.5177
7005 2 16.3949 40.6343 11.2384
474 1 20.9421 39.064 12.532
6686 2 19.122 39.0569 11.2521
1668 1 1.84819 43.7945 12.4966
7620 2 2.75513 42.212 11.2269
7891 2 0.0276786 43.7899 11.2179
1383 1 4.57552 42.2174 12.5059
7618 2 5.48392 43.7899 11.2179
1385 1 7.30443 43.7945 12.4966
7303 2 8.21137 42.212 11.2269
1036 1 10.0318 42.2174 12.5059
7305 2 10.9402 43.7899 11.2179
738 1 15.488 42.2174 12.5059
1034 1 12.7607 43.7945 12.4966
6964 2 13.6676 42.212 11.2269
740 1 18.2169 43.7945 12.4966
6962 2 16.3964 43.7899 11.2179
439 1 20.9442 42.2174 12.5059
6685 2 19.1238 42.212 11.2269
1669 1 1.84907 46.9491 12.486
7619 2 2.75627 45.3681 11.2115
7889 2 0.0284111 46.9464 11.2076
1368 1 4.57688 45.3717 12.49
7621 2 5.48465 46.9464 11.2076
1366 1 7.30531 46.9491 12.486
7280 2 8.21251 45.3681 11.2115
1035 1 10.0331 45.3717 12.49
7278 2 10.9409 46.9464 11.2076
701 1 15.4894 45.3717 12.49
1037 1 12.7616 46.9491 12.486
6963 2 13.6687 45.3681 11.2115
699 1 18.2178 46.9491 12.486
6965 2 16.3971 46.9464 11.2076
438 1 20.9456 45.3717 12.49
6647 2 19.125 45.3681 11.2115
7609 2 2.75656 48.5247 11.2064
3875 1 1.84889 50.104 12.4863
10209 2 0.028224 50.1031 11.2079
1367 1 4.57724 48.5266 12.4848
10002 2 5.48446 50.1031 11.2079
7279 2 8.21279 48.5247 11.2064
3664 1 7.30512 50.104 12.4863
1009 1 10.0335 48.5266 12.4848
9735 2 10.9407 50.1031 11.2079
700 1 15.4897 48.5266 12.4848
6929 2 13.669 48.5247 11.2064
3345 1 12.7614 50.104 12.4863
3000 1 18.2176 50.104 12.4863
9385 2 16.3969 50.1031 11.2079
403 1 20.946 48.5266 12.4848
6646 2 19.1253 48.5247 11.2064
7795 2 0.896079 1.30391 14.3916
1586 1 2.71391 1.31875 15.6801
1828 1 1.80741 2.8641 13.0867
1590 1 4.53428 1.28938 13.1057
7793 2 3.6254 2.87916 14.3728
7531 2 6.35232 1.30391 14.3916
1270 1 8.17015 1.31875 15.6801
1588 1 7.26365 2.8641 13.0867
7532 2 9.08164 2.87916 14.3728
1298 1 9.99051 1.28938 13.1057
7190 2 11.8086 1.30391 14.3916
942 1 15.4468 1.28938 13.1057
938 1 13.6264 1.31875 15.6801
1299 1 12.7199 2.8641 13.0867
7188 2 14.5379 2.87916 14.3728
6842 2 17.2648 1.30391 14.3916
940 1 18.1761 2.8641 13.0867
592 1 20.903 1.28938 13.1057
589 1 19.0826 1.31875 15.6801
6843 2 19.9941 2.87916 14.3728
7794 2 0.898572 4.45419 14.3531
1554 1 2.71635 4.46998 15.6417
1589 1 4.53687 4.43864 13.0668
1587 1 5.44321 2.8945 15.6614
7501 2 6.35481 4.45419 14.3531
1269 1 8.17259 4.46998 15.6417
1274 1 9.99311 4.43864 13.0668
7189 2 11.811 4.45419 14.3531
1268 1 10.8994 2.8945 15.6614
941 1 15.4494 4.43864 13.0668
922 1 13.6288 4.46998 15.6417
6834 2 17.2673 4.45419 14.3531
939 1 16.3557 2.8945 15.6614
591 1 20.9056 4.43864 13.0668
1798 1 21.8119 2.8945 15.6614
588 1 19.0851 4.46998 15.6417
1800 1 1.81018 6.01298 13.0458
7760 2 0.901417 7.60352 14.3107
1553 1 2.71917 7.62005 15.5996
1558 1 4.53981 7.58713 13.024
7796 2 3.62807 6.02898 14.3324
1552 1 5.44583 6.04517 15.6211
1591 1 7.26642 6.01298 13.0458
7499 2 9.08431 6.02898 14.3324
7500 2 6.35766 7.60352 14.3107
1238 1 8.17541 7.62005 15.5996
1273 1 9.99604 7.58713 13.024
7166 2 11.8139 7.60352 14.3107
1271 1 10.9021 6.04517 15.6211
926 1 15.4523 7.58713 13.024
1272 1 12.7227 6.01298 13.0458
7191 2 14.5405 6.02898 14.3324
921 1 13.6316 7.62005 15.5996
943 1 18.1789 6.01298 13.0458
6833 2 17.2701 7.60352 14.3107
920 1 16.3583 6.04517 15.6211
590 1 20.9085 7.58713 13.024
6832 2 19.9968 6.02898 14.3324
1799 1 21.8145 6.04517 15.6211
581 1 19.0879 7.62005 15.5996
1801 1 1.81327 9.16106 13.0012
7759 2 0.904616 10.7518 14.2648
1515 1 2.72238 10.7688 15.5537
1557 1 4.54306 10.7348 12.9775
7758 2 3.63109 9.17779 14.2882
1555 1 5.44884 9.19459 15.5771
1556 1 7.26951 9.16106 13.0012
7463 2 6.36085 10.7518 14.2648
7502 2 9.08733 9.17779 14.2882
1237 1 8.17862 10.7688 15.5537
1242 1 9.9993 10.7348 12.9775
7165 2 11.8171 10.7518 14.2648
1236 1 10.9051 9.19459 15.5771
925 1 15.4555 10.7348 12.9775
1275 1 12.7258 9.16106 13.0012
7164 2 14.5436 9.17779 14.2882
898 1 13.6349 10.7688 15.5537
924 1 18.182 9.16106 13.0012
6818 2 17.2733 10.7518 14.2648
923 1 16.3613 9.19459 15.5771
583 1 20.9118 10.7348 12.9775
6835 2 19.9998 9.17779 14.2882
1770 1 21.8176 9.19459 15.5771
580 1 19.0911 10.7688 15.5537
1772 1 1.81668 12.3083 12.9531
7724 2 0.908149 13.899 14.2155
1514 1 2.72599 13.9161 15.5045
7761 2 3.63446 12.3255 14.2405
1513 1 5.45226 12.3426 15.5295
1559 1 7.27291 12.3083 12.9531
7461 2 9.0907 12.3255 14.2405
7462 2 6.36439 13.899 14.2155
1198 1 8.18223 13.9161 15.5045
7134 2 11.8206 13.899 14.2155
1239 1 10.9085 12.3426 15.5295
1240 1 12.7292 12.3083 12.9531
7167 2 14.5469 12.3255 14.2405
897 1 13.6385 13.9161 15.5045
927 1 18.1854 12.3083 12.9531
6817 2 17.2769 13.899 14.2155
896 1 16.3647 12.3426 15.5295
6816 2 20.0032 12.3255 14.2405
1771 1 21.821 12.3426 15.5295
565 1 19.0947 13.9161 15.5045
7723 2 0.911957 17.0452 14.1635
1475 1 2.72994 17.062 15.4522
7722 2 3.63814 15.4722 14.1898
1516 1 5.45605 15.4892 15.4787
7418 2 6.3682 17.0452 14.1635
7464 2 9.09438 15.4722 14.1898
1197 1 8.18618 17.062 15.4522
7133 2 11.8244 17.0452 14.1635
1196 1 10.9123 15.4892 15.4787
7132 2 14.5506 15.4722 14.1898
866 1 13.6424 17.062 15.4522
6794 2 17.2807 17.0452 14.1635
899 1 16.3685 15.4892 15.4787
6819 2 20.0069 15.4722 14.1898
1742 1 21.8248 15.4892 15.4787
564 1 19.0987 17.062 15.4522
7688 2 0.915939 20.1906 14.1094
1474 1 2.73415 20.2067 15.3976
7725 2 3.64205 18.618 14.1367
1473 1 5.46014 18.6345 15.4251
7416 2 9.09829 18.618 14.1367
7417 2 6.37218 20.1906 14.1094
1151 1 8.19039 20.2067 15.3976
7094 2 11.8284 20.1906 14.1094
1199 1 10.9164 18.6345 15.4251
7135 2 14.5545 18.618 14.1367
865 1 13.6466 20.2067 15.3976
6793 2 17.2847 20.1906 14.1094
864 1 16.3726 18.6345 15.4251
6792 2 20.0108 18.618 14.1367
1743 1 21.8289 18.6345 15.4251
541 1 19.1029 20.2067 15.3976
7687 2 0.919959 23.3356 14.0542
1436 1 2.73845 23.3507 15.3414
7686 2 3.64607 21.7631 14.0818
1476 1 5.46442 21.7788 15.3696
7372 2 6.3762 23.3356 14.0542
7419 2 9.10231 21.7631 14.0818
1150 1 8.19469 23.3507 15.3414
7093 2 11.8324 23.3356 14.0542
1149 1 10.9207 21.7788 15.3696
7092 2 14.5585 21.7631 14.0818
826 1 13.6509 23.3507 15.3414
6762 2 17.2887 23.3356 14.0542
867 1 16.3769 21.7788 15.3696
6795 2 20.0148 21.7631 14.0818
1714 1 21.8331 21.7788 15.3696
540 1 19.1072 23.3507 15.3414
7656 2 0.923878 26.4807 13.9991
1435 1 2.74268 26.4944 15.2851
7689 2 3.65006 24.9081 14.0265
1434 1 5.4687 24.9225 15.3132
7370 2 9.1063 24.9081 14.0265
7371 2 6.38012 26.4807 13.9991
1104 1 8.19892 26.4944 15.2851
1152 1 10.9249 24.9225 15.3132
7047 2 11.8364 26.4807 13.9991
7095 2 14.5625 24.9081 14.0265
825 1 13.6552 26.4944 15.2851
824 1 16.3812 24.9225 15.3132
6761 2 17.2926 26.4807 13.9991
6760 2 20.0188 24.9081 14.0265
1715 1 21.8374 24.9225 15.3132
509 1 19.1114 26.4944 15.2851
7654 2 3.65389 28.0534 13.9722
1437 1 5.47285 28.0664 15.2574
7373 2 9.11012 28.0534 13.9722
1102 1 10.9291 28.0664 15.2574
7045 2 14.5664 28.0534 13.9722
827 1 16.3853 28.0664 15.2574
6763 2 20.0226 28.0534 13.9722
1690 1 21.8416 28.0664 15.2574
7655 2 0.927599 29.6265 13.946
1404 1 2.74672 29.6386 15.2304
1691 1 0.0205364 31.2112 15.2043
7657 2 3.65749 31.1998 13.9208
1402 1 5.47677 31.2112 15.2043
7330 2 9.11373 31.1998 13.9208
7332 2 6.38384 29.6265 13.946
1103 1 8.20296 29.6386 15.2304
7046 2 11.8401 29.6265 13.946
1105 1 10.933 31.2112 15.2043
7048 2 14.57 31.1998 13.9208
780 1 13.6592 29.6386 15.2304
6723 2 17.2963 29.6265 13.946
778 1 16.3893 31.2112 15.2043
6721 2 20.0262 31.1998 13.9208
508 1 19.1154 29.6386 15.2304
7632 2 0.931097 32.7735 13.8968
1403 1 2.75054 32.784 15.1795
1674 1 0.0242558 34.3573 15.156
7630 2 3.66088 34.3476 13.8742
1405 1 5.48049 34.3573 15.156
7331 2 6.38733 32.7735 13.8968
7333 2 9.11712 34.3476 13.8742
1064 1 8.20678 32.784 15.1795
7000 2 11.8436 32.7735 13.8968
1062 1 10.9367 34.3573 15.156
6998 2 14.5734 34.3476 13.8742
779 1 13.663 32.784 15.1795
6722 2 17.2998 32.7735 13.8968
781 1 16.393 34.3573 15.156
6724 2 20.0296 34.3476 13.8742
473 1 19.1193 32.784 15.1795
7631 2 0.934378 35.922 13.8534
1380 1 2.75417 35.9309 15.1344
1675 1 0.0277936 37.5049 15.1147
7633 2 3.66404 37.4969 13.8344
1378 1 5.48403 37.5049 15.1147
7298 2 9.12028 37.4969 13.8344
7300 2 6.39062 35.922 13.8534
1063 1 8.21041 35.9309 15.1344
6999 2 11.8469 35.922 13.8534
1065 1 10.9403 37.5049 15.1147
7001 2 14.5765 37.4969 13.8344
735 1 13.6666 35.9309 15.1344
6683 2 17.3031 35.922 13.8534
733 1 16.3965 37.5049 15.1147
6681 2 20.0328 37.4969 13.8344
472 1 19.1229 35.9309 15.1344
7616 2 0.937386 39.0721 13.8176
1379 1 2.75758 39.0793 15.0972
1666 1 0.0310226 40.6539 15.0821
7614 2 3.66684 40.6476 13.8031
1381 1 5.48726 40.6539 15.0821
7299 2 6.39362 39.0721 13.8176
7301 2 9.12308 40.6476 13.8031
1032 1 8.21382 39.0793 15.0972
6960 2 11.8499 39.0721 13.8176
1030 1 10.9435 40.6539 15.0821
6958 2 14.5793 40.6476 13.8031
734 1 13.6701 39.0793 15.0972
6682 2 17.3061 39.0721 13.8176
736 1 16.3997 40.6539 15.0821
6684 2 20.0356 40.6476 13.8031
437 1 19.1263 39.0793 15.0972
7615 2 0.939902 42.2235 13.7911
1364 1 2.76053 42.2289 15.0696
1667 1 0.0335682 43.804 15.0598
7617 2 3.66898 43.7995 13.7816
1362 1 5.48981 43.804 15.0598
7274 2 9.12522 43.7995 13.7816
7276 2 6.39614 42.2235 13.7911
1031 1 8.21677 42.2289 15.0696
6959 2 11.8524 42.2235 13.7911
1033 1 10.946 43.804 15.0598
6961 2 14.5815 43.7995 13.7816
697 1 13.673 42.2289 15.0696
6644 2 17.3086 42.2235 13.7911
695 1 16.4023 43.804 15.0598
6642 2 20.0377 43.7995 13.7816
436 1 19.1292 42.2289 15.0696
7608 2 0.941566 45.3757 13.7749
1363 1 2.76254 45.3794 15.0528
1665 1 0.0349201 46.9548 15.0486
7606 2 3.67008 46.9521 13.7708
1365 1 5.49116 46.9548 15.0486
7275 2 6.3978 45.3757 13.7749
7277 2 9.12632 46.9521 13.7708
1008 1 8.21878 45.3794 15.0528
6928 2 11.854 45.3757 13.7749
1006 1 10.9474 46.9548 15.0486
6926 2 14.5826 46.9521 13.7708
696 1 13.675 45.3794 15.0528
6643 2 17.3103 45.3757 13.7749
698 1 16.4036 46.9548 15.0486
6645 2 20.0388 46.9521 13.7708
402 1 19.1313 45.3794 15.0528
7607 2 0.942036 48.5285 13.7696
1353 1 2.76314 48.5303 15.0474
3874 1 0.0347134 50.1057 15.049
10001 2 3.66989 50.1049 13.7712
3633 1 5.49095 50.1057 15.049
7257 2 6.39827 48.5285 13.7696
1007 1 8.21938 48.5303 15.0474
9706 2 9.12613 50.1049 13.7712
6927 2 11.8545 48.5285 13.7696
3344 1 10.9472 50.1057 15.049
664 1 13.6756 48.5303 15.0474
9384 2 14.5824 50.1049 13.7712
6609 2 17.3108 48.5285 13.7696
2985 1 16.4034 50.1057 15.049
401 1 19.1319 48.5303 15.0474
9017 2 20.0386 50.1049 13.7712
1550 1 0.893538 1.34846 18.2541
7497 2 4.53198 1.33343 16.9657
1266 1 6.34978 1.34846 18.2541
7186 2 9.98821 1.33343 16.9657
918 1 11.806 1.34846 18.2541
6830 2 15.4445 1.33343 16.9657
586 1 17.2623 1.34846 18.2541
6528 2 20.9007 1.33343 16.9657
7792 2 1.80495 2.90976 16.9473
1549 1 0.895705 4.50188 18.2166
7496 2 4.53426 4.48579 16.9278
1548 1 3.62269 2.92534 18.2358
7495 2 7.26119 2.90976 16.9473
1234 1 6.35194 4.50188 18.2166
1267 1 9.07893 2.92534 18.2358
7162 2 9.9905 4.48579 16.9278
917 1 11.8082 4.50188 18.2166
6829 2 15.4467 4.48579 16.9278
7187 2 12.7174 2.90976 16.9473
916 1 14.5352 2.92534 18.2358
6828 2 18.1737 2.90976 16.9473
578 1 17.2644 4.50188 18.2166
6527 2 20.903 4.48579 16.9278
587 1 19.9914 2.92534 18.2358
7756 2 1.80742 6.06149 16.9075
1511 1 0.898279 7.65381 18.1753
7459 2 4.53693 7.63684 16.8862
1551 1 3.62506 6.07805 18.1964
7498 2 7.26366 6.06149 16.9075
1232 1 9.08129 6.07805 18.1964
1233 1 6.35452 7.65381 18.1753
7161 2 9.99317 7.63684 16.8862
894 1 11.8108 7.65381 18.1753
6814 2 15.4494 7.63684 16.8862
7160 2 12.7199 6.06149 16.9075
919 1 14.5375 6.07805 18.1964
6831 2 18.1761 6.06149 16.9075
577 1 17.267 7.65381 18.1753
6526 2 20.9056 7.63684 16.8862
576 1 19.9938 6.07805 18.1964
7757 2 1.8103 9.21181 16.864
1510 1 0.901316 10.804 18.1303
7458 2 4.54002 10.7864 16.8409
1509 1 3.62786 9.22912 18.1532
7457 2 7.26654 9.21181 16.864
1194 1 6.35755 10.804 18.1303
1235 1 9.08409 9.22912 18.1532
7130 2 9.99626 10.7864 16.8409
893 1 11.8138 10.804 18.1303
6813 2 15.4525 10.7864 16.8409
7163 2 12.7228 9.21181 16.864
892 1 14.5403 9.22912 18.1532
6812 2 18.179 9.21181 16.864
562 1 17.27 10.804 18.1303
6519 2 20.9087 10.7864 16.8409
579 1 19.9966 9.22912 18.1532
7720 2 1.81362 12.3605 16.817
1471 1 0.904858 13.9521 18.0817
7414 2 4.54356 13.9343 16.7922
1512 1 3.63114 12.3783 18.1064
7460 2 7.26986 12.3605 16.817
1192 1 9.08738 12.3783 18.1064
1193 1 6.3611 13.9521 18.0817
7129 2 9.9998 13.9343 16.7922
862 1 11.8173 13.9521 18.0817
6790 2 15.456 13.9343 16.7922
7128 2 12.7261 12.3605 16.817
895 1 14.5436 12.3783 18.1064
6815 2 18.1823 12.3605 16.817
561 1 17.2736 13.9521 18.0817
6518 2 20.9123 13.9343 16.7922
560 1 19.9999 12.3783 18.1064
7721 2 1.81738 15.5075 16.7667
1470 1 0.90891 17.0982 18.0299
7413 2 4.54753 17.0804 16.7404
1469 1 3.63494 15.5254 18.0562
7412 2 7.27361 15.5075 16.7667
1147 1 6.36515 17.0982 18.0299
1195 1 9.09118 15.5254 18.0562
7090 2 10.0038 17.0804 16.7404
861 1 11.8214 17.0982 18.0299
6789 2 15.46 17.0804 16.7404
7131 2 12.7299 15.5075 16.7667
860 1 14.5474 15.5254 18.0562
6788 2 18.1861 15.5075 16.7667
538 1 17.2776 17.0982 18.0299
6503 2 20.9162 17.0804 16.7404
563 1 20.0037 15.5254 18.0562
7684 2 1.82153 18.6529 16.7135
1432 1 0.913413 20.2422 17.9751
7368 2 4.55184 20.225 16.6861
1472 1 3.63923 18.6704 18.0028
7415 2 7.27777 18.6529 16.7135
1145 1 9.09547 18.6704 18.0028
1146 1 6.36965 20.2422 17.9751
7089 2 10.0081 20.225 16.6861
822 1 11.8259 20.2422 17.9751
6758 2 15.4643 20.225 16.6861
7088 2 12.734 18.6529 16.7135
863 1 14.5517 18.6704 18.0028
6791 2 18.1902 18.6529 16.7135
537 1 17.2821 20.2422 17.9751
6502 2 20.9206 20.225 16.6861
536 1 20.0079 18.6704 18.0028
7685 2 1.82597 21.7968 16.6582
1431 1 0.918231 23.3844 17.9182
7367 2 4.55637 23.3683 16.63
1430 1 3.64391 21.8135 17.9469
7366 2 7.28221 21.7968 16.6582
1100 1 6.37447 23.3844 17.9182
1148 1 9.10015 21.8135 17.9469
7043 2 10.0126 23.3683 16.63
821 1 11.8307 23.3844 17.9182
6757 2 15.4688 23.3683 16.63
7091 2 12.7384 21.7968 16.6582
820 1 14.5564 21.8135 17.9469
6756 2 18.1947 21.7968 16.6582
506 1 17.2869 23.3844 17.9182
6479 2 20.9251 23.3683 16.63
539 1 20.0126 21.8135 17.9469
7652 2 1.83054 24.9396 16.6017
1400 1 0.923161 26.5255 17.8603
1433 1 3.64881 24.9551 17.8893
7328 2 4.56094 26.5109 16.5734
7369 2 7.28678 24.9396 16.6017
1098 1 9.10505 24.9551 17.8893
1099 1 6.3794 26.5255 17.8603
7042 2 10.0172 26.5109 16.5734
776 1 11.8356 26.5255 17.8603
7041 2 12.743 24.9396 16.6017
823 1 14.5613 24.9551 17.8893
6719 2 15.4734 26.5109 16.5734
6759 2 18.1993 24.9396 16.6017
505 1 17.2919 26.5255 17.8603
504 1 20.0175 24.9551 17.8893
6478 2 20.9297 26.5109 16.5734
7653 2 1.83507 28.0822 16.5456
1398 1 3.65373 28.096 17.8316
7326 2 7.29131 28.0822 16.5456
1101 1 9.10996 28.096 17.8316
7044 2 12.7475 28.0822 16.5456
774 1 14.5662 28.096 17.8316
6717 2 18.2038 28.0822 16.5456
507 1 20.0224 28.096 17.8316
7628 2 1.83946 31.2253 16.4918
1399 1 0.928018 29.6665 17.8033
7327 2 4.5654 29.6536 16.5182
1401 1 3.65851 31.2373 17.7758
7329 2 7.2957 31.2253 16.4918
1058 1 9.11475 31.2373 17.7758
1060 1 6.38426 29.6665 17.8033
6996 2 10.0216 29.6536 16.5182
775 1 11.8405 29.6665 17.8033
6718 2 15.4779 29.6536 16.5182
6994 2 12.7519 31.2253 16.4918
777 1 14.571 31.2373 17.7758
6720 2 18.2082 31.2253 16.4918
470 1 17.2967 29.6665 17.8033
6451 2 20.9341 29.6536 16.5182
468 1 20.0272 31.2373 17.7758
7629 2 1.84372 34.3694 16.4427
1376 1 0.932736 32.8083 17.7495
7296 2 4.56972 32.7972 16.4665
1374 1 3.66318 34.3796 17.7246
7294 2 7.29996 34.3694 16.4427
1059 1 6.38897 32.8083 17.7495
1061 1 9.11942 34.3796 17.7246
6995 2 10.026 32.7972 16.4665
731 1 11.8452 32.8083 17.7495
6679 2 15.4822 32.7972 16.4665
6997 2 12.7562 34.3694 16.4427
729 1 14.5757 34.3796 17.7246
6677 2 18.2124 34.3694 16.4427
469 1 17.3015 32.8083 17.7495
6450 2 20.9384 32.7972 16.4665
471 1 20.0319 34.3796 17.7246
7612 2 1.84785 37.515 16.4006
1375 1 0.937387 35.9513 17.7015
7295 2 4.57392 35.942 16.4206
1377 1 3.66782 37.5234 17.6805
7297 2 7.30409 37.515 16.4006
1026 1 9.12406 37.5234 17.6805
1028 1 6.39363 35.9513 17.7015
6956 2 10.0302 35.942 16.4206
730 1 11.8499 35.9513 17.7015
6678 2 15.4864 35.942 16.4206
6954 2 12.7603 37.515 16.4006
732 1 14.5803 37.5234 17.6805
6680 2 18.2166 37.515 16.4006
434 1 17.3061 35.9513 17.7015
6423 2 20.9426 35.942 16.4206
432 1 20.0365 37.5234 17.6805
7613 2 1.85169 40.6618 16.3674
1360 1 0.941985 39.0958 17.6619
7272 2 4.57795 39.0882 16.3827
1358 1 3.67229 40.6685 17.6459
7270 2 7.30793 40.6618 16.3674
1027 1 6.39822 39.0958 17.6619
1029 1 9.12853 40.6685 17.6459
6955 2 10.0342 39.0882 16.3827
693 1 11.8545 39.0958 17.6619
6640 2 15.4904 39.0882 16.3827
6957 2 12.7642 40.6618 16.3674
691 1 14.5848 40.6685 17.6459
6638 2 18.2204 40.6618 16.3674
433 1 17.3107 39.0958 17.6619
6422 2 20.9467 39.0882 16.3827
435 1 20.041 40.6685 17.6459
7604 2 1.85477 43.8096 16.3446
1359 1 0.94618 42.2413 17.6325
7271 2 4.58149 42.2356 16.3546
1361 1 3.67601 43.8143 17.6221
7273 2 7.31101 43.8096 16.3446
1002 1 9.13225 43.8143 17.6221
1004 1 6.40242 42.2413 17.6325
6924 2 10.0377 42.2356 16.3546
692 1 11.8587 42.2413 17.6325
6639 2 15.494 42.2356 16.3546
6922 2 12.7672 43.8096 16.3446
694 1 14.5885 43.8143 17.6221
6641 2 18.2235 43.8096 16.3446
399 1 17.3149 42.2413 17.6325
6395 2 20.9502 42.2356 16.3546
397 1 20.0447 43.8143 17.6221
7605 2 1.85643 46.9579 16.3333
1352 1 0.949187 45.3874 17.6147
7256 2 4.58393 45.3837 16.3375
1350 1 3.67808 46.9606 17.6103
7254 2 7.31267 46.9579 16.3333
1003 1 6.40543 45.3874 17.6147
1005 1 9.13432 46.9606 17.6103
6923 2 10.0402 45.3837 16.3375
663 1 11.8617 45.3874 17.6147
6608 2 15.4964 45.3837 16.3375
6925 2 12.7689 46.9579 16.3333
661 1 14.5906 46.9606 17.6103
6606 2 18.2251 46.9579 16.3333
398 1 17.3179 45.3874 17.6147
6394 2 20.9526 45.3837 16.3375
400 1 20.0468 46.9606 17.6103
1351 1 0.950145 48.5338 17.609
9967 2 1.85621 50.1063 16.3337
7255 2 4.58468 48.5321 16.332
3632 1 3.67783 50.107 17.6108
985 1 6.40638 48.5338 17.609
9705 2 7.31245 50.1063 16.3337
3313 1 9.13407 50.107 17.6108
6897 2 10.0409 48.5321 16.332
662 1 11.8626 48.5338 17.609
6607 2 15.4972 48.5321 16.332
9361 2 12.7687 50.1063 16.3337
2984 1 14.5903 50.107 17.6108
368 1 17.3189 48.5338 17.609
9016 2 18.2249 50.1063 16.3337
6367 2 20.9534 48.5321 16.332
2633 1 20.0465 50.107 17.6108
7493 2 2.71166 1.36337 19.5395
1230 1 4.52946 1.37866 20.8277
7158 2 8.1679 1.36337 19.5395
914 1 9.9857 1.37866 20.8277
574 1 15.4419 1.37866 20.8277
6826 2 13.6241 1.36337 19.5395
304 1 20.8982 1.37866 20.8277
6525 2 19.0804 1.36337 19.5395
1547 1 1.80219 2.95681 20.8099
7455 2 2.71363 4.51805 19.5025
1229 1 4.53125 4.53456 20.7912
7494 2 5.44072 2.94089 19.5215
1228 1 7.25843 2.95681 20.8099
7157 2 8.16987 4.51805 19.5025
890 1 9.98749 4.53456 20.7912
7156 2 10.897 2.94089 19.5215
573 1 15.4437 4.53456 20.7912
915 1 12.7147 2.95681 20.8099
6810 2 13.6261 4.51805 19.5025
572 1 18.1709 2.95681 20.8099
6827 2 16.3532 2.94089 19.5215
7754 2 21.8094 2.94089 19.5215
303 1 20.9 4.53456 20.7912
6524 2 19.0823 4.51805 19.5025
1507 1 1.80418 6.11187 20.7715
7454 2 2.716 7.67114 19.4618
1190 1 4.53345 7.6887 20.7509
7453 2 5.44288 6.09481 19.4826
1231 1 7.26042 6.11187 20.7715
7126 2 8.17224 7.67114 19.4618
889 1 9.98969 7.6887 20.7509
7159 2 10.8991 6.09481 19.4826
558 1 15.4459 7.6887 20.7509
888 1 12.7167 6.11187 20.7715
6809 2 13.6285 7.67114 19.4618
575 1 18.1729 6.11187 20.7715
6808 2 16.3554 6.09481 19.4826
7755 2 21.8116 6.09481 19.4826
302 1 20.9022 7.6887 20.7509
6517 2 19.0847 7.67114 19.4618
1508 1 1.80662 9.26501 20.7294
7410 2 2.71884 10.8223 19.4174
1189 1 4.53616 10.8407 20.707
7456 2 5.44548 9.24698 19.44
1188 1 7.26285 9.26501 20.7294
7125 2 8.17508 10.8223 19.4174
858 1 9.99239 10.8407 20.707
7124 2 10.9017 9.24698 19.44
557 1 15.4486 10.8407 20.707
891 1 12.7191 9.26501 20.7294
6786 2 13.6313 10.8223 19.4174
556 1 18.1753 9.26501 20.7294
6811 2 16.358 9.24698 19.44
7718 2 21.8142 9.24698 19.44
295 1 20.9049 10.8407 20.707
6516 2 19.0876 10.8223 19.4174
1467 1 1.80961 12.4158 20.6837
7409 2 2.72223 13.9713 19.3695
1143 1 4.53946 13.9903 20.6594
7408 2 5.44859 12.3971 19.3939
1191 1 7.26584 12.4158 20.6837
7086 2 8.17847 13.9713 19.3695
857 1 9.99569 13.9903 20.6594
7127 2 10.9048 12.3971 19.3939
534 1 15.4519 13.9903 20.6594
856 1 12.7221 12.4158 20.6837
6785 2 13.6347 13.9713 19.3695
559 1 18.1783 12.4158 20.6837
6784 2 16.3611 12.3971 19.3939
7719 2 21.8173 12.3971 19.3939
294 1 20.9082 13.9903 20.6594
6501 2 19.091 13.9713 19.3695
1468 1 1.81323 15.564 20.6343
7364 2 2.72621 17.1179 19.3182
1142 1 4.54343 17.137 20.6084
7411 2 5.45227 15.5449 19.3443
1141 1 7.26947 15.564 20.6343
7085 2 8.18245 17.1179 19.3182
818 1 9.99967 17.137 20.6084
7084 2 10.9085 15.5449 19.3443
533 1 15.4559 17.137 20.6084
859 1 12.7257 15.564 20.6343
6754 2 13.6387 17.1179 19.3182
532 1 18.182 15.564 20.6343
6787 2 16.3647 15.5449 19.3443
7682 2 21.821 15.5449 19.3443
279 1 20.9121 17.137 20.6084
6500 2 19.0949 17.1179 19.3182
1428 1 1.81756 18.7093 20.5816
7363 2 2.73075 20.262 19.2639
1096 1 4.54809 20.2808 20.554
7362 2 5.45653 18.6903 19.2914
1144 1 7.27379 18.7093 20.5816
7039 2 8.18699 20.262 19.2639
817 1 10.0043 20.2808 20.554
7087 2 10.9128 18.6903 19.2914
502 1 15.4606 20.2808 20.554
816 1 12.73 18.7093 20.5816
6753 2 13.6432 20.262 19.2639
535 1 18.1863 18.7093 20.5816
6752 2 16.369 18.6903 19.2914
7683 2 21.8252 18.6903 19.2914
278 1 20.9168 20.2808 20.554
6477 2 19.0995 20.262 19.2639
1429 1 1.82254 21.8516 20.5256
7324 2 2.73576 23.4039 19.2072
1095 1 4.55336 23.4217 20.4966
7365 2 5.46133 21.8332 19.2358
1094 1 7.27878 21.8516 20.5256
7038 2 8.192 23.4039 19.2072
772 1 10.0096 23.4217 20.4966
7037 2 10.9176 21.8332 19.2358
501 1 15.4658 23.4217 20.4966
819 1 12.735 21.8516 20.5256
6715 2 13.6482 23.4039 19.2072
500 1 18.1913 21.8516 20.5256
6755 2 16.3738 21.8332 19.2358
7650 2 21.83 21.8332 19.2358
256 1 20.9221 23.4217 20.4966
6476 2 19.1045 23.4039 19.2072
1396 1 1.82805 24.9913 20.4671
7323 2 2.74104 26.5442 19.1492
7322 2 5.4665 24.9742 19.1783
1056 1 4.55904 26.5604 20.4372
1097 1 7.28429 24.9913 20.4671
6992 2 8.19728 26.5442 19.1492
7040 2 10.9227 24.9742 19.1783
771 1 10.0153 26.5604 20.4372
770 1 12.7405 24.9913 20.4671
466 1 15.4715 26.5604 20.4372
6714 2 13.6535 26.5442 19.1492
503 1 18.1968 24.9913 20.4671
6713 2 16.379 24.9742 19.1783
7651 2 21.8352 24.9742 19.1783
255 1 20.9278 26.5604 20.4372
6449 2 19.1098 26.5442 19.1492
1397 1 1.83383 28.1292 20.4072
7325 2 5.47184 28.1139 19.1202
1054 1 7.29007 28.1292 20.4072
6990 2 10.9281 28.1139 19.1202
773 1 12.7463 28.1292 20.4072
464 1 18.2025 28.1292 20.4072
6716 2 16.3843 28.1139 19.1202
7626 2 21.8406 28.1139 19.1202
1372 1 1.83965 31.2666 20.3484
7292 2 2.74639 29.6836 19.0916
7627 2 0.0209381 31.2534 19.0637
1055 1 4.56486 29.6979 20.3775
7290 2 5.47718 31.2534 19.0637
1057 1 7.29589 31.2666 20.3484
6991 2 8.20263 29.6836 19.0916
727 1 10.0211 29.6979 20.3775
6993 2 10.9334 31.2534 19.0637
465 1 15.4773 29.6979 20.3775
725 1 12.7521 31.2666 20.3484
6675 2 13.6589 29.6836 19.0916
467 1 18.2084 31.2666 20.3484
6673 2 16.3897 31.2534 19.0637
232 1 20.9336 29.6979 20.3775
6448 2 19.1151 29.6836 19.0916
1373 1 1.8455 34.4048 20.2935
7291 2 2.75172 32.8234 19.0369
7610 2 0.0262718 34.3936 19.0115
1024 1 4.57068 32.8356 20.3202
7293 2 5.48251 34.3936 19.0115
1022 1 7.30173 34.4048 20.2935
6952 2 8.20796 32.8234 19.0369
726 1 10.0269 32.8356 20.3202
6950 2 10.9387 34.3936 19.0115
430 1 15.4832 32.8356 20.3202
728 1 12.758 34.4048 20.2935
6674 2 13.6642 32.8234 19.0369
428 1 18.2142 34.4048 20.2935
6676 2 16.395 34.3936 19.0115
231 1 20.9394 32.8356 20.3202
6421 2 19.1204 32.8234 19.0369
1356 1 1.85155 37.5444 20.2461
7268 2 2.75708 35.9642 18.9879
7611 2 0.0316742 37.535 18.9665
1023 1 4.57661 35.9744 20.2687
7266 2 5.48791 37.535 18.9665
1025 1 7.30779 37.5444 20.2461
6951 2 8.21332 35.9642 18.9879
689 1 10.0328 35.9744 20.2687
6953 2 10.9442 37.535 18.9665
429 1 15.4891 35.9744 20.2687
687 1 12.764 37.5444 20.2461
6636 2 13.6696 35.9642 18.9879
431 1 18.2203 37.5444 20.2461
6634 2 16.4004 37.535 18.9665
208 1 20.9453 35.9744 20.2687
6420 2 19.1258 35.9642 18.9879
1357 1 1.85774 40.685 20.2089
7267 2 2.76249 39.1062 18.9475
7602 2 0.0369705 40.6775 18.9311
1000 1 4.58278 39.1146 20.2261
7269 2 5.49321 40.6775 18.9311
7246 2 3.67886 40.6958 21.4944
998 1 7.31397 40.685 20.2089
6920 2 8.21872 39.1062 18.9475
6917 2 9.1351 40.6958 21.4944
688 1 10.039 39.1146 20.2261
6918 2 10.9494 40.6775 18.9311
395 1 15.4953 39.1146 20.2261
690 1 12.7702 40.685 20.2089
6635 2 13.675 39.1062 18.9475
6598 2 14.5913 40.6958 21.4944
393 1 18.2265 40.685 20.2089
6637 2 16.4057 40.6775 18.9311
207 1 20.9515 39.1146 20.2261
6393 2 19.1312 39.1062 18.9475
6391 2 20.0476 40.6958 21.4944
1348 1 1.8632 43.8259 20.1838
7252 2 2.76749 42.2491 18.9176
7603 2 0.0414339 43.8207 18.907
7247 2 0.954199 42.2647 21.4801
999 1 4.58877 42.2555 20.1948
7250 2 5.49767 43.8207 18.907
7249 2 3.68536 43.8334 21.469
1001 1 7.31943 43.8259 20.1838
6919 2 8.22373 42.2491 18.9176
6890 2 9.1416 43.8334 21.469
6892 2 6.41044 42.2647 21.4801
659 1 10.045 42.2555 20.1948
6921 2 10.9539 43.8207 18.907
6599 2 11.8667 42.2647 21.4801
394 1 15.5012 42.2555 20.1948
657 1 12.7757 43.8259 20.1838
6604 2 13.68 42.2491 18.9176
6601 2 14.5978 43.8334 21.469
396 1 18.2319 43.8259 20.1838
6602 2 16.4101 43.8207 18.907
6363 2 17.3229 42.2647 21.4801
184 1 20.9575 42.2555 20.1948
6392 2 19.1362 42.2491 18.9176
6361 2 20.0541 43.8334 21.469
1349 1 1.86638 46.9668 20.1714
7251 2 2.77112 45.3923 18.8995
7601 2 0.0439469 46.9639 18.895
7240 2 0.959614 45.402 21.4612
984 1 4.59329 45.3964 20.176
7253 2 5.50019 46.9639 18.895
7238 2 3.68919 46.9704 21.4566
982 1 7.32262 46.9668 20.1714
6896 2 8.22736 45.3923 18.8995
6891 2 6.41585 45.402 21.4612
6893 2 9.14543 46.9704 21.4566
658 1 10.0495 45.3964 20.176
6894 2 10.9564 46.9639 18.895
6576 2 11.8721 45.402 21.4612
367 1 15.5058 45.3964 20.176
660 1 12.7789 46.9668 20.1714
6603 2 13.6836 45.3923 18.8995
6574 2 14.6017 46.9704 21.4566
365 1 18.2351 46.9668 20.1714
6605 2 16.4127 46.9639 18.895
6362 2 17.3283 45.402 21.4612
183 1 20.962 45.3964 20.176
6366 2 19.1398 45.3923 18.8995
6364 2 20.0579 46.9704 21.4566
7241 2 2.7723 48.5355 18.8938
3594 1 1.86606 50.1076 20.1721
9966 2 0.0436756 50.1072 18.8956
7239 2 0.961453 48.5388 21.4554
983 1 4.59481 48.5372 20.1701
9668 2 5.49991 50.1072 18.8956
9667 2 3.68883 50.1071 21.4573
6895 2 8.22854 48.5355 18.8938
3312 1 7.3223 50.1076 20.1721
9329 2 9.14507 50.1071 21.4573
6873 2 6.41769 48.5388 21.4554
634 1 10.0511 48.5372 20.1701
9360 2 10.9562 50.1072 18.8956
6575 2 11.8739 48.5388 21.4554
366 1 15.5073 48.5372 20.1701
6577 2 13.6848 48.5355 18.8938
2961 1 12.7785 50.1076 20.1721
9000 2 14.6013 50.1071 21.4573
2632 1 18.2348 50.1076 20.1721
9001 2 16.4124 50.1072 18.8956
6340 2 17.3302 48.5388 21.4554
160 1 20.9635 48.5372 20.1701
6365 2 19.141 48.5355 18.8938
8697 2 20.0575 50.1071 21.4573
1226 1 2.70932 1.40946 23.4008
7451 2 0.891467 1.39386 22.1128
886 1 8.16556 1.40946 23.4008
7154 2 6.34771 1.39386 22.1128
6806 2 11.8039 1.39386 22.1128
570 1 13.6218 1.40946 23.4008
6522 2 17.2602 1.39386 22.1128
301 1 19.078 1.40946 23.4008
1186 1 2.71064 4.56814 23.3652
7450 2 0.89302 4.55115 22.0768
1227 1 5.43806 2.98901 23.3835
7449 2 3.62032 2.97271 22.0952
885 1 8.16688 4.56814 23.3652
7122 2 6.34926 4.55115 22.0768
7155 2 9.07656 2.97271 22.0952
884 1 10.8943 2.98901 23.3835
6805 2 11.8055 4.55115 22.0768
554 1 13.6231 4.56814 23.3652
6804 2 14.5328 2.97271 22.0952
571 1 16.3505 2.98901 23.3835
6514 2 17.2617 4.55115 22.0768
1505 1 21.8068 2.98901 23.3835
300 1 19.0794 4.56814 23.3652
6523 2 19.989 2.97271 22.0952
1185 1 2.71234 7.72493 23.3261
7406 2 0.894963 7.70666 22.0371
1184 1 5.43956 6.14679 23.3461
7452 2 3.62206 6.12915 22.0574
854 1 8.16858 7.72493 23.3261
7120 2 9.07829 6.12915 22.0574
7121 2 6.3512 7.70666 22.0371
887 1 10.8958 6.14679 23.3461
6782 2 11.8074 7.70666 22.0371
553 1 13.6248 7.72493 23.3261
6807 2 14.5345 6.12915 22.0574
552 1 16.352 6.14679 23.3461
6513 2 17.2637 7.70666 22.0371
1506 1 21.8083 6.14679 23.3461
293 1 19.0811 7.72493 23.3261
6512 2 19.9908 6.12915 22.0574
1139 1 2.71454 10.8794 23.2835
7405 2 0.897401 10.86 21.9939
1187 1 5.44149 9.30248 23.3053
7404 2 3.62423 9.28361 22.0159
853 1 8.17078 10.8794 23.2835
7082 2 6.35364 10.86 21.9939
7123 2 9.08047 9.28361 22.0159
852 1 10.8977 9.30248 23.3053
6781 2 11.8099 10.86 21.9939
530 1 13.627 10.8794 23.2835
6780 2 14.5367 9.28361 22.0159
555 1 16.354 9.30248 23.3053
6498 2 17.2661 10.86 21.9939
1465 1 21.8102 9.30248 23.3053
292 1 19.0833 10.8794 23.2835
6515 2 19.9929 9.28361 22.0159
1138 1 2.71739 14.031 23.2373
7360 2 0.900454 14.0107 21.9471
1137 1 5.444 12.4556 23.2609
7407 2 3.62696 12.4357 21.9709
814 1 8.17363 14.031 23.2373
7080 2 9.0832 12.4357 21.9709
7081 2 6.35669 14.0107 21.9471
855 1 10.9002 12.4556 23.2609
6750 2 11.8129 14.0107 21.9471
529 1 13.6299 14.031 23.2373
6783 2 14.5394 12.4357 21.9709
528 1 16.3565 12.4556 23.2609
6497 2 17.2692 14.0107 21.9471
1466 1 21.8127 12.4556 23.2609
277 1 19.0861 14.031 23.2373
6496 2 19.9957 12.4357 21.9709
1092 1 2.72104 17.1793 23.1874
7359 2 0.904234 17.1584 21.8967
1140 1 5.44723 15.6056 23.2128
7358 2 3.63037 15.5849 21.9223
813 1 8.17728 17.1793 23.1874
7035 2 6.36047 17.1584 21.8967
7083 2 9.0866 15.5849 21.9223
812 1 10.9035 15.6056 23.2128
6749 2 11.8167 17.1584 21.8967
498 1 13.6335 17.1793 23.1874
6748 2 14.5428 15.5849 21.9223
531 1 16.3597 15.6056 23.2128
6474 2 17.2729 17.1584 21.8967
1426 1 21.8159 15.6056 23.2128
276 1 19.0898 17.1793 23.1874
6499 2 19.9991 15.5849 21.9223
1091 1 2.72563 20.3237 23.1338
7320 2 0.908817 20.3027 21.8429
1090 1 5.45133 18.752 23.1611
7361 2 3.63454 18.731 21.8702
768 1 8.18187 20.3237 23.1338
7033 2 9.09078 18.731 21.8702
7034 2 6.36506 20.3027 21.8429
815 1 10.9076 18.752 23.1611
6711 2 11.8213 20.3027 21.8429
497 1 13.6381 20.3237 23.1338
6751 2 14.547 18.731 21.8702
496 1 16.3638 18.752 23.1611
6473 2 17.2775 20.3027 21.8429
1427 1 21.82 18.752 23.1611
254 1 19.0943 20.3237 23.1338
6472 2 20.0033 18.731 21.8702
1052 1 2.73118 23.4641 23.0766
7319 2 0.914187 23.4438 21.7859
1093 1 5.45641 21.8944 23.1057
7318 2 3.63953 21.8737 21.8148
7036 2 9.09577 21.8737 21.8148
767 1 8.18742 23.4641 23.0766
6988 2 6.37043 23.4438 21.7859
766 1 10.9126 21.8944 23.1057
6710 2 11.8267 23.4438 21.7859
6709 2 14.552 21.8737 21.8148
462 1 13.6437 23.4641 23.0766
499 1 16.3689 21.8944 23.1057
6446 2 17.2829 23.4438 21.7859
1394 1 21.8251 21.8944 23.1057
6475 2 20.0082 21.8737 21.8148
253 1 19.0999 23.4641 23.0766
7284 2 1.82277 25.058 24.3363
1050 1 5.46241 25.0328 23.0467
7321 2 3.64524 25.0132 21.7565
6986 2 9.10148 25.0132 21.7565
6985 2 7.27901 25.058 24.3363
769 1 10.9186 25.0328 23.0467
6712 2 14.5577 25.0132 21.7565
6665 2 12.7352 25.058 24.3363
460 1 16.3749 25.0328 23.0467
6443 2 18.1915 25.058 24.3363
1395 1 21.8311 25.0328 23.0467
6444 2 20.014 25.0132 21.7565
1051 1 2.73757 26.6006 23.016
7288 2 0.920188 26.5819 21.7265
7285 2 1.82983 28.1926 24.2746
1053 1 5.46909 28.1678 22.9849
7286 2 3.65146 28.1501 21.6964
6944 2 4.55431 26.6257 24.3058
723 1 8.19381 26.6006 23.016
6987 2 6.37643 26.5819 21.7265
6989 2 9.1077 28.1501 21.6964
6942 2 7.28607 28.1926 24.2746
721 1 10.9253 28.1678 22.9849
6671 2 11.8327 26.5819 21.7265
6666 2 10.0106 26.6257 24.3058
461 1 13.65 26.6006 23.016
6669 2 14.5639 28.1501 21.6964
6414 2 15.4668 26.6257 24.3058
6668 2 12.7423 28.1926 24.2746
463 1 16.3816 28.1678 22.9849
6445 2 17.2889 26.5819 21.7265
6412 2 18.1985 28.1926 24.2746
1370 1 21.8378 28.1678 22.9849
230 1 19.1063 26.6006 23.016
6447 2 20.0202 28.1501 21.6964
6263 2 20.923 26.6257 24.3058
1020 1 2.74446 29.7345 22.9536
7287 2 0.92655 29.718 21.6663
7260 2 1.83756 31.3241 24.2115
1018 1 5.47612 31.301 22.9225
7289 2 3.65792 31.2857 21.6367
6943 2 4.56176 29.7586 24.243
722 1 8.2007 29.7345 22.9536
6946 2 9.11416 31.2857 21.6367
6948 2 6.38279 29.718 21.6663
6945 2 7.2938 31.3241 24.2115
724 1 10.9324 31.301 22.9225
6670 2 11.839 29.718 21.6663
6628 2 10.018 29.7586 24.243
426 1 13.6569 29.7345 22.9536
6672 2 14.5704 31.2857 21.6367
6413 2 15.4742 29.7586 24.243
6626 2 12.75 31.3241 24.2115
424 1 16.3886 31.301 22.9225
6418 2 17.2953 29.718 21.6663
6415 2 18.2063 31.3241 24.2115
1371 1 21.8448 31.301 22.9225
229 1 19.1132 29.7345 22.9536
6416 2 20.0266 31.2857 21.6367
6248 2 20.9305 29.7586 24.243
1019 1 2.7516 32.8675 22.8921
7264 2 0.933089 32.8535 21.6081
1354 1 0.0271507 34.4343 22.8631
7261 2 1.84577 34.4547 24.1508
1021 1 5.48339 34.4343 22.8631
7262 2 3.66456 34.4215 21.5808
6912 2 4.56972 32.8894 24.1805
685 1 8.20783 32.8675 22.8921
6947 2 6.38933 32.8535 21.6081
6949 2 9.1208 34.4215 21.5808
6910 2 7.30201 34.4547 24.1508
683 1 10.9396 34.4343 22.8631
6632 2 11.8456 32.8535 21.6081
6627 2 10.026 32.8894 24.1805
425 1 13.6641 32.8675 22.8921
6630 2 14.577 34.4215 21.5808
6386 2 15.4822 32.8894 24.1805
6629 2 12.7582 34.4547 24.1509
427 1 16.3959 34.4343 22.8631
6417 2 17.3018 32.8535 21.6081
6384 2 18.2145 34.4547 24.1509
206 1 19.1203 32.8675 22.8921
6419 2 20.0333 34.4215 21.5808
6247 2 20.9384 32.8894 24.1805
996 1 2.75909 36.0015 22.836
7263 2 0.939896 35.9897 21.5554
7244 2 1.85477 37.586 24.0979
1355 1 0.0349721 37.569 22.8115
994 1 5.49121 37.569 22.8115
7265 2 3.67158 37.5582 21.5323
6911 2 4.57826 36.0202 24.1231
684 1 8.21532 36.0015 22.836
6914 2 9.12782 37.5582 21.5323
6916 2 6.39613 35.9897 21.5554
6913 2 7.31101 37.586 24.0979
686 1 10.9474 37.569 22.8115
6631 2 11.8524 35.9897 21.5554
6596 2 10.0345 36.0202 24.1231
391 1 13.6716 36.0015 22.836
6633 2 14.5841 37.5582 21.5323
6385 2 15.4907 36.0202 24.1231
6594 2 12.7672 37.586 24.0979
389 1 16.4037 37.569 22.8115
6390 2 17.3086 35.9897 21.5554
6387 2 18.2235 37.586 24.0979
205 1 19.1278 36.0015 22.836
6388 2 20.0403 37.5582 21.5323
6232 2 20.947 36.0202 24.1231
995 1 2.7673 39.1367 22.7898
7248 2 0.947104 39.127 21.5119
1346 1 0.0434907 40.7046 22.7715
7245 2 1.86472 40.7179 24.0572
997 1 5.49973 40.7046 22.7715
6888 2 4.58778 39.1519 24.0758
655 1 8.22354 39.1367 22.7898
6915 2 6.40334 39.127 21.5119
6886 2 7.32096 40.7179 24.0572
653 1 10.956 40.7046 22.7715
6600 2 11.8596 39.127 21.5119
6595 2 10.044 39.1519 24.0758
390 1 13.6798 39.1367 22.7898
6359 2 15.5003 39.1519 24.0758
6597 2 12.7772 40.7179 24.0572
392 1 16.4122 40.7046 22.7715
6389 2 17.3158 39.127 21.5119
6357 2 18.2334 40.7179 24.0572
182 1 19.136 39.1367 22.7898
6231 2 20.9565 39.1519 24.0758
980 1 2.77584 42.2723 22.7566
7236 2 1.87421 43.8488 24.031
1347 1 0.0515263 43.8398 22.7452
978 1 5.50776 43.8398 22.7452
6887 2 4.59781 42.2836 24.0423
654 1 8.23207 42.2723 22.7566
6889 2 7.33045 43.8488 24.031
656 1 10.964 43.8398 22.7452
6572 2 10.0541 42.2836 24.0423
363 1 13.6883 42.2723 22.7566
6570 2 12.7867 43.8488 24.031
6358 2 15.5103 42.2836 24.0423
361 1 16.4202 43.8398 22.7452
6360 2 18.2429 43.8488 24.031
181 1 19.1446 42.2723 22.7566
6216 2 20.9665 42.2836 24.0423
979 1 2.78269 45.4069 22.7373
1345 1 0.0564563 46.9736 22.7327
7237 2 1.88007 46.9777 24.0189
981 1 5.51269 46.9736 22.7327
6872 2 4.60593 45.4135 24.0233
633 1 8.23892 45.4069 22.7373
6870 2 7.3363 46.9777 24.0189
631 1 10.9689 46.9736 22.7327
6571 2 10.0622 45.4135 24.0233
362 1 13.6952 45.4069 22.7373
6339 2 15.5184 45.4135 24.0233
6573 2 12.7925 46.9777 24.0189
364 1 16.4252 46.9736 22.7327
6337 2 18.2488 46.9777 24.0189
159 1 19.1514 45.4069 22.7373
6215 2 20.9746 45.4135 24.0233
969 1 2.78508 48.5403 22.7314
3593 1 0.0560125 50.1069 22.7335
9623 2 1.87957 50.1056 24.0197
6871 2 4.6088 48.5417 24.0178
3273 1 5.51225 50.1069 22.7335
632 1 8.24132 48.5403 22.7314
9328 2 7.3358 50.1056 24.0197
6553 2 10.065 48.5417 24.0178
2960 1 10.9685 50.1069 22.7335
340 1 13.6976 48.5403 22.7314
6338 2 15.5213 48.5417 24.0178
8977 2 12.792 50.1056 24.0197
2617 1 16.4247 50.1069 22.7335
8696 2 18.2483 50.1056 24.0197
158 1 19.1538 48.5403 22.7314
6200 2 20.9775 48.5417 24.0178
1182 1 0.889471 1.4409 25.973
7114 2 2.70816 1.45672 27.2571
7118 2 4.52775 1.42497 24.6854
882 1 6.34571 1.4409 25.973
6774 2 8.1644 1.45672 27.2571
550 1 11.8019 1.4409 25.973
6802 2 9.98398 1.42497 24.6854
6510 2 15.4402 1.42497 24.6854
6506 2 13.6206 1.45672 27.2571
298 1 17.2582 1.4409 25.973
6304 2 20.8965 1.42497 24.6854
6301 2 19.0769 1.45672 27.2571
1181 1 0.890258 4.60268 25.9385
7448 2 1.80012 3.00529 24.6683
7074 2 2.70868 4.6202 27.2231
1180 1 3.61795 3.022 25.9562
7117 2 4.52881 4.58519 24.6504
7115 2 5.43651 3.03866 27.2405
850 1 6.3465 4.60268 25.9385
883 1 9.07419 3.022 25.9562
7116 2 7.25636 3.00529 24.6683
6773 2 8.16491 4.6202 27.2231
549 1 11.8027 4.60268 25.9385
6778 2 9.98505 4.58519 24.6504
6772 2 10.8927 3.03866 27.2405
548 1 14.5304 3.022 25.9562
6509 2 15.4413 4.58519 24.6504
6803 2 12.7126 3.00529 24.6683
6490 2 13.6212 4.6202 27.2231
290 1 17.259 4.60268 25.9385
6508 2 18.1688 3.00529 24.6683
6507 2 16.349 3.03866 27.2405
299 1 19.9867 3.022 25.9562
6303 2 20.8975 4.58519 24.6504
7400 2 21.8052 3.03866 27.2405
6300 2 19.0774 4.6202 27.2231
1135 1 0.891356 7.76257 25.9007
7402 2 1.80134 6.16463 24.6316
7073 2 2.70946 7.78185 27.1858
1183 1 3.61888 6.18289 25.92
7078 2 4.53021 7.74355 24.6119
7072 2 5.43715 6.20128 27.2049
848 1 9.07512 6.18289 25.92
849 1 6.34759 7.76257 25.9007
7119 2 7.25758 6.16463 24.6316
6742 2 8.1657 7.78185 27.1858
526 1 11.8038 7.76257 25.9007
6777 2 9.98645 7.74355 24.6119
6775 2 10.8934 6.20128 27.2049
551 1 14.5314 6.18289 25.92
6494 2 15.4427 7.74355 24.6119
6776 2 12.7138 6.16463 24.6316
6489 2 13.6219 7.78185 27.1858
289 1 17.2601 7.76257 25.9007
6511 2 18.1701 6.16463 24.6316
6488 2 16.3496 6.20128 27.2049
288 1 19.9876 6.18289 25.92
6302 2 20.8989 7.74355 24.6119
7401 2 21.8059 6.20128 27.2049
6293 2 19.0782 7.78185 27.1858
1134 1 0.892904 10.9201 25.8595
7403 2 1.80296 9.32188 24.5914
7027 2 2.71064 10.9412 27.1453
1133 1 3.62018 9.34165 25.8805
7077 2 4.53209 10.8996 24.57
7075 2 5.43811 9.36184 27.166
810 1 6.34914 10.9201 25.8595
851 1 9.07642 9.34165 25.8805
7076 2 7.2592 9.32188 24.5914
6741 2 8.16688 10.9412 27.1453
525 1 11.8054 10.9201 25.8595
6746 2 9.98832 10.8996 24.57
6740 2 10.8943 9.36184 27.166
524 1 14.5327 9.34165 25.8805
6493 2 15.4446 10.8996 24.57
6779 2 12.7154 9.32188 24.5914
6466 2 13.6231 10.9412 27.1453
274 1 17.2616 10.9201 25.8595
6492 2 18.1717 9.32188 24.5914
6491 2 16.3506 9.36184 27.166
291 1 19.9889 9.34165 25.8805
6295 2 20.9008 10.8996 24.57
7354 2 21.8068 9.36184 27.166
6292 2 19.0794 10.9412 27.1453
1088 1 0.895085 14.0746 25.8148
7356 2 1.80513 12.4765 24.5477
7026 2 2.7124 14.0976 27.1014
1136 1 3.62202 12.4977 25.8376
7031 2 4.53459 14.0527 24.5245
7025 2 5.43955 12.5198 27.1238
808 1 9.07826 12.4977 25.8376
809 1 6.35132 14.0746 25.8148
7079 2 7.26137 12.4765 24.5477
6703 2 8.16864 14.0976 27.1014
494 1 11.8076 14.0746 25.8148
6745 2 9.99083 14.0527 24.5245
6743 2 10.8958 12.5198 27.1238
527 1 14.5345 12.4977 25.8376
6470 2 15.4471 14.0527 24.5245
6744 2 12.7176 12.4765 24.5477
6465 2 13.6249 14.0976 27.1014
273 1 17.2638 14.0746 25.8148
6495 2 18.1738 12.4765 24.5477
6464 2 16.352 12.5198 27.1238
272 1 19.9907 12.4977 25.8376
6294 2 20.9033 14.0527 24.5245
7355 2 21.8083 12.5198 27.1238
6278 2 19.0811 14.0976 27.1014
1087 1 0.898127 17.2254 25.7665
7357 2 1.80802 15.628 24.5005
6980 2 2.71499 17.2503 27.054
1086 1 3.6246 15.6505 25.7911
7030 2 4.53792 17.2024 24.4755
7028 2 5.44169 15.6745 27.0781
764 1 6.35437 17.2254 25.7665
811 1 9.08084 15.6505 25.7911
7029 2 7.26426 15.628 24.5005
6702 2 8.17122 17.2503 27.054
493 1 11.8106 17.2254 25.7665
6707 2 9.99416 17.2024 24.4755
6701 2 10.8979 15.6745 27.0781
492 1 14.5371 15.6505 25.7911
6469 2 15.4504 17.2024 24.4755
6747 2 12.7205 15.628 24.5005
6438 2 13.6275 17.2503 27.054
251 1 17.2668 17.2254 25.7665
6468 2 18.1767 15.628 24.5005
6467 2 16.3542 15.6745 27.0781
275 1 19.9933 15.6505 25.7911
6280 2 20.9066 17.2024 24.4755
6277 2 19.0837 17.2503 27.054
7314 2 21.8104 15.6745 27.0781
1048 1 0.902282 20.3717 25.7144
7316 2 1.81183 18.7757 24.4496
6979 2 2.71869 20.3985 27.0027
1089 1 3.62817 18.7991 25.741
6984 2 4.54225 20.348 24.4227
6978 2 5.4448 18.825 27.0289
762 1 9.08441 18.7991 25.741
763 1 6.35852 20.3717 25.7144
7032 2 7.26807 18.7757 24.4496
6663 2 8.17493 20.3985 27.0027
458 1 11.8148 20.3717 25.7144
6706 2 9.99849 20.348 24.4227
6704 2 10.901 18.825 27.0289
495 1 14.5406 18.7991 25.741
6442 2 15.4547 20.348 24.4227
6705 2 12.7243 18.7757 24.4496
6437 2 13.6312 20.3985 27.0027
250 1 17.271 20.3717 25.7144
6471 2 18.1805 18.7757 24.4496
6436 2 16.3573 18.825 27.0289
249 1 19.9969 18.7991 25.741
6279 2 20.911 20.348 24.4227
7315 2 21.8135 18.825 27.0289
6262 2 19.0874 20.3985 27.0027
7317 2 1.81672 21.9191 24.3949
1047 1 0.90777 23.5127 25.658
6940 2 2.72383 23.5411 26.9472
1046 1 3.63297 21.9429 25.6867
6981 2 5.44918 21.9705 26.9755
6983 2 4.54773 23.4891 24.3661
765 1 9.08921 21.9429 25.6867
6982 2 7.27296 21.9191 24.3949
719 1 6.36401 23.5127 25.658
6662 2 8.18006 23.5411 26.9472
6661 2 10.9054 21.9705 26.9755
457 1 11.8202 23.5127 25.658
6667 2 10.004 23.4891 24.3661
456 1 14.5454 21.9429 25.6867
6708 2 12.7292 21.9191 24.3949
6441 2 15.4602 23.4891 24.3661
6410 2 13.6363 23.5411 26.9472
6440 2 18.1854 21.9191 24.3949
6439 2 16.3617 21.9705 26.9755
227 1 17.2765 23.5127 25.658
252 1 20.0017 21.9429 25.6867
7282 2 21.8179 21.9705 26.9755
6264 2 20.9164 23.4891 24.3661
6261 2 19.0925 23.5411 26.9472
1049 1 3.63916 25.0811 25.6281
6938 2 5.45513 25.1102 26.9177
717 1 9.0954 25.0811 25.6281
6664 2 10.9114 25.1102 26.9177
459 1 14.5516 25.0811 25.6281
6408 2 16.3676 25.1102 26.9177
225 1 20.0079 25.0811 25.6281
7283 2 21.8238 25.1102 26.9177
1016 1 0.914644 26.6482 25.5971
6939 2 2.73063 26.6776 26.8869
1014 1 3.64665 28.2139 25.5651
6941 2 5.46277 28.2435 26.855
718 1 6.37088 26.6482 25.5971
720 1 9.10289 28.2139 25.5651
6624 2 8.18687 26.6776 26.8869
422 1 11.8271 26.6482 25.5971
6622 2 10.919 28.2435 26.855
420 1 14.5591 28.2139 25.5651
6409 2 13.6431 26.6776 26.8869
226 1 17.2834 26.6482 25.5971
6411 2 16.3752 28.2435 26.855
228 1 20.0154 28.2139 25.5651
7258 2 21.8315 28.2435 26.855
6246 2 19.0993 26.6776 26.8869
1015 1 0.922642 29.7786 25.5323
6908 2 2.73903 29.808 26.8222
1017 1 3.65502 31.3426 25.4991
6906 2 5.47182 31.3713 26.7886
679 1 9.11126 31.3426 25.4991
681 1 6.37888 29.7786 25.5323
6623 2 8.19527 29.808 26.8222
421 1 11.8351 29.7786 25.5323
6625 2 10.9281 31.3713 26.7886
423 1 14.5675 31.3426 25.4991
6382 2 13.6515 29.808 26.8222
203 1 17.2914 29.7786 25.5323
6380 2 16.3843 31.3713 26.7886
201 1 20.0237 31.3426 25.4991
7259 2 21.8405 31.3713 26.7886
6245 2 19.1077 29.808 26.8222
992 1 0.931284 32.9062 25.466
6907 2 2.74859 32.9337 26.755
990 1 3.66395 34.47 25.434
6909 2 5.48183 34.4958 26.7222
680 1 6.38752 32.9062 25.466
682 1 9.12019 34.47 25.434
6592 2 8.20483 32.9337 26.755
387 1 11.8438 32.9062 25.466
6590 2 10.9381 34.4958 26.7222
385 1 14.5764 34.47 25.434
6381 2 13.6611 32.9337 26.755
202 1 17.3 32.9062 25.466
6383 2 16.3943 34.4958 26.7222
204 1 20.0327 34.47 25.434
7242 2 21.8505 34.4958 26.7222
6230 2 19.1173 32.9337 26.755
991 1 0.940641 36.0342 25.4039
6884 2 2.75916 36.0579 26.6913
7243 2 0.0369746 37.6202 26.6633
993 1 3.67393 37.5988 25.3767
6882 2 5.49321 37.6202 26.6633
649 1 9.13017 37.5988 25.3767
651 1 6.39688 36.0342 25.4039
6591 2 8.2154 36.0579 26.6913
386 1 11.8531 36.0342 25.4039
6593 2 10.9494 37.6202 26.6633
388 1 14.5864 37.5988 25.3767
6355 2 13.6716 36.0579 26.6913
179 1 17.3094 36.0342 25.4039
6353 2 16.4057 37.6202 26.6633
177 1 20.0426 37.5988 25.3767
6229 2 19.1279 36.0579 26.6913
976 1 0.951466 39.1637 25.3531
6883 2 2.77158 39.1827 26.6391
7234 2 0.0504583 40.7451 26.6194
974 1 3.68559 40.7286 25.3336
6885 2 5.5067 40.7451 26.6194
650 1 6.4077 39.1637 25.3531
652 1 9.14183 40.7286 25.3336
6568 2 8.22781 39.1827 26.6391
359 1 11.8639 39.1637 25.3531
6566 2 10.9629 40.7451 26.6194
357 1 14.5981 40.7286 25.3336
6354 2 13.6841 39.1827 26.6391
178 1 17.3202 39.1637 25.3531
6356 2 16.4192 40.7451 26.6194
180 1 20.0543 40.7286 25.3336
6214 2 19.1403 39.1827 26.6391
975 1 0.963611 42.2932 25.3183
6868 2 2.78571 42.307 26.6044
7235 2 0.0643061 43.8678 26.5937
977 1 3.69743 43.8569 25.3072
6866 2 5.52054 43.8678 26.5937
627 1 9.15367 43.8569 25.3072
629 1 6.41985 42.2932 25.3183
6567 2 8.24195 42.307 26.6044
358 1 11.8761 42.2932 25.3183
6569 2 10.9768 43.8678 26.5937
360 1 14.6099 43.8569 25.3072
6335 2 13.6982 42.307 26.6044
156 1 17.3323 42.2932 25.3183
6333 2 16.433 43.8678 26.5937
154 1 20.0661 43.8569 25.3072
6213 2 19.1544 42.307 26.6044
968 1 0.974002 45.4197 25.2998
6867 2 2.79788 45.4275 26.5871
7233 2 0.0732754 46.9861 26.5836
966 1 3.70507 46.9816 25.2958
6869 2 5.52951 46.9861 26.5836
628 1 6.43024 45.4197 25.2998
630 1 9.16131 46.9816 25.2958
6552 2 8.25412 45.4275 26.5871
339 1 11.8865 45.4197 25.2998
6550 2 10.9858 46.9861 26.5836
337 1 14.6175 46.9816 25.2958
6334 2 13.7104 45.4275 26.5871
155 1 17.3427 45.4197 25.2998
6336 2 16.442 46.9861 26.5836
157 1 20.0738 46.9816 25.2958
6199 2 19.1666 45.4275 26.5871
967 1 0.977782 48.543 25.2947
6857 2 2.80239 48.5441 26.5829
9622 2 0.0725296 50.1022 26.5843
3272 1 3.70442 50.1044 25.2966
9289 2 5.52877 50.1022 26.5843
612 1 6.43402 48.543 25.2947
6551 2 8.25863 48.5441 26.5829
2929 1 9.16066 50.1044 25.2966
338 1 11.8903 48.543 25.2947
8976 2 10.985 50.1022 26.5843
6320 2 13.7149 48.5441 26.5829
2616 1 14.6169 50.1044 25.2966
137 1 17.3465 48.543 25.2947
8681 2 16.4412 50.1022 26.5843
6198 2 19.1711 48.5441 26.5829
2345 1 20.0731 50.1044 25.2966
7070 2 0.88908 1.4891 29.8277
846 1 4.5263 1.47297 28.5443
6770 2 6.34532 1.4891 29.8277
546 1 9.98254 1.47297 28.5443
6486 2 11.8016 1.4891 29.8277
286 1 15.4388 1.47297 28.5443
6298 2 17.2578 1.4891 29.8277
112 1 20.895 1.47297 28.5443
1179 1 1.79827 3.05576 28.5279
7069 2 0.889047 4.65612 29.7946
845 1 4.52652 4.63817 28.5108
7068 2 3.61717 3.07279 29.8116
844 1 7.25451 3.05576 28.5279
6738 2 6.34529 4.65612 29.7946
6771 2 9.07341 3.07279 29.8116
522 1 9.98276 4.63817 28.5108
6485 2 11.8015 4.65612 29.7946
285 1 15.439 4.63817 28.5108
547 1 12.7108 3.05576 28.5279
6484 2 14.5296 3.07279 29.8116
284 1 18.167 3.05576 28.5279
6290 2 17.2578 4.65612 29.7946
111 1 20.8952 4.63817 28.5108
6299 2 19.9859 3.07279 29.8116
1131 1 1.79858 6.22013 28.4928
7023 2 0.889173 7.82149 29.7585
806 1 4.52695 7.80159 28.4741
7071 2 3.6172 6.23904 29.7769
847 1 7.25482 6.22013 28.4928
6736 2 9.07344 6.23904 29.7769
6737 2 6.34541 7.82149 29.7585
521 1 9.98319 7.80159 28.4741
6462 2 11.8016 7.82149 29.7585
270 1 15.4394 7.80159 28.4741
520 1 12.7111 6.22013 28.4928
6487 2 14.5297 6.23904 29.7769
287 1 18.1673 6.22013 28.4928
6289 2 17.2579 7.82149 29.7585
110 1 20.8957 7.80159 28.4741
6288 2 19.9859 6.23904 29.7769
1132 1 1.79917 9.38249 28.4546
7022 2 0.88958 10.9847 29.7193
805 1 4.52773 10.9628 28.4343
7021 2 3.61745 9.40342 29.7392
804 1 7.25541 9.38249 28.4546
6699 2 6.34582 10.9847 29.7193
6739 2 9.07369 9.40342 29.7392
490 1 9.98397 10.9628 28.4343
6461 2 11.8021 10.9847 29.7193
269 1 15.4402 10.9628 28.4343
523 1 12.7116 9.38249 28.4546
6460 2 14.5299 9.40342 29.7392
268 1 18.1679 9.38249 28.4546
6275 2 17.2583 10.9847 29.7193
103 1 20.8964 10.9628 28.4343
6291 2 19.9862 9.40342 29.7392
1084 1 1.80019 12.5423 28.4133
6976 2 0.890448 14.1453 29.677
760 1 4.52905 14.121 28.3914
7024 2 3.61806 12.5654 29.6985
807 1 7.25643 12.5423 28.4133
6697 2 9.0743 12.5654 29.6985
6698 2 6.34669 14.1453 29.677
489 1 9.98529 14.121 28.3914
6434 2 11.8029 14.1453 29.677
247 1 15.4415 14.121 28.3914
488 1 12.7127 12.5423 28.4133
6463 2 14.5305 12.5654 29.6985
271 1 18.1689 12.5423 28.4133
6274 2 17.2592 14.1453 29.677
102 1 20.8978 14.121 28.3914
6273 2 19.9868 12.5654 29.6985
1085 1 1.80188 15.6988 28.3686
6975 2 0.892032 17.3022 29.6314
759 1 4.53119 17.2755 28.345
6974 2 3.61925 15.7242 29.6546
758 1 7.25812 15.6988 28.3686
6659 2 6.34827 17.3022 29.6314
6700 2 9.07549 15.7242 29.6546
454 1 9.98742 17.2755 28.345
6433 2 11.8045 17.3022 29.6314
246 1 15.4437 17.2755 28.345
491 1 12.7144 15.6988 28.3686
6432 2 14.5317 15.7242 29.6546
245 1 18.1706 15.6988 28.3686
6259 2 17.2607 17.3022 29.6314
91 1 20.8999 17.2755 28.345
6276 2 19.988 15.7242 29.6546
1044 1 1.80454 18.851 28.3204
6936 2 0.89469 20.4545 29.5821
715 1 4.53448 20.4252 28.2948
6977 2 3.62132 18.879 29.6072
761 1 7.26078 18.851 28.3204
6657 2 9.07756 18.879 29.6072
6658 2 6.35093 20.4545 29.5821
453 1 9.99072 20.4252 28.2948
6406 2 11.8072 20.4545 29.5821
223 1 15.447 20.4252 28.2948
452 1 12.717 18.851 28.3204
6435 2 14.5338 18.879 29.6072
248 1 18.1733 18.851 28.3204
6258 2 17.2634 20.4545 29.5821
90 1 20.9032 20.4252 28.2948
6257 2 19.99 18.879 29.6072
1045 1 1.80858 21.9979 28.2681
6935 2 0.898896 23.6007 29.5285
6934 2 3.62468 22.0285 29.5559
714 1 4.53936 23.5689 28.2402
713 1 7.26482 21.9979 28.2681
6660 2 9.08092 22.0285 29.5559
6620 2 6.35513 23.6007 29.5285
418 1 9.9956 23.5689 28.2402
6405 2 11.8114 23.6007 29.5285
455 1 12.7211 21.9979 28.2681
6404 2 14.5372 22.0285 29.5559
222 1 15.4518 23.5689 28.2402
221 1 18.1773 21.9979 28.2681
6243 2 17.2676 23.6007 29.5285
6260 2 19.9934 22.0285 29.5559
79 1 20.9081 23.5689 28.2402
1012 1 1.8144 25.138 28.211
6937 2 3.62987 25.1711 29.4997
716 1 7.27064 25.138 28.211
6618 2 9.08611 25.1711 29.4997
416 1 12.7269 25.138 28.211
6407 2 14.5423 25.1711 29.4997
224 1 18.1831 25.138 28.211
6241 2 19.9986 25.1711 29.4997
1013 1 1.82228 28.2703 28.1481
6904 2 0.905196 26.7394 29.4694
677 1 4.54621 26.7052 28.1803
6902 2 3.63739 28.3055 29.4375
675 1 7.27852 28.2703 28.1481
6619 2 6.36143 26.7394 29.4694
6621 2 9.09363 28.3055 29.4375
417 1 10.0024 26.7052 28.1803
6378 2 11.8177 26.7394 29.4694
199 1 15.4587 26.7052 28.1803
419 1 12.7348 28.2703 28.1481
6376 2 14.5499 28.3055 29.4375
197 1 18.191 28.2703 28.1481
6242 2 17.2739 26.7394 29.4694
78 1 20.9149 26.7052 28.1803
6244 2 20.0061 28.3055 29.4375
988 1 1.83196 31.3949 28.0794
6903 2 0.913994 29.8693 29.4039
676 1 4.55506 29.8334 28.1144
6905 2 3.64742 31.4308 29.3687
678 1 7.2882 31.3949 28.0794
6586 2 9.10366 31.4308 29.3687
6588 2 6.37023 29.8693 29.4039
383 1 10.0113 29.8334 28.1144
6377 2 11.8265 29.8693 29.4039
198 1 15.4675 29.8334 28.1144
381 1 12.7444 31.3949 28.0794
6379 2 14.5599 31.4308 29.3687
200 1 18.2007 31.3949 28.0794
6227 2 17.2827 29.8693 29.4039
67 1 20.9238 29.8334 28.1144
6225 2 20.0161 31.4308 29.3687
989 1 1.84272 34.5149 28.0076
6880 2 0.925107 32.9904 29.3323
647 1 4.56535 32.9551 28.0434
6878 2 3.65942 34.5485 29.2955
645 1 7.29896 34.5149 28.0076
6587 2 6.38135 32.9904 29.3323
6589 2 9.11566 34.5485 29.2955
382 1 10.0216 32.9551 28.0434
6351 2 11.8376 32.9904 29.3323
175 1 15.4778 32.9551 28.0434
384 1 12.7552 34.5149 28.0076
6349 2 14.5719 34.5485 29.2955
173 1 18.2114 34.5149 28.0076
6226 2 17.2938 32.9904 29.3323
66 1 20.9341 32.9551 28.0434
6228 2 20.0281 34.5485 29.2955
972 1 1.85528 37.6359 27.9425
6879 2 0.937961 36.106 29.2601
646 1 4.57679 36.075 27.9734
6881 2 3.67354 37.6636 29.2281
648 1 7.31152 37.6359 27.9425
6562 2 9.12978 37.6636 29.2281
6564 2 6.3942 36.106 29.2601
355 1 10.033 36.075 27.9734
6350 2 11.8504 36.106 29.2601
174 1 15.4893 36.075 27.9734
353 1 12.7678 37.6359 27.9425
6352 2 14.586 37.6636 29.2281
176 1 18.224 37.6359 27.9425
6211 2 17.3067 36.106 29.2601
55 1 20.9455 36.075 27.9734
6209 2 20.0423 37.6636 29.2281
973 1 1.87121 40.7588 27.8954
6864 2 0.953885 39.2214 29.201
625 1 4.59093 39.1973 27.916
6862 2 3.69168 40.7791 29.1801
623 1 7.32745 40.7588 27.8954
6563 2 6.41012 39.2214 29.201
6565 2 9.14791 40.7791 29.1801
354 1 10.0472 39.1973 27.916
6331 2 11.8664 39.2214 29.201
152 1 15.5034 39.1973 27.916
356 1 12.7837 40.7588 27.8954
6329 2 14.6042 40.7791 29.1801
150 1 18.2399 40.7588 27.8954
6210 2 17.3226 39.2214 29.201
54 1 20.9596 39.1973 27.916
6212 2 20.0604 40.7791 29.1801
964 1 1.88873 43.8787 27.8711
6863 2 0.973854 42.3359 29.1659
624 1 4.60833 42.3195 27.8804
6865 2 3.71202 43.891 29.1575
626 1 7.34497 43.8787 27.8711
6546 2 9.16826 43.891 29.1575
6548 2 6.43009 42.3359 29.1659
335 1 10.0646 42.3195 27.8804
6330 2 11.8863 42.3359 29.1659
151 1 15.5208 42.3195 27.8804
333 1 12.8012 43.8787 27.8711
6332 2 14.6245 43.891 29.1575
153 1 18.2574 43.8787 27.8711
6196 2 17.3426 42.3359 29.1659
43 1 20.977 42.3195 27.8804
6194 2 20.0807 43.891 29.1575
6856 2 0.992132 45.4441 29.154
965 1 1.90067 46.9911 27.8639
611 1 4.62402 45.436 27.8657
6854 2 3.72568 46.9953 29.1536
6547 2 6.44837 45.4441 29.154
609 1 7.35691 46.9912 27.8639
6549 2 9.18192 46.9953 29.1536
334 1 10.0803 45.436 27.8657
6319 2 11.9046 45.4441 29.154
136 1 15.5365 45.436 27.8657
336 1 12.8132 46.9911 27.8639
6317 2 14.6382 46.9953 29.1536
6195 2 17.3609 45.4441 29.154
134 1 18.2694 46.9911 27.8639
42 1 20.9927 45.436 27.8657
6197 2 20.0944 46.9953 29.1536
6855 2 0.999003 48.546 29.1536
3226 1 1.89965 50.0992 27.8642
610 1 4.6302 48.545 27.8637
9288 2 3.72456 50.0968 29.1536
6537 2 6.45524 48.546 29.1536
2928 1 7.35589 50.0992 27.8642
8945 2 9.1808 50.0968 29.1536
320 1 10.0864 48.545 27.8637
6318 2 11.9115 48.546 29.1536
135 1 15.5427 48.545 27.8637
2593 1 12.8121 50.0992 27.8642
8680 2 14.637 50.0968 29.1536
6185 2 17.3677 48.546 29.1536
2344 1 18.2684 50.0992 27.8642
31 1 20.9989 48.545 27.8637
8473 2 20.0933 50.0969 29.1536
842 1 2.70749 1.50564 31.1142
6734 2 4.52689 1.52205 32.397
518 1 8.16372 1.50564 31.1142
6482 2 9.98313 1.52205 32.397
282 1 13.62 1.50564 31.1142
6286 2 15.4394 1.52205 32.397
109 1 19.0762 1.50564 31.1142
6176 2 20.8956 1.52205 32.397
802 1 2.70714 4.67453 31.0816
7067 2 1.79849 3.10761 32.3812
843 1 5.43543 3.09025 31.0983
6733 2 4.52634 4.69287 32.3647
517 1 8.16338 4.67453 31.0816
6732 2 7.25473 3.10761 32.3812
516 1 10.8917 3.09025 31.0983
6458 2 9.98257 4.69287 32.3647
266 1 13.6196 4.67453 31.0816
6285 2 15.4388 4.69287 32.3647
6483 2 12.711 3.10761 32.3812
283 1 16.3479 3.09025 31.0983
6284 2 18.1672 3.10761 32.3812
1129 1 21.8041 3.09025 31.0983
108 1 19.0759 4.67453 31.0816
6175 2 20.8951 4.69287 32.3647
801 1 2.7069 7.84189 31.0461
7019 2 1.79795 6.27779 32.3474
800 1 5.43512 6.25842 31.0642
6695 2 4.52582 7.86233 32.3295
486 1 8.16313 7.84189 31.0461
6735 2 7.25419 6.27779 32.3474
519 1 10.8914 6.25842 31.0642
6457 2 9.98206 7.86233 32.3295
265 1 13.6194 7.84189 31.0461
6271 2 15.4383 7.86233 32.3295
6456 2 12.7104 6.27779 32.3474
264 1 16.3476 6.25842 31.0642
6287 2 18.1667 6.27779 32.3474
1130 1 21.8038 6.25842 31.0642
101 1 19.0756 7.84189 31.0461
6174 2 20.8945 7.86233 32.3295
756 1 2.70686 11.0073 31.0076
7020 2 1.79749 9.44643 32.3108
803 1 5.43496 9.42487 31.0272
6694 2 4.52545 11.03 32.2914
485 1 8.16309 11.0073 31.0076
6693 2 7.25373 9.44643 32.3108
484 1 10.8912 9.42487 31.0272
6430 2 9.98169 11.03 32.2914
243 1 13.6193 11.0073 31.0076
6270 2 15.4379 11.03 32.2914
6459 2 12.71 9.44643 32.3108
267 1 16.3474 9.42487 31.0272
6269 2 18.1662 9.44643 32.3108
1082 1 21.8037 9.42487 31.0272
100 1 19.0756 11.0073 31.0076
6171 2 20.8942 11.03 32.2914
755 1 2.7072 14.1701 30.9663
6972 2 1.79724 12.6131 32.2714
754 1 5.43508 12.5891 30.9873
6655 2 4.52536 14.1954 32.2506
450 1 8.16343 14.1701 30.9663
6696 2 7.25348 12.6131 32.2714
487 1 10.8913 12.5891 30.9873
6429 2 9.9816 14.1954 32.2506
242 1 13.6197 14.1701 30.9663
6255 2 15.4378 14.1954 32.2506
6428 2 12.7097 12.6131 32.2714
241 1 16.3476 12.5891 30.9873
6272 2 18.166 12.6131 32.2714
1083 1 21.8038 12.5891 30.9873
89 1 19.0759 14.1701 30.9663
6170 2 20.8941 14.1954 32.2506
711 1 2.70818 17.3296 30.9219
6973 2 1.79738 15.777 32.2291
757 1 5.4357 15.7503 30.9445
6654 2 4.52579 17.3578 32.2068
449 1 8.16441 17.3296 30.9219
6653 2 7.25361 15.777 32.2291
448 1 10.8919 15.7503 30.9445
6402 2 9.98203 17.3578 32.2068
219 1 13.6207 17.3296 30.9219
6254 2 15.4383 17.3578 32.2068
6431 2 12.7099 15.777 32.2291
244 1 16.3482 15.7503 30.9445
6253 2 18.1661 15.777 32.2291
1042 1 21.8044 15.7503 30.9445
88 1 19.0769 17.3296 30.9219
6167 2 20.8945 17.3578 32.2068
710 1 2.71018 20.4844 30.8741
6932 2 1.79818 18.9374 32.1837
709 1 5.43714 18.9077 30.8984
6616 2 4.52707 20.5159 32.1597
414 1 8.16642 20.4844 30.8741
6656 2 7.25442 18.9374 32.1837
451 1 10.8934 18.9077 30.8984
6401 2 9.98331 20.5159 32.1597
218 1 13.6227 20.4844 30.8741
6239 2 15.4395 20.5159 32.1597
6400 2 12.7107 18.9374 32.1837
217 1 16.3496 18.9077 30.8984
6256 2 18.1669 18.9374 32.1837
1043 1 21.8059 18.9077 30.8984
77 1 19.0789 20.4844 30.8741
6166 2 20.8958 20.5159 32.1597
6933 2 1.80007 22.0929 32.1346
673 1 2.71379 23.6332 30.8221
712 1 5.43986 22.0597 30.8487
6614 2 7.25631 22.0929 32.1346
413 1 8.17002 23.6332 30.8221
412 1 10.8961 22.0597 30.8487
6403 2 12.7125 22.0929 32.1346
195 1 13.6263 23.6332 30.8221
220 1 16.3523 22.0597 30.8487
6237 2 18.1688 22.0929 32.1346
1010 1 21.8086 22.0597 30.8487
76 1 19.0825 23.6332 30.8221
6900 2 1.80371 25.2415 32.0809
6615 2 4.52974 23.6682 32.1085
671 1 5.44453 25.2045 30.7942
6617 2 7.25994 25.2415 32.0809
6374 2 9.98598 23.6682 32.1085
415 1 10.9008 25.2045 30.7942
6238 2 15.4422 23.6682 32.1085
6372 2 12.7162 25.2415 32.0809
193 1 16.357 25.2045 30.7942
6240 2 18.1724 25.2415 32.0809
6163 2 20.8985 23.6682 32.1085
1011 1 21.8132 25.2045 30.7942
672 1 2.71971 26.7735 30.7648
6901 2 1.80996 28.3806 32.0208
674 1 5.4519 28.3398 30.7335
6584 2 4.53456 26.8124 32.0518
379 1 8.17595 26.7735 30.7648
6582 2 7.2662 28.3806 32.0208
377 1 10.9081 28.3398 30.7335
6373 2 9.9908 26.8124 32.0518
194 1 13.6322 26.7735 30.7648
6223 2 15.447 26.8124 32.0518
6375 2 12.7224 28.3806 32.0208
196 1 16.3644 28.3398 30.7335
6221 2 18.1787 28.3806 32.0208
986 1 21.8206 28.3398 30.7335
65 1 19.0884 26.7735 30.7648
6162 2 20.9033 26.8124 32.0518
643 1 2.72864 29.903 30.7003
6876 2 1.81978 31.5071 31.9517
641 1 5.46234 31.463 30.6648
6583 2 4.5425 29.9456 31.9875
378 1 8.18487 29.903 30.7003
6585 2 7.27602 31.5071 31.9517
380 1 10.9186 31.463 30.6648
6347 2 9.99874 29.9456 31.9875
171 1 13.6411 29.903 30.7003
6222 2 15.455 29.9456 31.9875
6345 2 12.7323 31.5071 31.9517
169 1 16.3748 31.463 30.6648
6224 2 18.1885 31.5071 31.9517
987 1 21.8311 31.463 30.6648
64 1 19.0974 29.903 30.7003
6159 2 20.9112 29.9456 31.9875
642 1 2.74041 33.02 30.627
6877 2 1.83339 34.6192 31.8723
644 1 5.47503 34.5746 30.5874
6560 2 4.55424 33.0649 31.9132
351 1 8.19665 33.02 30.627
6558 2 7.28963 34.6192 31.8723
349 1 10.9313 34.5746 30.5874
6346 2 10.0105 33.0649 31.9132
170 1 13.6529 33.02 30.627
6207 2 15.4667 33.0649 31.9132
6348 2 12.7459 34.6192 31.8723
172 1 16.3875 34.5746 30.5874
6205 2 18.2021 34.6192 31.8723
970 1 21.8437 34.5746 30.5874
53 1 19.1091 33.02 30.627
6158 2 20.923 33.0649 31.9132
621 1 2.7538 36.1285 30.5474
6860 2 1.85037 37.7208 31.7912
619 1 5.48993 37.6837 30.5109
6559 2 4.56939 36.1706 31.8304
350 1 8.21004 36.1285 30.5474
6561 2 7.3066 37.7208 31.7912
352 1 10.9462 37.6837 30.5109
6327 2 10.0256 36.1706 31.8304
148 1 13.6663 36.1285 30.5474
6206 2 15.4819 36.1706 31.8304
6325 2 12.7629 37.7208 31.7912
146 1 16.4024 37.6837 30.5109
6208 2 18.2191 37.7208 31.7912
971 1 21.8586 37.6837 30.5109
52 1 19.1225 36.1285 30.5474
6155 2 20.9381 36.1706 31.8304
620 1 2.77209 39.2402 30.4801
6861 2 1.87448 40.8213 31.7369
962 1 0.0555929 40.7969 30.4576
622 1 5.51183 40.7969 30.4576
6544 2 4.58936 39.2713 31.7597
331 1 8.22833 39.2402 30.4801
6542 2 7.33072 40.8213 31.7368
329 1 10.9681 40.7969 30.4576
6326 2 10.0456 39.2714 31.7597
147 1 13.6846 39.2402 30.4801
6192 2 15.5018 39.2714 31.7597
6328 2 12.7869 40.8213 31.7369
149 1 16.4243 40.7969 30.4576
6190 2 18.2432 40.8214 31.7369
41 1 19.1408 39.2402 30.4801
6154 2 20.9581 39.2713 31.7596
607 1 2.79754 42.3528 30.4445
6852 2 1.90521 43.9168 31.7227
963 1 0.0816416 43.9064 30.4389
605 1 5.53788 43.9064 30.4389
6543 2 4.61802 42.3705 31.7254
330 1 8.25378 42.3528 30.4445
6545 2 7.36145 43.9168 31.7227
332 1 10.9941 43.9064 30.4389
6315 2 10.0743 42.3704 31.7254
132 1 13.71 42.3528 30.4445
6191 2 15.5305 42.3704 31.7254
6313 2 12.8177 43.9168 31.7227
130 1 16.4504 43.9064 30.4389
6193 2 18.2739 43.9168 31.7227
40 1 19.1663 42.3528 30.4445
6151 2 20.9867 42.3705 31.7254
606 1 2.82193 45.4553 30.4396
961 1 0.101225 47.0008 30.442
6853 2 1.92583 47.0037 31.732
6536 2 4.64624 45.4601 31.7283
608 1 5.55746 47.0008 30.442
595 1 3.76279 47.0077 33.0307
319 1 8.27817 45.4553 30.4396
6534 2 7.38208 47.0037 31.732
316 1 9.21903 47.0077 33.0307
6314 2 10.1025 45.4601 31.7283
317 1 11.0137 47.0008 30.442
131 1 13.7344 45.4553 30.4396
6184 2 15.5587 45.4601 31.7283
6316 2 12.8383 47.0037 31.732
118 1 14.6753 47.0077 33.0307
133 1 16.4699 47.0008 30.442
6182 2 18.2946 47.0037 31.732
30 1 19.1906 45.4553 30.4396
6150 2 21.015 45.4601 31.7283
28 1 20.1315 47.0077 33.0307
598 1 2.83099 48.5467 30.4423
596 1 1.0368 48.5485 33.0314
9242 2 1.92422 50.0915 31.7309
3225 1 0.0996675 50.0926 30.4414
6535 2 4.65606 48.5476 31.7327
2889 1 5.55591 50.0926 30.4414
2888 1 3.76146 50.0891 33.0303
318 1 8.28723 48.5467 30.4423
308 1 6.49304 48.5485 33.0314
8944 2 7.38046 50.0915 31.7309
2561 1 9.2177 50.0891 33.0303
6308 2 10.1123 48.5476 31.7327
119 1 11.9493 48.5485 33.0314
2592 1 11.0121 50.0926 30.4414
121 1 13.7435 48.5467 30.4423
6183 2 15.5685 48.5476 31.7327
8657 2 12.8367 50.0915 31.7309
2328 1 14.6739 50.0891 33.0303
20 1 17.4055 48.5485 33.0314
2329 1 16.4684 50.0926 30.4414
8472 2 18.2929 50.0915 31.7309
29 1 19.1997 48.5467 30.4423
6147 2 21.0248 48.5476 31.7327
2153 1 20.1302 50.0891 33.0303
798 1 0.889387 1.53884 33.6828
6730 2 2.70924 1.5555 34.9648
514 1 6.34563 1.53884 33.6828
6454 2 8.16548 1.5555 34.9648
262 1 11.8019 1.53884 33.6828
6282 2 13.6217 1.5555 34.9648
106 1 17.2581 1.53884 33.6828
6173 2 19.078 1.5555 34.9648
797 1 0.888536 4.71164 33.6509
6691 2 2.70823 4.73031 34.933
796 1 3.61709 3.12537 33.6672
6731 2 5.43687 3.14301 34.9492
482 1 6.34477 4.71164 33.6509
515 1 9.07333 3.12537 33.6672
6453 2 8.16447 4.73031 34.933
261 1 11.801 4.71164 33.6509
6452 2 10.8931 3.14301 34.9492
260 1 14.5296 3.12537 33.6672
6267 2 13.6207 4.73031 34.933
98 1 17.2573 4.71164 33.6509
6283 2 16.3493 3.14301 34.9492
7017 2 21.8056 3.14301 34.9492
107 1 19.9858 3.12537 33.6672
6172 2 19.0769 4.73031 34.933
752 1 0.887659 7.88327 33.6162
6690 2 2.70716 7.90413 34.8985
799 1 3.61622 6.29762 33.6339
6689 2 5.43582 6.31736 34.9161
480 1 9.07245 6.29762 33.6339
481 1 6.3439 7.88327 33.6162
6426 2 8.16339 7.90413 34.8985
239 1 11.8001 7.88327 33.6162
6455 2 10.8921 6.31736 34.9161
263 1 14.5287 6.29762 33.6339
6266 2 13.6196 7.90413 34.8985
97 1 17.2564 7.88327 33.6162
6265 2 16.3483 6.31736 34.9161
7018 2 21.8045 6.31736 34.9161
96 1 19.9849 6.29762 33.6339
6169 2 19.0759 7.90413 34.8985
751 1 0.886832 11.0534 33.5788
6651 2 2.70608 11.0767 34.8613
750 1 3.61535 9.46855 33.5978
6692 2 5.43473 9.4906 34.8802
446 1 6.34307 11.0534 33.5788
483 1 9.07159 9.46855 33.5978
6425 2 8.16232 11.0767 34.8613
238 1 11.7993 11.0534 33.5788
6424 2 10.891 9.4906 34.8802
237 1 14.5278 9.46855 33.5978
6251 2 13.6186 11.0767 34.8613
86 1 17.2555 11.0534 33.5788
6268 2 16.3472 9.4906 34.8802
6970 2 21.8034 9.4906 34.8802
99 1 19.9841 9.46855 33.5978
6168 2 19.0748 11.0767 34.8613
707 1 0.88618 14.2215 33.5389
6650 2 2.70509 14.2476 34.8216
753 1 3.61459 12.6377 33.5592
6649 2 5.43368 12.6624 34.8418
444 1 9.07083 12.6377 33.5592
445 1 6.34242 14.2215 33.5389
6398 2 8.16133 14.2476 34.8216
215 1 11.7987 14.2215 33.5389
6427 2 10.8899 12.6624 34.8418
240 1 14.5271 12.6377 33.5592
6250 2 13.6176 14.2476 34.8216
85 1 17.2549 14.2215 33.5389
6249 2 16.3462 12.6624 34.8418
6971 2 21.8024 12.6624 34.8418
84 1 19.9833 12.6377 33.5592
6165 2 19.0738 14.2476 34.8216
706 1 0.885906 17.387 33.4962
6612 2 2.70437 17.4163 34.7792
705 1 3.6141 15.8047 33.5179
6652 2 5.43281 15.8323 34.8007
410 1 6.34214 17.387 33.4962
447 1 9.07034 15.8047 33.5179
6397 2 8.16061 17.4163 34.7792
214 1 11.7984 17.387 33.4962
6396 2 10.889 15.8323 34.8007
213 1 14.5266 15.8047 33.5179
6235 2 13.6168 17.4163 34.7792
74 1 17.2546 17.387 33.4962
6252 2 16.3453 15.8323 34.8007
6930 2 21.8015 15.8323 34.8007
87 1 19.9828 15.8047 33.5179
6164 2 19.0731 17.4163 34.7792
669 1 0.886337 20.5488 33.4508
6611 2 2.70416 20.5819 34.734
708 1 3.61412 18.9685 33.4739
6610 2 5.4323 18.9996 34.757
408 1 9.07036 18.9685 33.4739
409 1 6.34258 20.5488 33.4508
6370 2 8.1604 20.5819 34.734
191 1 11.7988 20.5488 33.4508
6399 2 10.8885 18.9996 34.757
216 1 14.5266 18.9685 33.4739
6234 2 13.6166 20.5819 34.734
73 1 17.2551 20.5488 33.4508
6233 2 16.3448 18.9996 34.757
6931 2 21.801 18.9996 34.757
72 1 19.9828 18.9685 33.4739
6161 2 19.0729 20.5819 34.734
667 1 3.6151 22.1279 33.4268
6613 2 5.4325 22.1631 34.7101
411 1 9.07134 22.1279 33.4268
6368 2 10.8887 22.1631 34.7101
189 1 14.5276 22.1279 33.4268
6236 2 16.345 22.1631 34.7101
6898 2 21.8012 22.1631 34.7101
75 1 19.9838 22.1279 33.4268
668 1 0.88803 23.7054 33.4019
6580 2 2.70491 23.7429 34.6852
670 1 3.61774 25.281 33.3758
6578 2 5.43398 25.3209 34.6591
375 1 6.34427 23.7054 33.4019
6369 2 8.16115 23.7429 34.6852
373 1 9.07397 25.281 33.3758
190 1 11.8005 23.7054 33.4019
6371 2 10.8902 25.3209 34.6591
6219 2 13.6174 23.7429 34.6852
192 1 14.5302 25.281 33.3758
6217 2 16.3465 25.3209 34.6591
62 1 17.2567 23.7054 33.4019
60 1 19.9865 25.281 33.3758
6899 2 21.8027 25.3209 34.6591
6160 2 19.0736 23.7429 34.6852
6579 2 2.70738 26.8967 34.6315
639 1 0.891898 26.8543 33.3485
6581 2 5.43774 28.4696 34.602
637 1 3.62318 28.4246 33.3195
6343 2 8.16361 26.8967 34.6315
376 1 9.07941 28.4246 33.3195
374 1 6.34814 26.8543 33.3485
6341 2 10.894 28.4696 34.602
167 1 11.8044 26.8543 33.3485
6218 2 13.6199 26.8967 34.6315
165 1 14.5357 28.4246 33.3195
6220 2 16.3502 28.4696 34.602
61 1 17.2606 26.8543 33.3485
6157 2 19.0761 26.8967 34.6315
63 1 19.9919 28.4246 33.3195
6874 2 21.8065 28.4696 34.602
6556 2 2.71283 30.0391 34.5701
638 1 0.89927 29.9913 33.2886
6554 2 5.44533 31.6041 34.535
640 1 3.63279 31.5536 33.2553
6342 2 8.16906 30.0391 34.5701
347 1 6.35551 29.9913 33.2886
345 1 9.08903 31.5536 33.2553
6344 2 10.9016 31.6041 34.535
166 1 11.8117 29.9913 33.2886
6203 2 13.6253 30.0391 34.5701
168 1 14.5453 31.5536 33.2553
6201 2 16.3578 31.6041 34.535
50 1 17.268 29.9913 33.2886
6156 2 19.0815 30.0391 34.5701
48 1 20.0015 31.5536 33.2553
6875 2 21.814 31.6041 34.535
6555 2 2.72289 33.1637 34.4961
617 1 0.911199 33.1105 33.2188
6557 2 5.45815 34.717 34.4523
615 1 3.64688 34.6617 33.179
6323 2 8.17913 33.1637 34.4961
348 1 9.10312 34.6617 33.179
346 1 6.36744 33.1105 33.2188
6321 2 10.9144 34.717 34.4523
144 1 11.8237 33.1105 33.2188
6202 2 13.6354 33.1637 34.4961
142 1 14.5594 34.6617 33.179
6204 2 16.3706 34.717 34.4523
49 1 17.2799 33.1105 33.2188
6153 2 19.0916 33.1637 34.4961
51 1 20.0156 34.6617 33.179
6858 2 21.8269 34.717 34.4523
6540 2 2.73903 36.2629 34.4037
616 1 0.926426 36.2069 33.1349
599 1 1.81859 37.8779 35.7033
6538 2 5.47692 37.8022 34.3516
618 1 3.66184 37.7506 33.0893
322 1 4.54351 36.3478 35.7476
6322 2 8.19526 36.2629 34.4037
327 1 6.38266 36.2069 33.1349
325 1 9.11807 37.7506 33.0893
324 1 7.27483 37.8779 35.7033
6324 2 10.9331 37.8022 34.3516
143 1 11.8389 36.2069 33.1349
124 1 9.99974 36.3479 35.7476
6188 2 13.6515 36.2629 34.4037
145 1 14.5743 37.7506 33.0893
33 1 15.456 36.3478 35.7476
122 1 12.7311 37.8779 35.7033
6186 2 16.3894 37.8022 34.3516
38 1 17.2951 36.2069 33.1349
35 1 18.1873 37.8779 35.7033
6152 2 19.1077 36.2628 34.4037
36 1 20.0306 37.7506 33.0893
6859 2 21.8456 37.8022 34.3516
5 1 20.9122 36.3478 35.7476
6539 2 2.76064 39.3372 34.3092
603 1 0.946577 39.2978 33.0502
600 1 1.8455 40.9353 35.6145
6541 2 5.50962 40.8744 34.2845
601 1 3.69137 40.8472 33.0263
311 1 4.55394 39.4003 35.646
6311 2 8.2169 39.3371 34.3091
328 1 9.14762 40.8472 33.0263
326 1 6.40282 39.2978 33.0502
309 1 7.30173 40.9353 35.6145
6309 2 10.9659 40.8743 34.2844
128 1 11.859 39.2978 33.0502
123 1 10.0102 39.4003 35.646
6187 2 13.6731 39.3372 34.3091
126 1 14.6039 40.8472 33.0263
23 1 15.4664 39.4003 35.646
125 1 12.758 40.9353 35.6145
6189 2 16.4222 40.8743 34.2844
37 1 17.3153 39.2978 33.0502
21 1 18.2142 40.9353 35.6145
6149 2 19.1293 39.3372 34.3092
39 1 20.0601 40.8472 33.0263
6850 2 21.8783 40.8744 34.2845
4 1 20.9227 39.4003 35.646
6532 2 2.80221 42.4061 34.2788
602 1 0.984029 42.3964 33.0124
6851 2 0.10232 43.9333 34.2985
593 1 1.93805 43.9257 35.6476
6530 2 5.55859 43.9333 34.2985
604 1 3.73577 43.9348 33.0224
310 1 4.64034 42.4298 35.6254
6310 2 8.25836 42.4062 34.279
315 1 6.44026 42.3964 33.0124
313 1 9.192 43.9349 33.0224
312 1 7.39431 43.9256 35.6476
6312 2 11.0147 43.9335 34.2987
127 1 11.8965 42.3964 33.0123
116 1 10.0965 42.43 35.6256
6180 2 13.7146 42.4062 34.2789
129 1 14.6482 43.9349 33.0224
22 1 15.5527 42.43 35.6256
114 1 12.8505 43.9257 35.6476
6178 2 16.471 43.9335 34.2986
27 1 17.3528 42.3963 33.0123
24 1 18.3068 43.9257 35.6476
6148 2 19.1709 42.4061 34.2788
25 1 20.1045 43.9348 33.0224
3 1 21.0091 42.4298 35.6254
6531 2 2.85079 45.4693 34.3124
597 1 1.02717 45.4676 33.0301
594 1 1.96521 47.0088 35.6238
6849 2 0.13638 47.009 34.3187
307 1 4.68367 45.4732 35.6266
6533 2 5.59263 47.009 34.3187
6307 2 8.30705 45.4692 34.3123
314 1 6.48342 45.4676 33.0301
305 1 7.42144 47.0088 35.6237
120 1 11.9397 45.4676 33.0301
115 1 10.1399 45.4732 35.6265
6305 2 11.0488 47.009 34.3187
6179 2 13.7633 45.4692 34.3123
19 1 15.5962 45.4732 35.6265
117 1 12.8777 47.0088 35.6237
26 1 17.3959 45.4676 33.0301
6181 2 16.5051 47.009 34.3187
17 1 18.3339 47.0088 35.6238
6146 2 19.2195 45.4693 34.3124
2 1 21.0524 45.4732 35.6266
6529 2 2.86861 48.5495 34.3212
2842 1 1.96507 50.09 35.6253
9241 2 0.133764 50.0898 34.317
306 1 4.69439 48.5515 35.6277
8905 2 5.59 50.0898 34.317
6306 2 8.32483 48.5495 34.3212
2560 1 7.42132 50.09 35.6253
113 1 10.1506 48.5515 35.6277
8656 2 11.0463 50.0898 34.3169
6177 2 13.7811 48.5495 34.3212
18 1 15.6069 48.5515 35.6277
2305 1 12.8776 50.09 35.6252
8457 2 16.5025 50.0898 34.317
2152 1 18.3338 50.09 35.6253
6145 2 19.2373 48.5495 34.3212
1 1 21.0631 48.5515 35.6277
8318 2 0.892457 1.58934 37.5309
8320 2 3.62119 -0.000308021 37.5456
478 1 4.52836 1.57248 36.2498
8286 2 9.07743 -0.000308021 37.5456
8287 2 6.3487 1.58934 37.5309
8254 2 11.8049 1.58934 37.5309
258 1 9.9846 1.57248 36.2498
8256 2 14.5337 -0.000308021 37.5456
94 1 15.4408 1.57248 36.2498
8223 2 17.2612 1.58934 37.5309
8222 2 19.9899 -0.000308021 37.5456
16 1 20.8971 1.57248 36.2498
8317 2 0.891098 4.76828 37.4995
795 1 1.79963 3.16101 36.2344
8316 2 3.61992 3.17888 37.5156
477 1 4.52709 4.74937 36.2184
8284 2 6.34734 4.76828 37.4995
8288 2 9.07616 3.17888 37.5156
476 1 7.25586 3.16101 36.2344
8253 2 11.8036 4.76828 37.4995
235 1 9.98333 4.74937 36.2184
8252 2 14.5324 3.17888 37.5156
93 1 15.4396 4.74937 36.2184
259 1 12.7121 3.16101 36.2344
8220 2 17.2598 4.76828 37.4995
92 1 18.1683 3.16101 36.2344
8224 2 19.9886 3.17888 37.5156
15 1 20.8958 4.74937 36.2184
8314 2 0.889586 7.94666 37.4653
748 1 1.79829 6.33754 36.2016
8319 2 3.61848 6.35755 37.4827
442 1 4.52569 7.9255 36.1842
8282 2 9.07472 6.35755 37.4827
8283 2 6.34582 7.94666 37.4653
479 1 7.25453 6.33754 36.2016
8250 2 11.8021 7.94666 37.4653
234 1 9.98193 7.9255 36.1842
8255 2 14.531 6.35755 37.4827
82 1 15.4382 7.9255 36.1842
233 1 12.7108 6.33754 36.2016
8219 2 17.2583 7.94666 37.4653
95 1 18.167 6.33754 36.2016
8218 2 19.9872 6.35755 37.4827
14 1 20.8944 7.9255 36.1842
8313 2 0.887952 11.1244 37.4286
749 1 1.79683 9.51323 36.1662
8312 2 3.6169 9.53562 37.4473
441 1 4.5242 11.1007 36.1475
8280 2 6.34419 11.1244 37.4286
8285 2 9.07314 9.53562 37.4473
440 1 7.25307 9.51323 36.1662
8249 2 11.8004 11.1244 37.4286
211 1 9.98043 11.1007 36.1475
8248 2 14.5294 9.53562 37.4473
81 1 15.4367 11.1007 36.1475
236 1 12.7093 9.51323 36.1662
8216 2 17.2567 11.1244 37.4286
80 1 18.1655 9.51323 36.1662
8221 2 19.9856 9.53562 37.4473
13 1 20.8929 11.1007 36.1475
8310 2 0.88625 14.3013 37.3894
703 1 1.79531 12.6879 36.1283
14559 1 2.70454 14.329 38.6747
8315 2 3.61522 12.7129 37.4093
406 1 4.52267 14.2747 36.1085
8278 2 9.07146 12.7129 37.4093
8279 2 6.34249 14.3013 37.3894
443 1 7.25155 12.6879 36.1283
14454 1 8.16077 14.329 38.6747
8246 2 11.7987 14.3013 37.3894
210 1 9.97891 14.2747 36.1085
8251 2 14.5277 12.7129 37.4093
70 1 15.4351 14.2747 36.1085
209 1 12.7078 12.6879 36.1283
14270 1 13.617 14.329 38.6747
8215 2 17.255 14.3013 37.3894
83 1 18.164 12.6879 36.1283
8214 2 19.9839 12.7129 37.4093
12 1 20.8914 14.2747 36.1085
13980 1 19.0733 14.329 38.6747
8309 2 0.884569 17.4771 37.3478
704 1 1.79381 15.8611 36.0881
14548 1 2.70223 17.5089 38.6338
8308 2 3.61352 15.8893 37.3689
405 1 4.52124 17.4471 36.0671
14561 1 5.43152 15.919 38.6545
8276 2 6.34081 17.4771 37.3478
8281 2 9.06976 15.8893 37.3689
404 1 7.25005 15.8611 36.0881
14453 1 8.15847 17.5089 38.6338
8245 2 11.797 17.4771 37.3478
187 1 9.97747 17.4471 36.0671
14452 1 10.8878 15.919 38.6545
8244 2 14.526 15.8893 37.3689
69 1 15.4337 17.4471 36.0671
212 1 12.7063 15.8611 36.0881
14251 1 13.6147 17.5089 38.6338
8212 2 17.2533 17.4771 37.3478
68 1 18.1625 15.8611 36.0881
14272 1 16.344 15.919 38.6545
8217 2 19.9822 15.8893 37.3689
11 1 20.89 17.4471 36.0671
14586 1 21.8002 15.919 38.6545
13979 1 19.0709 17.5089 38.6338
8306 2 0.883057 20.6513 37.3037
665 1 1.79248 19.0326 36.0456
14547 1 2.6998 20.6886 38.5908
8311 2 3.6119 19.0644 37.3261
371 1 4.52008 20.6174 36.0234
14546 1 5.42915 19.0988 38.6126
8274 2 9.06814 19.0644 37.3261
8275 2 6.3393 20.6513 37.3037
407 1 7.24872 19.0326 36.0456
14431 1 8.15604 20.6886 38.5908
8242 2 11.7955 20.6513 37.3037
186 1 9.97631 20.6174 36.0234
14455 1 10.8854 19.0988 38.6126
8247 2 14.5244 19.0644 37.3261
58 1 15.4326 20.6174 36.0234
185 1 12.705 19.0326 36.0456
14250 1 13.6123 20.6886 38.5908
8211 2 17.2518 20.6513 37.3037
71 1 18.1612 19.0326 36.0456
14249 1 16.3416 19.0988 38.6126
8210 2 19.9806 19.0644 37.3261
10 1 20.8888 20.6174 36.0234
14587 1 21.7979 19.0988 38.6126
13958 1 19.0685 20.6886 38.5908
666 1 1.79158 22.2014 36.0007
8304 2 3.61056 22.2375 37.2805
14549 1 5.42668 22.2785 38.5686
8277 2 9.0668 22.2375 37.2805
369 1 7.24782 22.2014 36.0007
14429 1 10.8829 22.2785 38.5686
8240 2 14.523 22.2375 37.2805
188 1 12.7041 22.2014 36.0007
56 1 18.1603 22.2014 36.0007
14252 1 16.3392 22.2785 38.5686
8213 2 19.9793 22.2375 37.2805
14584 1 21.7954 22.2785 38.5686
8305 2 0.881983 23.823 37.2565
635 1 1.79157 25.3665 35.953
14536 1 2.69728 23.8684 38.5458
370 1 4.51954 23.7845 35.9772
8307 2 3.60987 25.4074 37.2313
14534 1 5.42405 25.4585 38.5226
8272 2 6.33822 23.823 37.2565
8270 2 9.06611 25.4074 37.2313
372 1 7.24781 25.3665 35.953
14430 1 8.15352 23.8684 38.5458
8241 2 11.7945 23.823 37.2565
163 1 9.97578 23.7845 35.9772
14432 1 10.8803 25.4585 38.5226
57 1 15.432 23.7845 35.9772
8243 2 14.5223 25.4074 37.2313
161 1 12.704 25.3665 35.953
14223 1 13.6098 23.8684 38.5458
8208 2 17.2507 23.823 37.2565
59 1 18.1603 25.3665 35.953
14221 1 16.3365 25.4585 38.5226
9 1 20.8883 23.7845 35.9772
8206 2 19.9786 25.4074 37.2313
14585 1 21.7928 25.4585 38.5226
13957 1 19.066 23.8684 38.5458
8302 2 0.881859 26.9904 37.2049
636 1 1.79337 28.5255 35.9021
14535 1 2.69441 27.0491 38.4989
8300 2 3.61058 28.5714 37.1767
343 1 4.52028 26.9469 35.928
14537 1 5.42065 28.6405 38.4749
8271 2 6.3381 26.9904 37.2049
8273 2 9.06681 28.5714 37.1767
341 1 7.2496 28.5255 35.9021
14407 1 8.15065 27.0491 38.4989
8238 2 11.7943 26.9904 37.2049
162 1 9.97652 26.9469 35.928
14405 1 10.8769 28.6405 38.4749
8236 2 14.5231 28.5714 37.1767
46 1 15.4328 26.9469 35.928
164 1 12.7058 28.5255 35.9021
14222 1 13.6069 27.0491 38.4989
8207 2 17.2506 26.9904 37.2049
44 1 18.1621 28.5255 35.9021
14224 1 16.3331 28.6405 38.4749
8209 2 19.9793 28.5714 37.1767
8 1 20.889 26.9469 35.928
14582 1 21.7894 28.6405 38.4749
13928 1 19.0631 27.0491 38.4989
8301 2 0.883767 30.1497 37.1462
613 1 1.79858 31.6735 35.8469
14524 1 2.68984 30.2333 38.4507
8303 2 3.61423 31.7239 37.1123
14522 1 5.41366 31.8288 38.4267
342 1 4.52354 30.1014 35.8751
8266 2 9.07047 31.7239 37.1123
8268 2 6.34001 30.1497 37.1462
344 1 7.25482 31.6735 35.8469
14406 1 8.14608 30.2333 38.4507
8237 2 11.7962 30.1497 37.1462
14408 1 10.8699 31.8288 38.4267
140 1 9.97978 30.1014 35.8751
8239 2 14.5267 31.7239 37.1123
45 1 15.436 30.1014 35.8751
138 1 12.7111 31.6735 35.8469
14188 1 13.6023 30.2333 38.4507
8204 2 17.2525 30.1497 37.1462
14186 1 16.3261 31.8288 38.4267
47 1 18.1673 31.6735 35.8469
14583 1 21.7824 31.8288 38.4267
8202 2 19.9829 31.7239 37.1123
7 1 20.8923 30.1014 35.8751
13927 1 19.0586 30.2333 38.4507
8298 2 0.88992 33.2923 37.074
14523 1 2.67856 33.4277 38.4037
614 1 1.80808 34.7989 35.7831
8296 2 3.62315 34.8531 37.0293
14525 1 5.39518 35.035 38.3793
323 1 4.53104 33.2405 35.8167
8267 2 6.34616 33.2923 37.074
8269 2 9.07939 34.8531 37.0293
14383 1 8.1348 33.4277 38.4037
321 1 7.26432 34.7989 35.7831
8234 2 11.8024 33.2923 37.074
14381 1 10.8514 35.035 38.3793
139 1 9.98728 33.2405 35.8167
8232 2 14.5356 34.8531 37.0293
14187 1 13.591 33.4277 38.4037
34 1 15.4435 33.2405 35.8167
141 1 12.7206 34.7989 35.7831
8203 2 17.2586 33.2923 37.074
14189 1 16.3077 35.035 38.3793
32 1 18.1768 34.7989 35.7831
14580 1 21.7639 35.035 38.3793
8205 2 19.9919 34.8531 37.0293
13890 1 19.0473 33.4277 38.4037
6 1 20.8998 33.2405 35.8167
8297 2 0.90283 36.4004 36.9743
14512 1 2.6426 36.647 38.353
8299 2 3.64221 37.9335 36.9105
14510 1 5.26397 38.3376 38.3803
8262 2 9.09846 37.9334 36.9105
8264 2 6.35907 36.4004 36.9743
14382 1 8.09884 36.647 38.353
8233 2 11.8153 36.4005 36.9743
14384 1 10.7202 38.3376 38.3803
8235 2 14.5547 37.9334 36.9105
14152 1 13.5551 36.647 38.353
8200 2 17.2715 36.4004 36.9743
14150 1 16.1764 38.3376 38.3804
8198 2 20.0109 37.9335 36.9105
13889 1 19.0113 36.647 38.353
14581 1 21.6327 38.3376 38.3803
8294 2 0.914889 39.4422 36.8456
14511 1 2.31767 40.1109 38.3936
8292 2 3.64509 40.9356 36.805
14513 1 4.85749 41.8492 38.3413
8263 2 6.37111 39.4422 36.8456
8265 2 9.10131 40.9358 36.8051
14359 1 7.77392 40.1109 38.3936
8230 2 11.8274 39.4421 36.8455
14357 1 10.3137 41.8492 38.3412
8228 2 14.5576 40.9358 36.8051
14151 1 13.2302 40.1109 38.3936
8199 2 17.2836 39.4421 36.8455
14153 1 15.77 41.8492 38.3412
8201 2 20.0138 40.9356 36.805
13845 1 18.6864 40.1109 38.3936
14578 1 21.2262 41.8492 38.3413
8293 2 0.971676 42.4065 36.8707
14500 1 2.17606 43.6749 38.27
8295 2 3.78199 43.9219 36.8719
8260 2 6.42796 42.4065 36.8707
14358 1 7.63209 43.6749 38.2701
8258 2 9.239 43.9206 36.8711
8229 2 11.8841 42.4066 36.8708
14116 1 13.0883 43.6749 38.2701
8231 2 14.6952 43.9206 36.8711
8196 2 17.3403 42.4066 36.8708
13844 1 18.5448 43.6749 38.27
8194 2 20.1507 43.9219 36.8719
8291 2 1.09285 45.459 36.8922
14499 1 2.1795 46.9646 38.2315
14498 1 4.90727 45.3407 38.2346
8289 2 3.83469 47.0033 36.9037
8259 2 6.54882 45.4589 36.8921
14336 1 7.63508 46.9658 38.232
8261 2 9.29126 47.0035 36.9035
8227 2 12.005 45.4589 36.8921
14360 1 10.3636 45.3408 38.2346
14115 1 13.0913 46.9658 38.232
8225 2 14.7475 47.0035 36.9035
8195 2 17.4615 45.459 36.8922
14114 1 15.8198 45.3408 38.2346
14579 1 21.276 45.3407 38.2346
13799 1 18.5482 46.9647 38.2315
8197 2 20.2034 47.0033 36.9037
8290 2 1.10875 48.5525 36.9018
14489 1 2.17479 50.1586 38.24
10496 2 3.82942 50.1027 36.9029
14501 1 4.91031 48.5662 38.2371
10462 2 9.28567 50.1027 36.9029
8257 2 6.56502 48.5524 36.902
14335 1 7.631 50.1586 38.24
8226 2 12.0212 48.5524 36.902
14334 1 10.3666 48.5663 38.2371
10432 2 14.7419 50.1027 36.9029
14081 1 13.0872 50.1586 38.24
8193 2 17.4774 48.5525 36.9018
14117 1 15.8227 48.5663 38.2371
13798 1 18.5435 50.1586 38.24
10398 2 20.1982 50.1027 36.9029
14577 1 21.2789 48.5662 38.2372
14575 1 2.71201 1.60649 38.8152
14567 1 0.896619 1.64078 41.3788
20231 2 1.80544 0.0318919 40.1101
14574 1 5.44083 0.0158468 38.8298
14573 1 3.62551 0.0481597 41.3935
20198 2 4.53284 1.62351 40.0954
14478 1 8.16825 1.60649 38.8152
14473 1 9.08175 0.0481597 41.3935
14474 1 6.35286 1.64078 41.3788
20200 2 7.26167 0.0318919 40.1101
14480 1 10.8971 0.0158468 38.8298
14279 1 11.8091 1.64078 41.3788
20071 2 9.98908 1.62351 40.0954
14287 1 13.6245 1.60649 38.8152
14285 1 14.538 0.0481597 41.3935
19846 2 15.4453 1.62351 40.0954
20070 2 12.7179 0.0318919 40.1101
14286 1 16.3533 0.0158468 38.8298
13997 1 17.2653 1.64078 41.3788
19848 2 18.1742 0.0318919 40.1101
14592 1 21.8095 0.0158468 38.8298
14000 1 19.0807 1.60649 38.8152
13996 1 19.9942 0.0481597 41.3935
19528 2 20.9016 1.62351 40.0954
14571 1 2.71045 4.78756 38.7839
14566 1 0.894893 4.82607 41.3474
20232 2 1.80396 3.21509 40.08
14576 1 5.43937 3.19706 38.7999
14565 1 3.62391 3.23342 41.3634
20197 2 4.53126 4.80664 40.064
14477 1 8.16668 4.78756 38.7839
14466 1 6.35113 4.82607 41.3474
14475 1 9.08014 3.23342 41.3634
20196 2 7.2602 3.21509 40.08
14476 1 10.8956 3.19706 38.7999
14278 1 11.8074 4.82607 41.3474
20067 2 9.9875 4.80664 40.064
14283 1 13.6229 4.78756 38.7839
14277 1 14.5364 3.23342 41.3634
19845 2 15.4437 4.80664 40.064
20072 2 12.7164 3.21509 40.08
14288 1 16.3519 3.19706 38.7999
13991 1 17.2636 4.82607 41.3474
19844 2 18.1727 3.21509 40.08
14590 1 21.8081 3.19706 38.7999
13999 1 19.0792 4.78756 38.7839
13998 1 19.9926 3.23342 41.3634
19527 2 20.9 4.80664 40.064
14570 1 2.70867 7.96834 38.7499
14556 1 0.89292 8.01153 41.3132
20228 2 1.80227 6.39816 40.0472
14569 1 5.4377 6.37799 38.7672
14568 1 3.62206 6.41877 41.3306
20190 2 4.52947 7.98967 40.0298
14470 1 8.16491 7.96834 38.7499
14464 1 9.0783 6.41877 41.3306
14465 1 6.34916 8.01153 41.3132
20199 2 7.25851 6.39816 40.0472
14479 1 10.8939 6.37799 38.7672
14267 1 11.8054 8.01153 41.3132
20066 2 9.98571 7.98967 40.0298
14282 1 13.6211 7.96834 38.7499
14280 1 14.5345 6.41877 41.3306
19838 2 15.4419 7.98967 40.0298
20065 2 12.7147 6.39816 40.0472
14281 1 16.3502 6.37799 38.7672
13990 1 17.2616 8.01153 41.3132
19847 2 18.171 6.39816 40.0472
14591 1 21.8064 6.37799 38.7672
13994 1 19.0774 7.96834 38.7499
13989 1 19.9908 6.41877 41.3306
19526 2 20.8982 7.98967 40.0298
14560 1 2.70669 11.1488 38.7134
14555 1 0.890693 11.1973 41.2764
20229 2 1.80038 9.58116 40.0117
14572 1 5.43583 9.55861 38.732
14554 1 3.61996 9.60437 41.2951
20189 2 4.52748 11.1727 39.993
14469 1 8.16293 11.1488 38.7134
14450 1 6.34693 11.1973 41.2764
14467 1 9.0762 9.60437 41.2951
20188 2 7.25662 9.58116 40.0117
14468 1 10.8921 9.55861 38.732
14266 1 11.8032 11.1973 41.2764
20055 2 9.98372 11.1727 39.993
14271 1 13.6192 11.1488 38.7134
14265 1 14.5324 9.60437 41.2951
19837 2 15.44 11.1727 39.993
20068 2 12.7129 9.58116 40.0117
14284 1 16.3483 9.55861 38.732
13977 1 17.2594 11.1973 41.2764
19836 2 18.1691 9.58116 40.0117
14588 1 21.8045 9.55861 38.732
13993 1 19.0754 11.1488 38.7134
13992 1 19.9887 9.60437 41.2951
19519 2 20.8962 11.1727 39.993
14544 1 0.888204 14.3838 41.2373
20224 2 1.7983 12.7642 39.9737
14558 1 5.43376 12.7389 38.6944
14557 1 3.6176 12.7905 41.2572
20175 2 4.52533 14.3557 39.9538
14448 1 9.07384 12.7905 41.2572
14449 1 6.34444 14.3838 41.2373
20191 2 7.25454 12.7642 39.9737
14471 1 10.89 12.7389 38.6944
14247 1 11.8007 14.3838 41.2373
20054 2 9.98156 14.3557 39.9538
14268 1 14.5301 12.7905 41.2572
19822 2 15.4378 14.3557 39.9538
20053 2 12.7108 12.7642 39.9737
14269 1 16.3462 12.7389 38.6944
13976 1 17.2569 14.3838 41.2373
19839 2 18.167 12.7642 39.9737
14589 1 21.8025 12.7389 38.6944
13975 1 19.9863 12.7905 41.2572
19518 2 20.894 14.3557 39.9538
14543 1 0.885439 17.5713 41.1959
20225 2 1.79607 15.9472 39.9333
14542 1 3.61498 15.9774 41.2169
20174 2 4.52304 17.5388 39.9121
14427 1 6.34168 17.5713 41.1959
14451 1 9.07122 15.9774 41.2169
20173 2 7.25231 15.9472 39.9333
14246 1 11.7979 17.5713 41.1959
20035 2 9.97928 17.5388 39.9121
14245 1 14.5275 15.9774 41.2169
19821 2 15.4355 17.5388 39.9121
20056 2 12.7086 15.9472 39.9333
13955 1 17.2542 17.5713 41.1959
19820 2 18.1648 15.9472 39.9333
13978 1 19.9837 15.9774 41.2169
19503 2 20.8918 17.5388 39.9121
20220 2 1.79375 19.1305 39.8903
14532 1 0.882343 20.7607 41.1522
14545 1 3.61206 19.1657 41.1743
20159 2 4.52069 20.7222 39.8679
14425 1 9.0683 19.1657 41.1743
20176 2 7.24998 19.1305 39.8903
14426 1 6.33858 20.7607 41.1522
14219 1 11.7948 20.7607 41.1522
20034 2 9.97693 20.7222 39.8679
14248 1 14.5245 19.1657 41.1743
20033 2 12.7062 19.1305 39.8903
19798 2 15.4332 20.7222 39.8679
19823 2 18.1625 19.1305 39.8903
13954 1 17.2511 20.7607 41.1522
13953 1 19.9808 19.1657 41.1743
19502 2 20.8894 20.7222 39.8679
20221 2 1.79142 22.314 39.8446
14530 1 3.60874 22.3565 41.1295
14428 1 9.06498 22.3565 41.1295
20157 2 7.24766 22.314 39.8446
14217 1 14.5212 22.3565 41.1295
20036 2 12.7039 22.314 39.8446
19796 2 18.1601 22.314 39.8446
13956 1 19.9775 22.3565 41.1295
14531 1 0.878715 23.9535 41.1062
20216 2 1.78929 25.4977 39.7953
14533 1 3.60464 25.552 41.0822
20158 2 4.51843 23.9058 39.8205
14401 1 9.06088 25.552 41.0822
14403 1 6.33495 23.9535 41.1062
20160 2 7.24553 25.4977 39.7953
14218 1 11.7912 23.9535 41.1062
20008 2 9.97467 23.9058 39.8205
14220 1 14.5171 25.552 41.0822
19797 2 15.4309 23.9058 39.8205
20006 2 12.7018 25.4977 39.7953
13925 1 17.2474 23.9535 41.1062
19799 2 18.158 25.4977 39.7953
13923 1 19.9734 25.552 41.0822
19479 2 20.8871 23.9058 39.8205
14520 1 0.873868 27.1527 41.0576
20217 2 1.78771 28.6815 39.7404
14518 1 3.59857 28.7566 41.0322
20143 2 4.51653 27.0896 39.7687
14402 1 6.33011 27.1527 41.0576
14404 1 9.05481 28.7566 41.0322
20141 2 7.24395 28.6815 39.7404
14184 1 11.7863 27.1527 41.0576
20007 2 9.97277 27.0896 39.7687
14182 1 14.511 28.7566 41.0322
19766 2 15.429 27.0896 39.7687
20009 2 12.7002 28.6815 39.7404
13924 1 17.2426 27.1527 41.0576
19764 2 18.1564 28.6815 39.7404
13926 1 19.9673 28.7566 41.0322
19478 2 20.8852 27.0896 39.7687
14519 1 0.865818 30.3647 41.006
20212 2 1.78672 31.8665 39.6759
14521 1 3.58759 31.979 40.9784
20142 2 4.51534 30.2736 39.7096
14377 1 9.04383 31.979 40.9784
14379 1 6.32206 30.3647 41.006
20144 2 7.24296 31.8665 39.6759
14183 1 11.7783 30.3647 41.006
19980 2 9.97158 30.2736 39.7096
14185 1 14.5001 31.979 40.9784
19765 2 15.4278 30.2736 39.7096
19978 2 12.6992 31.8665 39.6759
13887 1 17.2345 30.3647 41.006
19767 2 18.1554 31.8665 39.6759
13885 1 19.9563 31.979 40.9784
19447 2 20.8841 30.2736 39.7096
14508 1 0.849924 33.6015 40.9486
20213 2 1.78351 35.0625 39.5959
14506 1 3.56381 35.2354 40.9167
20127 2 4.51427 33.4617 39.6378
14378 1 6.30616 33.6015 40.9486
14380 1 9.02005 35.2354 40.9167
20125 2 7.23975 35.0625 39.5959
14148 1 11.7624 33.6015 40.9486
19979 2 9.97051 33.4617 39.6378
14146 1 14.4763 35.2354 40.9167
19727 2 15.4267 33.4617 39.6378
19981 2 12.696 35.0625 39.5959
13886 1 17.2186 33.6015 40.9486
19725 2 18.1522 35.0625 39.5959
13888 1 19.9325 35.2354 40.9167
19446 2 20.883 33.4617 39.6378
14507 1 0.81825 36.8859 40.8774
20208 2 1.76547 38.3076 39.4804
20126 2 4.50741 36.6714 39.545
14509 1 3.53434 38.5504 40.8078
14355 1 6.27449 36.8859 40.8774
14353 1 8.99058 38.5504 40.8078
20128 2 7.22171 38.3076 39.4804
14147 1 11.7307 36.8859 40.8774
19952 2 9.96365 36.6714 39.545
19726 2 15.4199 36.6714 39.545
14149 1 14.4468 38.5504 40.8078
19950 2 12.6779 38.3076 39.4804
13842 1 17.187 36.8859 40.8774
19728 2 18.1342 38.3076 39.4804
19407 2 20.8761 36.6714 39.545
13840 1 19.9031 38.5504 40.8078
14496 1 0.840543 40.1842 40.6495
20209 2 1.6202 41.8679 39.3854
20111 2 4.4361 40.0254 39.4311
14354 1 6.29678 40.1842 40.6495
20109 2 7.07647 41.8679 39.3854
14112 1 11.753 40.1842 40.6496
19951 2 9.89233 40.0254 39.4312
19687 2 15.3486 40.0254 39.4312
19953 2 12.5327 41.8679 39.3854
13841 1 17.2093 40.1842 40.6495
19685 2 17.9889 41.8679 39.3854
19406 2 20.8048 40.0254 39.4311
14495 1 0.736083 43.5239 40.6549
14494 1 3.53418 41.8305 40.5945
20110 2 4.294 43.6189 39.4208
14356 1 8.99042 41.8305 40.5945
14332 1 6.19233 43.5239 40.6549
14111 1 11.6486 43.5239 40.6549
19924 2 9.75027 43.6189 39.4209
14110 1 14.4467 41.8305 40.5945
19686 2 15.2065 43.6189 39.4209
13796 1 17.1048 43.5239 40.6549
13843 1 19.9029 41.8305 40.5945
19360 2 20.6627 43.6189 39.4208
14488 1 0.645321 46.9058 40.7622
20204 2 1.52931 45.2989 39.4594
14497 1 3.40396 45.2203 40.7278
20096 2 4.24068 46.9375 39.4786
14330 1 8.8602 45.2203 40.7278
14331 1 6.10156 46.9058 40.7622
20112 2 6.98552 45.2988 39.4594
14080 1 11.5578 46.9057 40.7622
19923 2 9.69698 46.9375 39.4786
14113 1 14.3164 45.2203 40.7278
19648 2 15.1532 46.9375 39.4786
19922 2 12.4417 45.2988 39.4594
13795 1 17.014 46.9058 40.7622
19688 2 17.898 45.2989 39.4594
13794 1 19.7727 45.2203 40.7278
19359 2 20.6094 46.9376 39.4785
14487 1 0.651416 50.2666 40.7512
20205 2 1.50548 48.5689 39.488
14486 1 3.37111 48.5861 40.7589
20095 2 4.24358 50.2145 39.4703
14313 1 6.10765 50.2666 40.7512
14333 1 8.82734 48.5861 40.7589
20094 2 6.96185 48.5686 39.4877
14079 1 11.5639 50.2666 40.7512
19897 2 9.69983 50.2145 39.4703
14078 1 14.2836 48.5861 40.7589
19647 2 15.1561 50.2144 39.4703
19925 2 12.4181 48.5686 39.4877
13753 1 17.0201 50.2666 40.7512
19646 2 17.8742 48.5689 39.488
13797 1 19.7398 48.5861 40.7589
19312 2 20.6123 50.2144 39.4703
14563 1 1.8111 0.0806799 43.9556
20194 2 2.71794 1.65791 42.6582
14462 1 4.53843 1.67528 43.9408
20193 2 5.44682 0.0643209 42.673
14472 1 7.26734 0.0806799 43.9556
20063 2 8.17418 1.65791 42.6582
14275 1 9.99467 1.67528 43.9408
20069 2 10.9031 0.0643209 42.673
13987 1 15.4509 1.67528 43.9408
14274 1 12.7236 0.0806799 43.9556
19842 2 13.6304 1.65791 42.6582
13995 1 18.1798 0.0806799 43.9556
19841 2 16.3593 0.0643209 42.673
20230 2 21.8155 0.0643209 42.673
13632 1 20.9071 1.67528 43.9408
19525 2 19.0867 1.65791 42.6582
14564 1 1.80946 3.26996 43.9252
20186 2 2.71627 4.84523 42.6265
14461 1 4.53668 4.86476 43.9089
20195 2 5.44525 3.25154 42.6427
14460 1 7.2657 3.26996 43.9252
20062 2 8.1725 4.84523 42.6265
14263 1 9.99291 4.86476 43.9089
20061 2 10.9015 3.25154 42.6427
13986 1 15.4492 4.86476 43.9089
14276 1 12.7219 3.26996 43.9252
19834 2 13.6287 4.84523 42.6265
13985 1 18.1782 3.26996 43.9252
19843 2 16.3577 3.25154 42.6427
20226 2 21.814 3.25154 42.6427
13631 1 20.9054 4.86476 43.9089
19524 2 19.085 4.84523 42.6265
14552 1 1.80759 6.45971 43.8919
20185 2 2.71437 8.03289 42.5919
14446 1 4.53468 8.05485 43.8741
20184 2 5.44346 6.43901 42.6095
14463 1 7.26383 6.45971 43.8919
20051 2 8.17061 8.03289 42.5919
14262 1 9.99092 8.05485 43.8741
20064 2 10.8997 6.43901 42.6095
13973 1 15.4472 8.05485 43.8741
14261 1 12.7201 6.45971 43.8919
19833 2 13.6268 8.03289 42.5919
13988 1 18.1763 6.45971 43.8919
19832 2 16.3559 6.43901 42.6095
20227 2 21.8122 6.43901 42.6095
13630 1 20.9034 8.05485 43.8741
19517 2 19.0831 8.03289 42.5919
14553 1 1.80547 9.65022 43.8557
20171 2 2.71225 11.2211 42.5546
14445 1 4.53243 11.2459 43.8366
20187 2 5.44146 9.62692 42.5736
14444 1 7.26171 9.65022 43.8557
20050 2 8.16849 11.2211 42.5546
14243 1 9.98867 11.2459 43.8366
20049 2 10.8977 9.62692 42.5736
13972 1 15.4449 11.2459 43.8366
14264 1 12.7179 9.65022 43.8557
19818 2 13.6247 11.2211 42.5546
13971 1 18.1742 9.65022 43.8557
19835 2 16.3539 9.62692 42.5736
20222 2 21.8102 9.62692 42.5736
13623 1 20.9011 11.2459 43.8366
19516 2 19.081 11.2211 42.5546
14540 1 1.80309 12.8419 43.8168
20170 2 2.70993 14.4102 42.5146
14423 1 4.52993 14.4384 43.7963
20169 2 5.43924 12.8155 42.5349
14447 1 7.25933 12.8419 43.8168
20031 2 8.16617 14.4102 42.5146
14242 1 9.98616 14.4384 43.7963
20052 2 10.8955 12.8155 42.5349
13951 1 15.4424 14.4384 43.7963
14241 1 12.7156 12.8419 43.8168
19817 2 13.6224 14.4102 42.5146
13974 1 18.1718 12.8419 43.8168
19816 2 16.3517 12.8155 42.5349
20223 2 21.808 12.8155 42.5349
13622 1 20.8986 14.4384 43.7963
19501 2 19.0786 14.4102 42.5146
14541 1 1.80045 16.0355 43.7752
20155 2 2.70744 17.6007 42.4719
14422 1 4.52714 17.6333 43.7534
20172 2 5.43682 16.0053 42.4936
14421 1 7.25669 16.0355 43.7752
20030 2 8.16368 17.6007 42.4719
14215 1 9.98337 17.6333 43.7534
20029 2 10.8931 16.0053 42.4936
13950 1 15.4396 17.6333 43.7534
14244 1 12.7129 16.0355 43.7752
19794 2 13.6199 17.6007 42.4719
13949 1 18.1692 16.0355 43.7752
19819 2 16.3493 16.0053 42.4936
20218 2 21.8055 16.0053 42.4936
13607 1 20.8959 17.6333 43.7534
19500 2 19.0762 17.6007 42.4719
14528 1 1.7975 19.232 43.731
20153 2 5.43426 19.1966 42.4495
14424 1 7.25374 19.232 43.731
20032 2 10.8905 19.1966 42.4495
14213 1 12.71 19.232 43.731
13952 1 18.1662 19.232 43.731
19792 2 16.3467 19.1966 42.4495
20219 2 21.803 19.1966 42.4495
20154 2 2.70482 20.793 42.4263
14529 1 1.79412 22.433 43.6836
14399 1 4.524 20.8317 43.7077
20156 2 5.4316 22.3902 42.4022
20004 2 8.16105 20.793 42.4263
14397 1 7.25036 22.433 43.6836
14214 1 9.98023 20.8317 43.7077
20002 2 10.8878 22.3902 42.4022
19793 2 13.6173 20.793 42.4263
13921 1 15.4365 20.8317 43.7077
14216 1 12.7066 22.433 43.6836
13919 1 18.1628 22.433 43.6836
19795 2 16.3441 22.3902 42.4022
19477 2 19.0735 20.793 42.4263
13606 1 20.8927 20.8317 43.7077
20214 2 21.8003 22.3902 42.4022
14516 1 1.78997 25.6415 43.6325
20139 2 2.70215 23.9882 42.377
14398 1 4.5203 24.036 43.6586
20137 2 5.42894 25.5873 42.3505
14400 1 7.2462 25.6415 43.6325
20003 2 8.15838 23.9882 42.377
14180 1 9.97654 24.036 43.6586
20005 2 10.8852 25.5873 42.3505
13920 1 15.4328 24.036 43.6586
14178 1 12.7024 25.6415 43.6325
19762 2 13.6146 23.9882 42.377
13922 1 18.1587 25.6415 43.6325
19760 2 16.3414 25.5873 42.3505
20215 2 21.7977 25.5873 42.3505
13583 1 20.889 24.036 43.6586
19476 2 19.0709 23.9882 42.377
14517 1 1.78418 28.8623 43.576
20138 2 2.69949 27.1878 42.3223
14375 1 4.51547 27.25 43.6051
20140 2 5.42622 28.7901 42.2921
14373 1 7.24041 28.8623 43.576
19976 2 8.15573 27.1878 42.3223
14179 1 9.97171 27.25 43.6051
19974 2 10.8825 28.7901 42.2921
13883 1 15.4279 27.25 43.6051
14181 1 12.6967 28.8623 43.576
19761 2 13.612 27.1878 42.3223
13881 1 18.1529 28.8623 43.576
19763 2 16.3387 28.7901 42.2921
20210 2 21.7949 28.7901 42.2921
13582 1 20.8842 27.25 43.6051
19445 2 19.0682 27.1878 42.3223
14504 1 1.77512 32.1031 43.51
20123 2 2.69651 30.3949 42.2591
14374 1 4.5083 30.4797 43.5446
20121 2 5.42244 32.0038 42.2227
14376 1 7.23135 32.1031 43.51
19975 2 8.15275 30.3949 42.2591
14144 1 9.96454 30.4797 43.5446
19977 2 10.8787 32.0038 42.2227
13882 1 15.4208 30.4797 43.5446
14142 1 12.6876 32.1031 43.51
19723 2 13.609 30.3949 42.2591
13884 1 18.1438 32.1031 43.51
19721 2 16.3349 32.0038 42.2227
20211 2 21.7912 32.0038 42.2227
13551 1 20.877 30.4797 43.5446
19444 2 19.0652 30.3949 42.2591
14505 1 1.7642 35.372 43.4232
20122 2 2.6909 33.6185 42.1819
14351 1 4.4973 33.7337 43.4712
20124 2 5.41297 35.2427 42.1353
14349 1 7.22044 35.372 43.4232
19948 2 8.14714 33.6185 42.1819
14143 1 9.95354 33.7337 43.4712
19946 2 10.8692 35.2427 42.1353
13838 1 15.4098 33.7337 43.4712
14145 1 12.6767 35.372 43.4232
19722 2 13.6034 33.6185 42.1819
13836 1 18.1329 35.372 43.4232
19724 2 16.3254 35.2427 42.1353
20206 2 21.7817 35.2427 42.1353
13550 1 20.866 33.7337 43.4712
19405 2 19.0596 33.6185 42.1819
20107 2 2.67411 36.8843 42.0804
14492 1 1.74831 38.6609 43.2911
14350 1 4.48876 37.0165 43.3586
20105 2 5.38376 38.5499 42.0168
19947 2 8.13034 36.8843 42.0804
14352 1 7.20454 38.6609 43.2911
14108 1 9.945 37.0165 43.3586
19949 2 10.84 38.5499 42.0168
13837 1 15.4012 37.0165 43.3586
19683 2 13.5866 36.8843 42.0804
14106 1 12.6608 38.6609 43.2911
13839 1 18.117 38.6609 43.2911
19681 2 16.2962 38.5499 42.0168
13511 1 20.8575 37.0165 43.3586
19404 2 19.0428 36.8843 42.0804
20207 2 21.7525 38.5499 42.0168
20106 2 2.62631 40.2276 41.9651
14328 1 4.45577 40.3003 43.2441
19920 2 8.08254 40.2276 41.9651
14107 1 9.91201 40.3003 43.2441
13792 1 15.3682 40.3003 43.2441
19682 2 13.5388 40.2276 41.9651
13510 1 20.8245 40.3003 43.2441
19358 2 18.995 40.2276 41.9651
14493 1 1.70185 41.9335 43.214
20092 2 2.55838 43.5683 41.9501
20108 2 5.32313 41.8923 41.939
14327 1 4.41393 43.5694 43.1978
14326 1 7.15808 41.9335 43.214
19919 2 8.01464 43.5683 41.9501
19918 2 10.7794 41.8924 41.939
14076 1 9.87017 43.5694 43.1978
14109 1 12.6143 41.9335 43.214
13791 1 15.3264 43.5694 43.1978
19644 2 13.4709 43.5683 41.9501
19684 2 16.2356 41.8924 41.939
13790 1 18.0706 41.9335 43.214
20202 2 21.6919 41.8924 41.939
13465 1 20.7826 43.5694 43.1978
19357 2 18.9271 43.5683 41.9501
14484 1 1.67062 45.2319 43.2126
20091 2 2.51789 46.9213 41.9914
14312 1 4.38209 46.9091 43.2379
20090 2 5.26041 45.2483 41.9743
14329 1 7.12686 45.2319 43.2126
19896 2 7.97414 46.9213 41.9914
14075 1 9.83833 46.9091 43.2379
19921 2 10.7166 45.2483 41.9743
13752 1 15.2946 46.9091 43.2379
14074 1 12.5831 45.2319 43.2126
19643 2 13.4304 46.9213 41.9914
13793 1 18.0393 45.2319 43.2126
19642 2 16.1729 45.2483 41.9743
20203 2 21.6291 45.2483 41.9743
13464 1 20.7508 46.9091 43.2379
19311 2 18.8866 46.9213 41.9914
14485 1 1.64839 48.5926 43.2461
20081 2 2.52112 50.2482 41.9831
14311 1 4.3866 50.275 43.2279
20093 2 5.24083 48.5839 41.9949
14310 1 7.10463 48.5926 43.2461
19895 2 7.97736 50.2482 41.9831
14049 1 9.84284 50.275 43.2279
19894 2 10.6971 48.5839 41.9949
13751 1 15.2991 50.275 43.2279
14077 1 12.5609 48.5926 43.2461
19609 2 13.4336 50.2482 41.9831
13750 1 18.0171 48.5926 43.2461
19645 2 16.1533 48.5839 41.9948
20201 2 21.6096 48.5839 41.9948
13419 1 20.7553 50.275 43.2279
19310 2 18.8898 50.2482 41.9831
20182 2 0.903982 1.69247 45.2193
14458 1 2.72493 1.7099 46.5011
14562 1 -0.00243451 0.113352 46.5162
20192 2 3.63285 0.0969211 45.2343
14457 1 5.4538 0.113352 46.5162
20058 2 9.08909 0.0969211 45.2343
20059 2 6.36022 1.69247 45.2193
14259 1 8.18117 1.7099 46.5011
19830 2 11.8165 1.69247 45.2193
14273 1 10.91 0.113352 46.5162
19840 2 14.5453 0.0969211 45.2343
13983 1 13.6374 1.7099 46.5011
19522 2 17.2727 1.69247 45.2193
13982 1 16.3663 0.113352 46.5162
19521 2 20.0016 0.0969211 45.2343
13629 1 19.0936 1.7099 46.5011
20181 2 0.902335 4.88393 45.187
14442 1 2.72327 4.90349 46.4685
14550 1 -0.00399191 3.3066 46.4852
20180 2 3.6313 3.28813 45.2036
14459 1 5.45225 3.3066 46.4852
20047 2 6.35857 4.88393 45.187
20060 2 9.08754 3.28813 45.2036
14258 1 8.17951 4.90349 46.4685
19829 2 11.8148 4.88393 45.187
14257 1 10.9085 3.3066 46.4852
19828 2 14.5438 3.28813 45.2036
13969 1 13.6357 4.90349 46.4685
19514 2 17.2711 4.88393 45.187
13984 1 16.3647 3.3066 46.4852
19523 2 20 3.28813 45.2036
13628 1 19.092 4.90349 46.4685
20167 2 0.900486 8.07612 45.1517
14441 1 2.72141 8.09807 46.4328
14551 1 -0.00575356 6.50063 46.451
20183 2 3.62955 6.47991 45.1697
14440 1 5.45048 6.50063 46.451
20045 2 9.08579 6.47991 45.1697
20046 2 6.35672 8.07612 45.1517
14239 1 8.17765 8.09807 46.4328
19814 2 11.813 8.07612 45.1517
14260 1 10.9067 6.50063 46.451
19831 2 14.542 6.47991 45.1697
13968 1 13.6339 8.09807 46.4328
19513 2 17.2692 8.07612 45.1517
13967 1 16.363 6.50063 46.451
19512 2 19.9983 6.47991 45.1697
13621 1 19.0901 8.09807 46.4328
20166 2 0.898445 11.2694 45.1134
14419 1 2.71934 11.2941 46.394
20165 2 3.62761 9.6726 45.1329
14443 1 5.44852 9.69588 46.4138
20027 2 6.35468 11.2694 45.1134
20048 2 9.08385 9.6726 45.1329
14238 1 8.17558 11.2941 46.394
19813 2 11.8109 11.2694 45.1134
14237 1 10.9048 9.69588 46.4138
19812 2 14.5401 9.6726 45.1329
13947 1 13.6318 11.2941 46.394
19498 2 17.2672 11.2694 45.1134
13970 1 16.361 9.69588 46.4138
14538 1 21.8172 9.69588 46.4138
19515 2 19.9963 9.6726 45.1329
13620 1 19.0881 11.2941 46.394
20151 2 0.896227 14.4643 45.072
14418 1 2.71707 14.4924 46.3521
20168 2 3.62548 12.8666 45.0931
14417 1 5.44635 12.8929 46.3734
20025 2 9.08171 12.8666 45.0931
20026 2 6.35247 14.4643 45.072
14211 1 8.17331 14.4924 46.3521
19790 2 11.8087 14.4643 45.072
14240 1 10.9026 12.8929 46.3734
19815 2 14.538 12.8666 45.0931
13946 1 13.6295 14.4924 46.3521
19497 2 17.2649 14.4643 45.072
13945 1 16.3588 12.8929 46.3734
14539 1 21.8151 12.8929 46.3734
19496 2 19.9942 12.8666 45.0931
13605 1 19.0858 14.4924 46.3521
20150 2 0.893864 17.6616 45.0276
14395 1 2.7146 17.6939 46.307
20149 2 3.62318 16.0626 45.0502
14420 1 5.44398 16.0926 46.33
20000 2 6.3501 17.6616 45.0276
20028 2 9.07942 16.0626 45.0502
14210 1 8.17083 17.6939 46.307
19789 2 11.8063 17.6616 45.0276
14209 1 10.9002 16.0926 46.33
19788 2 14.5357 16.0626 45.0502
13917 1 13.6271 17.6939 46.307
19474 2 17.2626 17.6616 45.0276
13948 1 16.3565 16.0926 46.33
14526 1 21.8127 16.0926 46.33
19499 2 19.9919 16.0626 45.0502
13604 1 19.0833 17.6939 46.307
20152 2 3.62076 19.2614 45.0041
14393 1 5.44139 19.2963 46.2831
19998 2 9.077 19.2614 45.0041
14212 1 10.8976 19.2963 46.2831
19791 2 14.5332 19.2614 45.0041
13915 1 16.3539 19.2963 46.2831
19472 2 19.9895 19.2614 45.0041
14527 1 21.8101 19.2963 46.2831
20135 2 0.891398 20.8622 44.9796
14394 1 2.71188 20.9001 46.2582
20133 2 3.61825 22.4642 44.9539
14396 1 5.43852 22.5057 46.2322
19999 2 6.34764 20.8622 44.9796
20001 2 9.07449 22.4642 44.9539
14176 1 8.16812 20.9001 46.2582
19758 2 11.8039 20.8622 44.9796
14174 1 10.8948 22.5057 46.2322
19756 2 14.5307 22.4642 44.9539
13916 1 13.6244 20.9001 46.2582
19473 2 17.2601 20.8622 44.9796
13918 1 16.351 22.5057 46.2322
19475 2 19.987 22.4642 44.9539
14514 1 21.8072 22.5057 46.2322
13581 1 19.0806 20.9001 46.2582
20134 2 0.888848 24.0676 44.927
14371 1 2.7088 24.1134 46.205
20136 2 3.61563 25.6728 44.8985
14369 1 5.43516 25.7237 46.1761
19970 2 9.07187 25.6728 44.8985
19972 2 6.34509 24.0676 44.927
14175 1 8.16504 24.1134 46.205
19757 2 11.8013 24.0676 44.927
14177 1 10.8914 25.7237 46.1761
19759 2 14.5281 25.6728 44.8985
13879 1 13.6213 24.1134 46.205
19442 2 17.2576 24.0676 44.927
13877 1 16.3476 25.7237 46.1761
19440 2 19.9843 25.6728 44.8985
14515 1 21.8039 25.7237 46.1761
13580 1 19.0775 24.1134 46.205
20119 2 0.886077 27.2801 44.8681
14370 1 2.70505 27.3372 46.1454
20117 2 3.61254 28.8903 44.8353
14372 1 5.43089 28.9542 46.1123
19971 2 6.34232 27.2801 44.8681
19973 2 9.06878 28.8903 44.8353
14140 1 8.16129 27.3372 46.1454
19719 2 11.7986 27.2801 44.8681
14138 1 10.8871 28.9542 46.1123
19717 2 14.525 28.8903 44.8353
13878 1 13.6175 27.3372 46.1454
19441 2 17.2548 27.2801 44.8681
13880 1 16.3434 28.9542 46.1123
19443 2 19.9813 28.8903 44.8353
14502 1 21.7996 28.9542 46.1123
13549 1 19.0738 27.3372 46.1454
20118 2 0.882317 30.504 44.7996
14347 1 2.70012 30.5754 46.0763
20120 2 3.6075 32.1225 44.7603
14345 1 5.42527 32.201 46.0363
19942 2 9.06374 32.1225 44.7603
19944 2 6.33856 30.504 44.7996
14139 1 8.15636 30.5754 46.0763
19718 2 11.7948 30.504 44.7996
14141 1 10.8815 32.201 46.0363
19720 2 14.52 32.1225 44.7603
13834 1 13.6126 30.5754 46.0763
19402 2 17.251 30.504 44.7996
13832 1 16.3378 32.201 46.0363
19400 2 19.9762 32.1225 44.7603
14503 1 21.794 32.201 46.0363
13548 1 19.0688 30.5754 46.0763
20103 2 0.875045 33.7473 44.7168
14346 1 2.69375 33.8311 45.9911
20101 2 3.59641 35.3806 44.6685
14348 1 5.4168 35.4645 45.9407
19943 2 6.33128 33.7473 44.7168
19945 2 9.05265 35.3806 44.6685
14104 1 8.14999 33.8311 45.9911
19679 2 11.7875 33.7473 44.7168
14102 1 10.873 35.4645 45.9407
19677 2 14.5089 35.3806 44.6685
13833 1 13.6062 33.8311 45.9911
19401 2 17.2438 33.7473 44.7168
13835 1 16.3293 35.4645 45.9407
19403 2 19.9651 35.3806 44.6685
14490 1 21.7855 35.4645 45.9407
13509 1 19.0625 33.8311 45.9911
20102 2 0.85772 37.0214 44.6169
14324 1 2.68023 37.0986 45.8893
20084 2 1.76612 38.7407 47.1248
20104 2 3.57162 38.6648 44.5675
14322 1 5.39586 38.731 45.8443
19916 2 6.31396 37.0214 44.6169
19914 2 9.02786 38.6648 44.5675
14103 1 8.13647 37.0986 45.8893
19913 2 7.22236 38.7407 47.1248
19678 2 11.7702 37.0214 44.6169
14105 1 10.8521 38.731 45.8443
19680 2 14.4841 38.6648 44.5675
13788 1 13.5927 37.0986 45.8893
19634 2 12.6786 38.7407 47.1248
19355 2 17.2264 37.0214 44.6169
13786 1 16.3083 38.731 45.8443
19352 2 18.1348 38.7407 47.1248
19353 2 19.9403 38.6648 44.5675
13508 1 19.0489 37.0986 45.8893
14491 1 21.7646 38.731 45.8443
20088 2 0.825914 40.309 44.5303
14323 1 2.65381 40.3627 45.8074
19888 2 4.48274 40.374 47.0921
19915 2 6.28215 40.309 44.5303
14072 1 8.11005 40.3627 45.8074
19640 2 11.7384 40.309 44.5303
19635 2 9.93898 40.374 47.0921
13787 1 13.5663 40.3627 45.8074
19304 2 15.3952 40.374 47.0921
19354 2 17.1946 40.309 44.5303
13463 1 19.0225 40.3627 45.8074
19022 2 20.8515 40.374 47.0921
20087 2 0.787496 43.6054 44.4987
14308 1 2.62789 43.6348 45.7653
20085 2 1.74315 42.0094 47.068
20086 2 3.5346 41.9555 44.507
14325 1 5.36768 41.9967 45.7817
19887 2 4.46079 43.6486 47.0526
19917 2 8.99084 41.9555 44.507
19892 2 6.24373 43.6054 44.4987
14071 1 8.08413 43.6348 45.7653
19886 2 7.19939 42.0094 47.068
19639 2 11.7 43.6054 44.4987
14070 1 10.8239 41.9967 45.7817
19604 2 9.91703 43.6486 47.0526
19638 2 14.4471 41.9555 44.507
13748 1 13.5404 43.6348 45.7653
19303 2 15.3733 43.6486 47.0526
19637 2 12.6556 42.0094 47.068
19308 2 17.1562 43.6054 44.4987
13789 1 16.2802 41.9967 45.7817
19302 2 18.1119 42.0094 47.068
19356 2 19.9033 41.9555 44.507
14482 1 21.7364 41.9967 45.7817
13462 1 18.9966 43.6348 45.7653
18979 2 20.8295 43.6486 47.0526
20080 2 0.766167 46.9237 44.5049
14307 1 2.61751 46.9332 45.7535
20076 2 1.72455 45.2927 47.0438
20089 2 3.50166 45.2612 44.5007
14306 1 5.34849 45.2794 45.7562
19872 2 4.4481 46.9415 47.0393
19890 2 8.95789 45.2612 44.5007
19891 2 6.22241 46.9237 44.5049
14048 1 8.07375 46.9332 45.7535
19889 2 7.18079 45.2927 47.0438
19608 2 11.6786 46.9237 44.5049
14073 1 10.8047 45.2794 45.7562
19603 2 9.90434 46.9415 47.0393
19641 2 14.4141 45.2612 44.5007
13747 1 13.53 46.9332 45.7535
19264 2 15.3606 46.9415 47.0393
19602 2 12.637 45.2927 47.0438
19307 2 17.1349 46.9237 44.5049
13746 1 16.261 45.2794 45.7562
19305 2 18.0933 45.2927 47.0438
19306 2 19.8704 45.2612 44.5007
14483 1 21.7172 45.2794 45.7562
13418 1 18.9862 46.9332 45.7535
18978 2 20.8168 46.9415 47.0393
20079 2 0.767775 50.2568 44.5004
14297 1 2.61828 50.251 45.7503
20077 2 1.71876 48.5932 47.0374
20078 2 3.49257 48.5905 44.5059
14309 1 5.34543 48.5926 45.7522
19871 2 4.44903 50.2444 47.0376
19873 2 6.22402 50.2567 44.5004
19893 2 8.94881 48.5905 44.5059
14047 1 8.07451 50.251 45.7503
19870 2 7.17499 48.5932 47.0374
19607 2 11.6803 50.2567 44.5004
14046 1 10.8017 48.5926 45.7522
19577 2 9.90526 50.2444 47.0376
19606 2 14.405 48.5905 44.5059
13713 1 13.5308 50.251 45.7503
19263 2 15.3615 50.2444 47.0376
19605 2 12.6312 48.5932 47.0374
19265 2 17.1365 50.2568 44.5004
13749 1 16.2579 48.5926 45.7522
19262 2 18.0875 48.5932 47.0374
19309 2 19.8613 48.5905 44.5059
14481 1 21.7141 48.5926 45.7522
13417 1 18.987 50.251 45.7503
18935 2 20.8177 50.2444 47.0376
20178 2 1.81973 0.129638 47.7941
14438 1 0.9123 1.74458 49.0599
20043 2 4.54715 1.72711 47.7789
14456 1 3.6411 0.146123 49.0753
20057 2 7.27597 0.129638 47.7941
14254 1 9.09734 0.146123 49.0753
14255 1 6.36854 1.74458 49.0599
19826 2 10.0034 1.72711 47.7789
13965 1 11.8248 1.74458 49.0599
19510 2 15.4596 1.72711 47.7789
19825 2 12.7322 0.129638 47.7941
13981 1 14.5536 0.146123 49.0753
19520 2 18.1884 0.129638 47.7941
13626 1 17.281 1.74458 49.0599
19144 2 20.9159 1.72711 47.7789
13625 1 20.0098 0.146123 49.0753
20179 2 1.81829 3.32475 47.7628
14437 1 0.910827 4.94216 49.0264
20042 2 4.54563 4.9226 47.7458
14436 1 3.6397 3.34324 49.0436
20041 2 7.27453 3.32475 47.7628
14235 1 6.36706 4.94216 49.0264
14256 1 9.09594 3.34324 49.0436
19810 2 10.0019 4.9226 47.7458
13964 1 11.8233 4.94216 49.0264
19509 2 15.4581 4.9226 47.7458
19827 2 12.7308 3.32475 47.7628
13963 1 14.5522 3.34324 49.0436
19508 2 18.187 3.32475 47.7628
13618 1 17.2795 4.94216 49.0264
19143 2 20.9144 4.9226 47.7458
13627 1 20.0084 3.34324 49.0436
20163 2 1.8167 6.52072 47.728
14415 1 0.909209 8.14101 48.9895
20023 2 4.54396 8.11915 47.7094
14439 1 3.63815 6.54139 49.0084
20044 2 7.27294 6.52072 47.728
14233 1 9.09439 6.54139 49.0084
14234 1 6.36545 8.14101 48.9895
19809 2 10.0002 8.11915 47.7094
13943 1 11.8217 8.14101 48.9895
19494 2 15.4564 8.11915 47.7094
19808 2 12.7292 6.52072 47.728
13966 1 14.5506 6.54139 49.0084
19511 2 18.1854 6.52072 47.728
13617 1 17.2779 8.14101 48.9895
19142 2 20.9127 8.11915 47.7094
13616 1 20.0069 6.54139 49.0084
20164 2 1.81495 9.71796 47.6899
14414 1 0.90746 11.3417 48.9491
20022 2 4.54215 11.3172 47.6697
14413 1 3.63647 9.74109 48.9697
20021 2 7.27119 9.71796 47.6899
14207 1 6.3637 11.3417 48.9491
14236 1 9.09271 9.74109 48.9697
19786 2 9.99839 11.3172 47.6697
13942 1 11.8199 11.3417 48.9491
19493 2 15.4546 11.3172 47.6697
19811 2 12.7274 9.71796 47.6899
13941 1 14.5489 9.74109 48.9697
19492 2 18.1837 9.71796 47.6899
13602 1 17.2762 11.3417 48.9491
19135 2 20.9109 11.3172 47.6697
13619 1 20.0052 9.74109 48.9697
20147 2 1.81308 12.917 47.6485
14391 1 0.905598 14.5451 48.9051
19996 2 4.54022 14.5175 47.6265
14416 1 3.63466 12.943 48.9276
20024 2 7.26932 12.917 47.6485
14205 1 9.0909 12.943 48.9276
14206 1 6.36184 14.5451 48.9051
19785 2 9.99646 14.5175 47.6265
13913 1 11.8181 14.5451 48.9051
19470 2 15.4527 14.5175 47.6265
19784 2 12.7256 12.917 47.6485
13944 1 14.5471 12.943 48.9276
19495 2 18.1818 12.917 47.6485
13601 1 17.2743 14.5451 48.9051
19134 2 20.9089 14.5175 47.6265
13600 1 20.0034 12.943 48.9276
20148 2 1.81111 16.1187 47.6036
14390 1 0.903635 17.7522 48.8573
19995 2 4.53821 17.7208 47.5797
14389 1 3.63275 16.1481 48.8817
19994 2 7.26735 16.1187 47.6036
14172 1 6.35987 17.7522 48.8573
14208 1 9.08899 16.1481 48.8817
19754 2 9.99445 17.7208 47.5797
13912 1 11.8161 17.7522 48.8573
19469 2 15.4507 17.7208 47.5797
19787 2 12.7236 16.1187 47.6036
13911 1 14.5452 16.1481 48.8817
19468 2 18.1798 16.1187 47.6036
13578 1 17.2724 17.7522 48.8573
19119 2 20.9069 17.7208 47.5797
13603 1 20.0015 16.1481 48.8817
20131 2 1.80906 19.324 47.5548
14392 1 3.63073 19.3577 48.8319
19997 2 7.2653 19.324 47.5548
14170 1 9.08697 19.3577 48.8319
19752 2 12.7215 19.324 47.5548
13914 1 14.5432 19.3577 48.8319
19471 2 18.1778 19.324 47.5548
13576 1 19.9994 19.3577 48.8319
20132 2 1.80694 22.5343 47.5014
14367 1 0.901563 20.9647 48.8052
19963 2 2.72594 20.9908 50.0753
20113 2 -0.00305006 22.5996 50.0462
19968 2 4.53613 20.9284 47.5287
14365 1 3.62858 22.5735 48.7771
19965 2 5.45319 22.5996 50.0462
19966 2 7.26318 22.5343 47.5014
14171 1 6.3578 20.9647 48.8052
14173 1 9.08482 22.5735 48.7771
19711 2 8.18218 20.9908 50.0753
19753 2 9.99237 20.9284 47.5287
13875 1 11.814 20.9647 48.8052
19709 2 10.9094 22.5996 50.0462
19438 2 15.4486 20.9284 47.5287
19755 2 12.7194 22.5343 47.5014
13873 1 14.5411 22.5735 48.7771
19433 2 13.6384 20.9908 50.0753
19436 2 18.1757 22.5343 47.5014
13577 1 17.2703 20.9647 48.8052
19435 2 16.3657 22.5996 50.0462
19118 2 20.9049 20.9284 47.5287
13579 1 19.9973 22.5735 48.7771
19093 2 19.0947 20.9908 50.0753
20115 2 1.80459 25.7516 47.442
14366 1 0.8993 24.1843 48.7476
19936 2 2.72411 24.2101 50.0156
20114 2 -0.00512781 25.8225 49.9834
19967 2 4.53394 24.1419 47.4725
14368 1 3.62615 25.7976 48.7163
19934 2 5.45111 25.8225 49.9834
19969 2 7.26083 25.7516 47.442
14134 1 9.08239 25.7976 48.7163
14136 1 6.35554 24.1843 48.7476
19710 2 8.18035 24.2101 50.0156
19715 2 9.99017 24.1419 47.4725
13874 1 11.8118 24.1843 48.7476
19712 2 10.9073 25.8225 49.9834
19437 2 15.4464 24.1419 47.4725
19713 2 12.7171 25.7516 47.442
13876 1 14.5386 25.7976 48.7163
19394 2 13.6366 24.2101 50.0156
19439 2 18.1733 25.7516 47.442
13546 1 17.268 24.1843 48.7476
19392 2 16.3636 25.8225 49.9834
19095 2 20.9027 24.1419 47.4725
13544 1 19.9949 25.7976 48.7163
19092 2 19.0928 24.2101 50.0156
20116 2 1.80145 28.9787 47.3745
14343 1 0.896619 27.4135 48.6829
19935 2 2.72162 27.4372 49.9493
20097 2 -0.00827366 29.0543 49.9132
19940 2 4.53131 27.3637 47.4094
14341 1 3.6231 29.0323 48.6471
19937 2 5.44796 29.0543 49.9132
19938 2 7.25769 28.9787 47.3745
14135 1 6.35286 27.4135 48.6829
14137 1 9.07933 29.0323 48.6471
19671 2 8.17786 27.4372 49.9493
19714 2 9.98754 27.3637 47.4094
13830 1 11.8091 27.4135 48.6829
19669 2 10.9042 29.0543 49.9132
19398 2 15.4438 27.3637 47.4094
19716 2 12.7139 28.9787 47.3745
13828 1 14.5356 29.0323 48.6471
19393 2 13.6341 27.4372 49.9493
19396 2 18.1702 28.9787 47.3745
13545 1 17.2653 27.4135 48.6829
19395 2 16.3604 29.0543 49.9132
19094 2 20.9 27.3637 47.4094
13547 1 19.9918 29.0323 48.6471
19061 2 19.0903 27.4372 49.9493
20099 2 1.79597 32.2194 47.2964
14342 1 0.89298 30.654 48.6086
20098 2 -0.0139204 32.2959 49.8356
19908 2 2.71746 30.6739 49.8753
19939 2 4.52728 30.597 47.3369
14344 1 3.61846 32.2784 48.5672
19906 2 5.44232 32.2959 49.8356
19941 2 7.2522 32.2194 47.2964
14098 1 9.0747 32.2784 48.5672
14100 1 6.34922 30.654 48.6086
19670 2 8.1737 30.6739 49.8753
19675 2 9.98352 30.597 47.3369
13829 1 11.8055 30.654 48.6086
19672 2 10.8986 32.2959 49.8356
19397 2 15.4398 30.597 47.3369
19673 2 12.7084 32.2194 47.2964
13831 1 14.5309 32.2784 48.5672
19347 2 13.6299 30.6739 49.8753
19399 2 18.1647 32.2194 47.2964
13506 1 17.2617 30.654 48.6086
19345 2 16.3548 32.2959 49.8356
19063 2 20.896 30.597 47.3369
13504 1 19.9872 32.2784 48.5672
19060 2 19.0862 30.6739 49.8753
20100 2 1.78478 35.476 47.2084
14320 1 0.886508 33.9048 48.5234
19907 2 2.70984 33.92 49.795
19912 2 4.51946 33.8459 47.2533
14318 1 3.60895 35.5321 48.4792
19909 2 5.43246 35.5454 49.7547
19910 2 7.24102 35.476 47.2084
14099 1 6.34275 33.9048 48.5234
14101 1 9.06519 35.5321 48.4792
19632 2 8.16608 33.92 49.795
19674 2 9.9757 33.8459 47.2533
13784 1 11.799 33.9048 48.5234
19630 2 10.8887 35.5454 49.7547
19351 2 15.4319 33.8459 47.2533
19676 2 12.6973 35.476 47.2084
13782 1 14.5214 35.5321 48.4792
19346 2 13.6223 33.92 49.795
19349 2 18.1535 35.476 47.2084
13505 1 17.2552 33.9048 48.5234
19348 2 16.3449 35.5454 49.7547
20082 2 21.8012 35.5454 49.7547
19062 2 20.8882 33.8459 47.2533
13507 1 19.9777 35.5321 48.4792
19021 2 19.0786 33.92 49.795
14319 1 0.873254 37.1593 48.4372
19884 2 2.69778 37.1716 49.7164
19911 2 4.50434 37.108 47.1646
14068 1 6.32949 37.1593 48.4372
19631 2 8.15402 37.1716 49.7164
19636 2 9.96058 37.108 47.1646
13783 1 11.7857 37.1593 48.4372
19350 2 15.4168 37.108 47.1646
19300 2 13.6103 37.1716 49.7164
13460 1 17.242 37.1593 48.4372
19023 2 20.8731 37.108 47.1646
19020 2 19.0665 37.1716 49.7164
14304 1 0.854777 40.4146 48.3677
19883 2 2.68291 40.4256 49.6517
14321 1 3.59229 38.7866 48.3996
19882 2 5.41861 38.7982 49.6816
14066 1 9.04853 38.7866 48.3996
14067 1 6.31102 40.4146 48.3677
19600 2 8.13915 40.4256 49.6517
19633 2 10.8748 38.7982 49.6816
13744 1 11.7673 40.4146 48.3677
13785 1 14.5048 38.7866 48.3996
19299 2 13.5954 40.4256 49.6517
19298 2 16.3311 38.7982 49.6816
13459 1 17.2235 40.4146 48.3677
20083 2 21.7873 38.7982 49.6816
13458 1 19.961 38.7866 48.3996
18977 2 19.0516 40.4256 49.6517
14303 1 0.839565 43.6771 48.3225
19868 2 2.6693 43.6862 49.6093
14302 1 3.5743 42.0444 48.342
19885 2 5.40377 42.0547 49.6275
14044 1 6.2958 43.6771 48.3225
14069 1 9.03054 42.0444 48.342
19599 2 8.12554 43.6862 49.6093
13743 1 11.752 43.6771 48.3225
19598 2 10.86 42.0547 49.6275
13742 1 14.4868 42.0444 48.342
19260 2 13.5818 43.6862 49.6093
13415 1 17.2083 43.6771 48.3225
19301 2 16.3162 42.0547 49.6275
20074 2 21.7725 42.0547 49.6275
13461 1 19.943 42.0444 48.342
18976 2 19.038 43.6862 49.6093
14296 1 0.833093 46.9525 48.2997
19867 2 2.66147 46.9573 49.5892
14305 1 3.56336 45.3133 48.3085
19866 2 5.39256 45.3206 49.5967
14042 1 9.01959 45.3133 48.3085
14043 1 6.28933 46.9525 48.2997
19576 2 8.11771 46.9573 49.5892
13712 1 11.7456 46.9525 48.2997
19601 2 10.8488 45.3206 49.5967
13745 1 14.4758 45.3133 48.3085
19259 2 13.5739 46.9573 49.5892
13414 1 17.2018 46.9525 48.2997
19258 2 16.305 45.3206 49.5967
20075 2 21.7613 45.3206 49.5967
13413 1 19.9321 45.3133 48.3085
18934 2 19.0302 46.9573 49.5892
14295 1 0.833398 50.234 48.2994
19857 2 2.66208 50.2328 49.5892
14294 1 3.56075 48.5935 48.2965
19869 2 5.38877 48.5953 49.5867
14025 1 6.28964 50.234 48.2994
14045 1 9.01699 48.5935 48.2965
19575 2 8.11832 50.2328 49.5892
13711 1 11.7459 50.234 48.2994
19574 2 10.845 48.5953 49.5867
13710 1 14.4732 48.5935 48.2965
19225 2 13.5746 50.2328 49.5892
13374 1 17.2021 50.234 48.2994
19261 2 16.3012 48.5953 49.5867
20073 2 21.7575 48.5953 49.5867
13416 1 19.9295 48.5935 48.2965
18933 2 19.0308 50.2328 49.5892
20039 2 2.7349 1.76177 50.337
20177 2 0.00739569 0.162419 50.3526
14434 1 1.82915 0.178941 51.6331
20015 2 0.923365 1.79638 52.8937
20038 2 5.46363 0.162419 50.3526
14231 1 4.55669 1.77925 51.6172
20037 2 3.652 0.195219 52.9098
19806 2 8.19114 1.76177 50.337
14253 1 7.28539 0.178941 51.6331
19801 2 9.10824 0.195219 52.9098
19802 2 6.3796 1.79638 52.8937
19824 2 10.9199 0.162419 50.3526
13961 1 10.0129 1.77925 51.6172
19486 2 11.8358 1.79638 52.8937
19506 2 13.6474 1.76177 50.337
13614 1 15.4692 1.77925 51.6172
13960 1 12.7416 0.178941 51.6331
19504 2 14.5645 0.195219 52.9098
19505 2 16.3761 0.162419 50.3526
13624 1 18.1979 0.178941 51.6331
19138 2 17.2921 1.79638 52.8937
19141 2 19.1036 1.76177 50.337
13264 1 20.9254 1.77925 51.6172
19137 2 20.0207 0.195219 52.9098
20019 2 2.73358 4.96115 50.3029
20161 2 0.00613399 3.36133 50.3204
14435 1 1.82796 3.3798 51.6005
20014 2 0.922284 4.99948 52.8586
20040 2 5.46237 3.36133 50.3204
14230 1 4.55545 4.98065 51.5827
20013 2 3.65095 3.39779 52.8767
19805 2 8.18982 4.96115 50.3029
14229 1 7.2842 3.3798 51.6005
19778 2 6.37852 4.99948 52.8586
19803 2 9.10719 3.39779 52.8767
19804 2 10.9186 3.36133 50.3204
13939 1 10.0117 4.98065 51.5827
19485 2 11.8348 4.99948 52.8586
19490 2 13.6461 4.96115 50.3029
13613 1 15.4679 4.98065 51.5827
13962 1 12.7404 3.3798 51.6005
19484 2 14.5634 3.39779 52.8767
19507 2 16.3748 3.36133 50.3204
13612 1 18.1967 3.3798 51.6005
19130 2 17.291 4.99948 52.8586
19140 2 19.1023 4.96115 50.3029
13263 1 20.9242 4.98065 51.5827
19139 2 20.0197 3.39779 52.8767
20018 2 2.73217 8.16181 50.2652
20162 2 0.00476734 6.56129 50.2845
14411 1 1.82669 6.58185 51.5641
19988 2 0.921168 8.20396 52.8196
20017 2 5.46101 6.56129 50.2845
14203 1 4.55415 8.18349 51.5444
20016 2 3.64985 6.60152 52.8396
19782 2 8.18841 8.16181 50.2652
14232 1 7.28293 6.58185 51.5641
19776 2 9.10609 6.60152 52.8396
19777 2 6.37741 8.20396 52.8196
19807 2 10.9172 6.56129 50.2845
13938 1 10.0104 8.18349 51.5444
19462 2 11.8336 8.20396 52.8196
19489 2 13.6446 8.16181 50.2652
13598 1 15.4666 8.18349 51.5444
13937 1 12.7392 6.58185 51.5641
19487 2 14.5623 6.60152 52.8396
19488 2 16.3735 6.56129 50.2845
13615 1 18.1954 6.58185 51.5641
19129 2 17.2899 8.20396 52.8196
19133 2 19.1009 8.16181 50.2652
13262 1 20.9229 8.18349 51.5444
19128 2 20.0186 6.60152 52.8396
19992 2 2.73068 11.3643 50.2239
20145 2 0.00331485 9.76277 50.245
14412 1 1.82536 9.78564 51.5238
19987 2 0.920038 11.4104 52.7765
20020 2 5.45955 9.76277 50.245
14202 1 4.55279 11.3884 51.5023
19986 2 3.64872 9.80689 52.7986
19781 2 8.18692 11.3643 50.2239
14201 1 7.2816 9.78564 51.5238
19746 2 6.37628 11.4104 52.7765
19779 2 9.10496 9.80689 52.7986
19780 2 10.9158 9.76277 50.245
13909 1 10.009 11.3884 51.5023
19461 2 11.8325 11.4104 52.7765
19466 2 13.6432 11.3643 50.2239
13597 1 15.4653 11.3884 51.5023
13940 1 12.7378 9.78564 51.5238
19460 2 14.5612 9.80689 52.7986
19491 2 16.372 9.76277 50.245
13596 1 18.1941 9.78564 51.5238
19114 2 17.2888 11.4104 52.7765
19132 2 19.0994 11.3643 50.2239
13255 1 20.9215 11.3884 51.5023
19131 2 20.0174 9.80689 52.7986
19991 2 2.72915 14.5693 50.1787
20146 2 0.00179993 12.9664 50.2018
14387 1 1.82398 12.9919 51.4797
19960 2 0.918907 14.6194 52.7291
19990 2 5.45804 12.9664 50.2018
14168 1 4.55141 14.5962 51.4561
19989 2 3.64759 13.0145 52.7533
19750 2 8.18538 14.5693 50.1787
14204 1 7.28022 12.9919 51.4797
19744 2 9.10383 13.0145 52.7533
19745 2 6.37515 14.6194 52.7291
19783 2 10.9143 12.9664 50.2018
13908 1 10.0076 14.5962 51.4561
19430 2 11.8314 14.6194 52.7291
19465 2 13.6416 14.5693 50.1787
13574 1 15.4639 14.5962 51.4561
13907 1 12.7365 12.9919 51.4797
19463 2 14.5601 13.0145 52.7533
19464 2 16.3705 12.9664 50.2018
13599 1 18.1927 12.9919 51.4797
19113 2 17.2876 14.6194 52.7291
19117 2 19.0979 14.5693 50.1787
13254 1 20.9201 14.5962 51.4561
19112 2 20.0163 13.0145 52.7533
19964 2 2.72757 17.7777 50.1293
20129 2 0.000244979 16.173 50.1545
14388 1 1.82259 16.2015 51.4314
19959 2 0.917762 17.832 52.6772
19993 2 5.45648 16.173 50.1545
14167 1 4.55001 17.8079 51.4055
19958 2 3.64646 16.2252 52.7038
19749 2 8.18381 17.7777 50.1293
14166 1 7.27883 16.2015 51.4314
19707 2 6.374 17.832 52.6772
19747 2 9.1027 16.2252 52.7038
19748 2 10.9127 16.173 50.1545
13871 1 10.0062 17.8079 51.4055
19429 2 11.8302 17.832 52.6772
19434 2 13.6401 17.7777 50.1293
13573 1 15.4625 17.8079 51.4055
13910 1 12.7351 16.2015 51.4314
19428 2 14.5589 16.2252 52.7038
19467 2 16.369 16.173 50.1545
13572 1 18.1913 16.2015 51.4314
19090 2 17.2865 17.832 52.6772
19116 2 19.0963 17.7777 50.1293
13239 1 20.9187 17.8079 51.4055
19115 2 20.0152 16.2252 52.7038
20130 2 -0.00134793 19.3836 50.1029
14363 1 1.82118 19.4156 51.3784
19962 2 5.45489 19.3836 50.1029
19961 2 3.64528 19.4399 52.6495
14169 1 7.27741 19.4156 51.3784
19705 2 9.10152 19.4399 52.6495
19751 2 10.9111 19.3836 50.1029
13869 1 12.7337 19.4156 51.3784
19431 2 14.5578 19.4399 52.6495
19432 2 16.3674 19.3836 50.1029
13575 1 18.1899 19.4156 51.3784
19088 2 20.014 19.4399 52.6495
14364 1 1.81968 22.6356 51.3202
19932 2 0.916521 21.049 52.6204
14132 1 4.54856 21.0248 51.35
19930 2 3.64392 22.6596 52.59
14130 1 7.27592 22.6356 51.3202
19706 2 6.37276 21.049 52.6204
19708 2 9.10016 22.6596 52.59
13870 1 10.0048 21.0248 51.35
19390 2 11.829 21.049 52.6204
13542 1 15.461 21.0248 51.35
13872 1 12.7322 22.6356 51.3202
19388 2 14.5564 22.6596 52.59
13540 1 18.1884 22.6356 51.3202
19089 2 17.2852 21.049 52.6204
13238 1 20.9173 21.0248 51.35
19091 2 20.0126 22.6596 52.59
14339 1 1.81788 25.8629 51.2557
19931 2 0.914949 24.2717 52.5581
14131 1 4.54696 24.2483 51.2888
19933 2 3.64201 25.8855 52.5248
14133 1 7.27412 25.8629 51.2557
19665 2 9.09825 25.8855 52.5248
19667 2 6.37119 24.2717 52.5581
13826 1 10.0032 24.2483 51.2888
19389 2 11.8274 24.2717 52.5581
13541 1 15.4594 24.2483 51.2888
13824 1 12.7304 25.8629 51.2557
19391 2 14.5545 25.8855 52.5248
13543 1 18.1866 25.8629 51.2557
19058 2 17.2837 24.2717 52.5581
13215 1 20.9157 24.2483 51.2888
19056 2 20.0107 25.8855 52.5248
14340 1 1.81524 29.0982 51.184
19904 2 0.912534 27.5009 52.49
14096 1 4.54485 27.4796 51.2208
19902 2 3.63886 29.1181 52.4539
14094 1 7.27148 29.0982 51.184
19666 2 6.36877 27.5009 52.49
19668 2 9.0951 29.1181 52.4539
13825 1 10.0011 27.4796 51.2208
19343 2 11.825 27.5009 52.49
13502 1 15.4573 27.4796 51.2208
13827 1 12.7277 29.0982 51.184
19341 2 14.5513 29.1181 52.4539
13500 1 18.184 29.0982 51.184
19057 2 17.2812 27.5009 52.49
13214 1 20.9136 27.4796 51.2208
19059 2 20.0076 29.1181 52.4539
14316 1 1.8104 32.3404 51.1055
19903 2 0.908384 30.7368 52.4166
14095 1 4.54134 30.7186 51.1454
19905 2 3.63345 32.3569 52.3787
14097 1 7.26664 32.3404 51.1055
19626 2 9.08969 32.3569 52.3787
19628 2 6.36462 30.7368 52.4166
13780 1 9.99758 30.7186 51.1454
19342 2 11.8209 30.7368 52.4166
13501 1 15.4538 30.7186 51.1454
13778 1 12.7229 32.3404 51.1055
19344 2 14.5459 32.3569 52.3787
13503 1 18.1791 32.3404 51.1055
19018 2 17.2771 30.7368 52.4166
13183 1 20.9101 30.7186 51.1454
19016 2 20.0022 32.3569 52.3787
14317 1 1.80151 35.586 51.0261
19880 2 0.901549 33.9779 52.341
14064 1 4.53464 33.963 51.0653
19878 2 3.62519 35.5995 52.3043
14062 1 7.25775 35.586 51.0261
19627 2 6.35779 33.9779 52.341
19629 2 9.08143 35.5995 52.3043
13779 1 9.99088 33.963 51.0653
19296 2 11.814 33.9779 52.341
13456 1 15.4471 33.963 51.0653
13781 1 12.714 35.586 51.0261
19294 2 14.5377 35.5995 52.3043
13454 1 18.1702 35.586 51.0261
19017 2 17.2703 33.9779 52.341
13182 1 20.9034 33.963 51.0653
19019 2 19.9939 35.5995 52.3043
19879 2 0.892048 37.2214 52.2697
14063 1 4.52369 37.2091 50.9892
19596 2 6.34829 37.2214 52.2697
13740 1 9.97993 37.2091 50.9892
19295 2 11.8045 37.2214 52.2697
13455 1 15.4362 37.2091 50.9892
18974 2 17.2608 37.2214 52.2697
13147 1 20.8924 37.2091 50.9892
14300 1 1.78913 38.8325 50.9556
19864 2 0.88146 40.4667 52.2104
19881 2 3.61486 38.8438 52.2381
14040 1 4.51096 40.4566 50.9262
14065 1 7.24537 38.8325 50.9556
19594 2 9.0711 38.8438 52.2381
19595 2 6.3377 40.4667 52.2104
13739 1 9.9672 40.4566 50.9262
19256 2 11.7939 40.4667 52.2104
13738 1 12.7016 38.8325 50.9556
19297 2 14.5273 38.8438 52.2381
13411 1 15.4234 40.4566 50.9262
13457 1 18.1578 38.8325 50.9556
18973 2 17.2502 40.4667 52.2104
18972 2 19.9836 38.8438 52.2381
13146 1 20.8797 40.4566 50.9262
14301 1 1.77726 42.0818 50.9014
19863 2 0.87239 43.7158 52.1688
14039 1 4.50101 43.7084 50.8815
19862 2 3.60469 42.0906 52.1872
14038 1 7.2335 42.0818 50.9014
19572 2 6.32863 43.7158 52.1688
19597 2 9.06093 42.0906 52.1872
13708 1 9.95725 43.7084 50.8815
19255 2 11.7849 43.7158 52.1688
13410 1 15.4135 43.7084 50.8815
13741 1 12.6897 42.0818 50.9014
19254 2 14.5172 42.0906 52.1872
13409 1 18.146 42.0818 50.9014
18931 2 17.2411 43.7158 52.1688
13111 1 20.8697 43.7084 50.8815
18975 2 19.9734 42.0906 52.1872
14292 1 1.76987 45.3366 50.8669
19856 2 0.86731 46.9697 52.1477
14024 1 4.49625 46.9659 50.8579
19865 2 3.59734 45.3423 52.1556
14041 1 7.22611 45.3366 50.8669
19570 2 9.05358 45.3423 52.1556
19571 2 6.32355 46.9697 52.1477
13707 1 9.95249 46.9659 50.8579
19224 2 11.7798 46.9697 52.1477
13373 1 15.4087 46.9659 50.8579
13706 1 12.6823 45.3366 50.8669
19257 2 14.5098 45.3423 52.1556
13412 1 18.1386 45.3366 50.8669
18930 2 17.236 46.9697 52.1477
13110 1 20.865 46.9659 50.8579
18929 2 19.9661 45.3423 52.1556
14293 1 1.76764 48.5956 50.855
19855 2 0.867697 50.2254 52.1482
14023 1 4.49652 50.2251 50.8584
19854 2 3.5949 48.5977 52.1452
14022 1 7.22388 48.5956 50.855
19553 2 6.32394 50.2254 52.1482
19573 2 9.05114 48.5977 52.1452
13681 1 9.95276 50.2251 50.8584
19223 2 11.7802 50.2254 52.1482
13372 1 15.409 50.2251 50.8584
13709 1 12.6801 48.5956 50.855
19222 2 14.5074 48.5977 52.1452
13371 1 18.1364 48.5956 50.855
18892 2 17.2364 50.2254 52.1482
13075 1 20.8652 50.2251 50.8584
18932 2 19.9636 48.5977 52.1452
14227 1 2.74551 1.81385 54.1734
14433 1 0.0178641 0.211757 54.1897
20011 2 1.84099 0.227993 55.4659
14226 1 5.4741 0.211757 54.1897
19774 2 4.56869 1.83091 55.4494
13935 1 8.20175 1.81385 54.1734
19800 2 7.29723 0.227993 55.4659
13959 1 10.9303 0.211757 54.1897
19482 2 10.0249 1.83091 55.4494
13610 1 13.658 1.81385 54.1734
19126 2 15.4812 1.83091 55.4494
19481 2 12.7535 0.227993 55.4659
13609 1 16.3866 0.211757 54.1897
19136 2 18.2097 0.227993 55.4659
13261 1 19.1142 1.81385 54.1734
18792 2 20.9374 1.83091 55.4494
14199 1 2.74454 5.01887 54.1378
14409 1 0.016905 3.41621 54.1561
20012 2 1.84014 3.43408 55.4318
14228 1 5.47314 3.41621 54.1561
19773 2 4.56784 5.03754 55.4132
13934 1 8.20078 5.01887 54.1378
19772 2 7.29638 3.43408 55.4318
13933 1 10.9294 3.41621 54.1561
19458 2 10.0241 5.03754 55.4132
13594 1 13.657 5.01887 54.1378
19125 2 15.4803 5.03754 55.4132
19483 2 12.7526 3.43408 55.4318
13611 1 16.3856 3.41621 54.1561
19124 2 18.2089 3.43408 55.4318
13260 1 19.1133 5.01887 54.1378
18791 2 20.9366 5.03754 55.4132
14198 1 2.74356 8.22539 54.098
14410 1 0.0159289 6.62191 54.1184
19984 2 1.8393 6.64134 55.3935
14197 1 5.47217 6.62191 54.1184
19742 2 4.56701 8.24554 55.3728
13905 1 8.1998 8.22539 54.098
19775 2 7.29554 6.64134 55.3935
13936 1 10.9284 6.62191 54.1184
19457 2 10.0233 8.24554 55.3728
13593 1 13.656 8.22539 54.098
19110 2 15.4795 8.24554 55.3728
19456 2 12.7518 6.64134 55.3935
13592 1 16.3846 6.62191 54.1184
19127 2 18.208 6.64134 55.3935
13253 1 19.1123 8.22539 54.098
18790 2 20.9357 8.24554 55.3728
14164 1 2.7426 11.434 54.0541
14385 1 0.0149604 9.82939 54.0766
19985 2 1.83849 9.85022 55.3509
14200 1 5.4712 9.82939 54.0766
19741 2 4.56622 11.4554 55.3279
13904 1 8.19884 11.434 54.0541
19740 2 7.29473 9.85022 55.3509
13903 1 10.9274 9.82939 54.0766
19426 2 10.0225 11.4554 55.3279
13570 1 13.6551 11.434 54.0541
19109 2 15.4787 11.4554 55.3279
19459 2 12.751 9.85022 55.3509
13595 1 16.3837 9.82939 54.0766
19108 2 18.2072 9.85022 55.3509
13252 1 19.1113 11.434 54.0541
18783 2 20.9349 11.4554 55.3279
14163 1 2.74168 14.6454 54.0056
14386 1 0.0140189 13.0393 54.0304
19956 2 1.83771 13.0613 55.3038
14162 1 5.47026 13.0393 54.0304
19703 2 4.56545 14.6678 55.2786
13867 1 8.19792 14.6454 54.0056
19743 2 7.29395 13.0613 55.3038
13906 1 10.9265 13.0393 54.0304
19425 2 10.0217 14.6678 55.2786
13569 1 13.6542 14.6454 54.0056
19086 2 15.4779 14.6678 55.2786
19424 2 12.7502 13.0613 55.3038
13568 1 16.3827 13.0393 54.0304
19111 2 18.2064 13.0613 55.3038
13237 1 19.1104 14.6454 54.0056
18782 2 20.9342 14.6678 55.2786
14128 1 2.74077 17.8606 53.9525
14361 1 0.0131081 16.2525 53.9797
19957 2 1.83694 16.2752 55.2521
14165 1 5.46935 16.2525 53.9797
13866 1 8.19701 17.8606 53.9525
19701 2 7.29318 16.2752 55.2521
13865 1 10.9256 16.2525 53.9797
13538 1 13.6533 17.8606 53.9525
19427 2 12.7494 16.2752 55.2521
13571 1 16.3818 16.2525 53.9797
19084 2 18.2057 16.2752 55.2521
13236 1 19.1095 17.8606 53.9525
14362 1 0.0121907 19.4698 53.924
19928 2 1.83608 19.4927 55.1955
19702 2 4.56465 17.8835 55.2245
14126 1 5.46843 19.4698 53.924
19704 2 7.29232 19.4927 55.1955
19386 2 10.0209 17.8835 55.2245
13868 1 10.9247 19.4698 53.924
19085 2 15.4771 17.8835 55.2245
19384 2 12.7486 19.4927 55.1955
13536 1 16.3809 19.4698 53.924
19087 2 18.2048 19.4927 55.1955
18767 2 20.9334 17.8835 55.2245
14127 1 2.73981 21.0804 53.8942
14337 1 0.0111354 22.6923 53.8631
19929 2 1.83494 22.7145 55.134
14129 1 5.46737 22.6923 53.8631
19663 2 4.56369 21.103 55.1654
13822 1 8.19605 21.0804 53.8942
19661 2 7.29118 22.7145 55.134
13820 1 10.9236 22.6923 53.8631
19385 2 10.0199 21.103 55.1654
13537 1 13.6523 21.0804 53.8942
19054 2 15.4762 21.103 55.1654
19387 2 12.7474 22.7145 55.134
13539 1 16.3799 22.6923 53.8631
19052 2 18.2037 22.7145 55.134
13213 1 19.1085 21.0804 53.8942
18766 2 20.9324 21.103 55.1654
14092 1 2.73859 24.3056 53.8304
14338 1 0.00961608 25.9204 53.7964
19900 2 1.83312 25.9411 55.0675
14090 1 5.46585 25.9204 53.7964
19662 2 4.56227 24.3272 55.1013
13821 1 8.19482 24.3056 53.8304
19664 2 7.28936 25.9411 55.0675
13823 1 10.9221 25.9204 53.7964
19339 2 10.0185 24.3272 55.1013
13498 1 13.6511 24.3056 53.8304
19053 2 15.4747 24.3272 55.1013
19337 2 12.7456 25.9411 55.0675
13496 1 16.3783 25.9204 53.7964
19055 2 18.2018 25.9411 55.0675
13212 1 19.1073 24.3056 53.8304
18743 2 20.931 24.3272 55.1013
14091 1 2.73661 27.5365 53.761
14314 1 0.00695359 29.154 53.7244
19901 2 1.83004 29.1723 54.9971
14093 1 5.46319 29.154 53.7244
19624 2 4.5599 27.5562 55.0327
13776 1 8.19285 27.5365 53.761
19622 2 7.28628 29.1723 54.9971
13774 1 10.9194 29.154 53.7244
19338 2 10.0161 27.5562 55.0327
13497 1 13.6491 27.5365 53.761
19014 2 15.4724 27.5562 55.0327
19340 2 12.7425 29.1723 54.9971
13499 1 16.3757 29.154 53.7244
19012 2 18.1988 29.1723 54.9971
13181 1 19.1053 27.5365 53.761
18742 2 20.9286 27.5562 55.0327
14060 1 2.73298 30.7724 53.687
14315 1 0.00209889 32.3914 53.6494
19876 2 1.8251 32.407 54.9251
14058 1 5.45834 32.3914 53.6494
19623 2 4.55594 30.7893 54.961
13775 1 8.18922 30.7724 53.687
19625 2 7.28134 32.407 54.9251
13777 1 10.9146 32.3914 53.6494
19292 2 10.0122 30.7893 54.961
13452 1 13.6455 30.7724 53.687
19013 2 15.4684 30.7893 54.961
19290 2 12.7376 32.407 54.9251
13450 1 16.3708 32.3914 53.6494
19015 2 18.1938 32.407 54.9251
13180 1 19.1017 30.7724 53.687
18712 2 20.9247 30.7893 54.961
14059 1 2.72673 34.0109 53.6123
14298 1 -0.00551205 35.6305 53.5765
19877 2 1.81825 35.6435 54.8559
14061 1 5.45073 35.6305 53.5765
19592 2 4.55001 34.0251 54.8898
13736 1 8.18297 34.0109 53.6123
19590 2 7.27449 35.6435 54.8559
13734 1 10.907 35.6305 53.5765
19291 2 10.0062 34.0251 54.8898
13451 1 13.6392 34.0109 53.6123
18970 2 15.4625 34.0251 54.8898
19293 2 12.7307 35.6435 54.8559
13453 1 16.3632 35.6305 53.5765
18968 2 18.187 35.6435 54.8559
13145 1 19.0954 34.0109 53.6123
18711 2 20.9187 34.0251 54.8898
14036 1 2.71805 37.2503 53.5429
19591 2 4.54246 37.262 54.8241
13735 1 8.17429 37.2503 53.5429
19252 2 9.9987 37.262 54.8241
13407 1 13.6305 37.2503 53.5429
18969 2 15.4549 37.262 54.8241
13144 1 19.0868 37.2503 53.5429
18680 2 20.9112 37.262 54.8241
14299 1 -0.0147674 38.8702 53.5122
19860 2 1.81034 38.8806 54.795
14035 1 2.70887 40.4904 53.485
14034 1 5.44147 38.8702 53.5122
19568 2 4.53459 40.4996 54.7693
19593 2 7.26658 38.8806 54.795
13704 1 8.16511 40.4904 53.485
13737 1 10.8977 38.8702 53.5122
19251 2 9.99083 40.4996 54.7693
19250 2 12.7228 38.8806 54.795
13406 1 13.6213 40.4904 53.485
18927 2 15.4471 40.4996 54.7693
13405 1 16.3539 38.8702 53.5122
18971 2 18.1791 38.8806 54.795
13109 1 19.0776 40.4904 53.485
18679 2 20.9033 40.4996 54.7693
14020 1 2.7017 43.7323 53.443
14290 1 -0.0232118 42.1111 53.4618
19861 2 1.80295 42.1189 54.7475
14037 1 5.43303 42.1111 53.4618
19567 2 4.52811 43.7388 54.7301
13703 1 8.15794 43.7323 53.443
19566 2 7.25919 42.1189 54.7475
13702 1 10.8893 42.1111 53.4618
19220 2 9.98435 43.7388 54.7301
13369 1 13.6142 43.7323 53.443
18926 2 15.4406 43.7388 54.7301
19253 2 12.7154 42.1189 54.7475
13408 1 16.3455 42.1111 53.4618
18925 2 18.1717 42.1189 54.7475
13108 1 19.0704 43.7323 53.443
18648 2 20.8968 43.7388 54.7301
14019 1 2.69803 46.9762 53.421
19852 2 1.79778 45.3591 54.7175
14018 1 5.42751 45.3541 53.4293
19552 2 4.52457 46.9797 54.71
13680 1 8.15427 46.9762 53.421
19569 2 7.25402 45.3591 54.7175
13705 1 10.8837 45.3541 53.4293
19219 2 9.98081 46.9797 54.71
13368 1 13.6105 46.9762 53.421
18891 2 15.437 46.9797 54.71
19218 2 12.7103 45.3591 54.7175
13367 1 16.34 45.3541 53.4293
18928 2 18.1665 45.3591 54.7175
14291 1 21.7962 45.3541 53.4293
13074 1 19.0667 46.9762 53.421
18647 2 20.8933 46.9797 54.71
14009 1 2.69827 50.2205 53.4217
19853 2 1.79609 48.6005 54.7077
14021 1 5.42577 48.5984 53.4184
19551 2 4.52485 50.2212 54.7107
13679 1 8.15451 50.2205 53.4217
19550 2 7.25233 48.6005 54.7077
13678 1 10.882 48.5984 53.4184
19193 2 9.98108 50.2212 54.7107
13336 1 13.6107 50.2205 53.4217
18890 2 15.4373 50.2212 54.7107
19221 2 12.7086 48.6005 54.7077
13370 1 16.3382 48.5984 53.4184
18889 2 18.1648 48.6005 54.7077
14289 1 21.7945 48.5984 53.4184
13073 1 19.067 50.2205 53.4217
18616 2 20.8936 50.2212 54.7107
14195 1 0.934895 1.84834 56.7285
19770 2 2.75829 1.86532 58.004
20010 2 0.0305104 0.260708 58.021
14225 1 3.66339 0.244529 56.7453
19769 2 5.48675 0.260708 58.021
13930 1 9.11963 0.244529 56.7453
13931 1 6.39113 1.84834 56.7285
19454 2 8.21453 1.86532 58.004
13590 1 11.8474 1.84834 56.7285
19480 2 10.943 0.260708 58.021
13608 1 14.5759 0.244529 56.7453
19122 2 13.6708 1.86532 58.004
13258 1 17.3036 1.84834 56.7285
19121 2 16.3992 0.260708 58.021
13257 1 20.0321 0.244529 56.7453
18789 2 19.127 1.86532 58.004
14194 1 0.934167 5.05678 56.6918
19738 2 2.75764 5.07529 57.9668
19982 2 0.0298387 3.47017 57.986
14193 1 3.66265 3.45241 56.7107
19771 2 5.48608 3.47017 57.986
13901 1 6.39041 5.05678 56.6918
13932 1 9.11888 3.45241 56.7107
19453 2 8.21388 5.07529 57.9668
13589 1 11.8466 5.05678 56.6918
19452 2 10.9423 3.47017 57.986
13588 1 14.5751 3.45241 56.7107
19106 2 13.6701 5.07529 57.9668
13250 1 17.3029 5.05678 56.6918
19123 2 16.3986 3.47017 57.986
13259 1 20.0314 3.45241 56.7107
18788 2 19.1264 5.07529 57.9668
14160 1 0.933492 8.26665 56.6507
19737 2 2.75705 8.28652 57.9251
19983 2 0.0292193 6.68072 57.9465
14196 1 3.66194 6.66151 56.6718
19736 2 5.48546 6.68072 57.9465
13899 1 9.11818 6.66151 56.6718
13900 1 6.38973 8.26665 56.6507
19422 2 8.21329 8.28652 57.9251
13566 1 11.846 8.26665 56.6507
19455 2 10.9417 6.68072 57.9465
13591 1 14.5744 6.66151 56.6718
19105 2 13.6695 8.28652 57.9251
13249 1 17.3022 8.26665 56.6507
19104 2 16.3979 6.68072 57.9465
13248 1 20.0307 6.66151 56.6718
18781 2 19.1258 8.28652 57.9251
14159 1 0.932886 11.4785 56.605
19699 2 2.75653 11.4994 57.8787
19954 2 0.0286653 9.89274 57.9025
14158 1 3.6613 9.87227 56.6284
19739 2 5.4849 9.89274 57.9025
13863 1 6.38912 11.4785 56.605
13902 1 9.11754 9.87227 56.6284
19421 2 8.21277 11.4994 57.8787
13565 1 11.8454 11.4785 56.605
19420 2 10.9411 9.89274 57.9025
13564 1 14.5738 9.87227 56.6284
19082 2 13.669 11.4994 57.8787
13234 1 17.3016 11.4785 56.605
19107 2 16.3974 9.89274 57.9025
13251 1 20.03 9.87227 56.6284
18780 2 19.1252 11.4994 57.8787
14124 1 0.93234 14.6928 56.5545
19698 2 2.75604 14.7145 57.8276
19955 2 0.0281635 13.1067 57.8538
14161 1 3.66073 13.0853 56.5804
19697 2 5.4844 13.1067 57.8538
13861 1 9.11696 13.0853 56.5804
13862 1 6.38858 14.6928 56.5545
19382 2 8.21227 14.7145 57.8276
13534 1 11.8448 14.6928 56.5545
19423 2 10.9406 13.1067 57.8538
13567 1 14.5732 13.0853 56.5804
19081 2 13.6685 14.7145 57.8276
13233 1 17.3011 14.6928 56.5545
19080 2 16.3969 13.1067 57.8538
13232 1 20.0294 13.0853 56.5804
18765 2 19.1248 14.7145 57.8276
19926 2 0.0276557 16.3231 57.8002
14122 1 3.6602 16.3011 56.5275
19700 2 5.48389 16.3231 57.8002
13864 1 9.11643 16.3011 56.5275
19380 2 10.9401 16.3231 57.8002
13532 1 14.5727 16.3011 56.5275
19083 2 16.3964 16.3231 57.8002
13235 1 20.0289 16.3011 56.5275
14123 1 0.931803 17.9103 56.4992
19659 2 2.75548 17.9323 57.7717
19927 2 0.0270108 19.5424 57.7419
14125 1 3.65962 19.5205 56.4696
19657 2 5.48325 19.5424 57.7419
13818 1 6.38804 17.9103 56.4992
19381 2 8.21172 17.9323 57.7717
13816 1 9.11586 19.5205 56.4696
13533 1 11.8443 17.9103 56.4992
19383 2 10.9395 19.5424 57.7419
19050 2 13.668 17.9323 57.7717
13535 1 14.5721 19.5205 56.4696
13210 1 17.3005 17.9103 56.4992
19048 2 16.3957 19.5424 57.7419
18764 2 19.1242 17.9323 57.7717
13208 1 20.0283 19.5205 56.4696
14088 1 0.931137 21.1317 56.4388
19658 2 2.75469 21.1532 57.711
19898 2 0.0259901 22.7649 57.679
14086 1 3.65879 22.7438 56.4068
19660 2 5.48223 22.7649 57.679
13817 1 6.38738 21.1317 56.4388
13819 1 9.11503 22.7438 56.4068
19335 2 8.21093 21.1532 57.711
13494 1 11.8436 21.1317 56.4388
19333 2 10.9385 22.7649 57.679
13492 1 14.5713 22.7438 56.4068
19049 2 13.6672 21.1532 57.711
13209 1 17.2999 21.1317 56.4388
19051 2 16.3947 22.7649 57.679
13211 1 20.0275 22.7438 56.4068
18741 2 19.1234 21.1532 57.711
14087 1 0.930053 24.3571 56.3736
19620 2 2.75335 24.3775 57.646
19899 2 0.0242267 25.9908 57.6121
14089 1 3.65732 25.9712 56.3393
19618 2 5.48047 25.9908 57.6121
13770 1 9.11356 25.9712 56.3393
13772 1 6.38629 24.3571 56.3736
19334 2 8.20959 24.3775 57.646
13493 1 11.8425 24.3571 56.3736
19336 2 10.9367 25.9908 57.6121
13495 1 14.5698 25.9712 56.3393
19010 2 13.6658 24.3775 57.646
13178 1 17.2988 24.3571 56.3736
19008 2 16.3929 25.9908 57.6121
13176 1 20.026 25.9712 56.3393
18740 2 19.1221 24.3775 57.646
14056 1 0.928046 27.5863 56.3041
19619 2 2.75105 27.6048 57.5777
19874 2 0.0212844 29.2194 57.5429
14054 1 3.65461 29.202 56.2683
19621 2 5.47752 29.2194 57.5429
13771 1 6.38428 27.5863 56.3041
13773 1 9.11085 29.202 56.2683
19288 2 8.20729 27.6048 57.5777
13448 1 11.8405 27.5863 56.3041
19286 2 10.9338 29.2194 57.5429
13446 1 14.5671 29.202 56.2683
19009 2 13.6635 27.6048 57.5777
13177 1 17.2968 27.5863 56.3041
19011 2 16.39 29.2194 57.5429
13179 1 20.0233 29.202 56.2683
18710 2 19.1198 27.6048 57.5777
14055 1 0.92446 30.8182 56.2324
19588 2 2.74739 30.8344 57.5082
19875 2 0.0168773 32.4497 57.4739
14057 1 3.65005 32.4348 56.1968
19586 2 5.47312 32.4497 57.4739
13730 1 9.10629 32.4348 56.1968
13732 1 6.3807 30.8182 56.2324
19287 2 8.20362 30.8344 57.5082
13447 1 11.8369 30.8182 56.2324
19289 2 10.9294 32.4497 57.4739
13449 1 14.5625 32.4348 56.1968
18966 2 13.6599 30.8344 57.5082
13142 1 17.2932 30.8182 56.2324
18964 2 16.3856 32.4497 57.4739
13140 1 20.0188 32.4348 56.1968
18709 2 19.1161 30.8344 57.5082
14032 1 0.918934 34.0514 56.1621
19587 2 2.74227 34.0651 57.4407
19858 2 0.0111688 35.6805 57.409
14030 1 3.64368 35.6681 56.129
19589 2 5.46741 35.6805 57.409
13731 1 6.37517 34.0514 56.1621
13733 1 9.09992 35.6681 56.129
19248 2 8.19851 34.0651 57.4407
13403 1 11.8314 34.0514 56.1621
19246 2 10.9236 35.6805 57.409
13401 1 14.5562 35.6681 56.129
18965 2 13.6547 34.0651 57.4407
13141 1 17.2876 34.0514 56.1621
18967 2 16.3799 35.6805 57.409
13143 1 20.0124 35.6681 56.129
18678 2 19.111 34.0651 57.4407
14031 1 0.911983 37.2848 56.0979
19564 2 2.73616 37.2959 57.3794
13700 1 6.36822 37.2848 56.0979
19247 2 8.1924 37.2959 57.3794
13402 1 11.8245 37.2848 56.0979
18923 2 13.6486 37.2959 57.3794
13106 1 17.2807 37.2848 56.0979
18677 2 19.1049 37.2959 57.3794
19859 2 0.00490766 38.9112 57.3524
14016 1 0.90498 40.518 56.0444
19563 2 2.73004 40.5265 57.3286
14033 1 3.6365 38.9014 56.0695
19562 2 5.46115 38.9112 57.3524
13672 1 4.55595 40.5412 58.6042
13698 1 9.09274 38.9014 56.0695
13699 1 6.36122 40.518 56.0444
19216 2 8.18628 40.5265 57.3286
19249 2 10.9174 38.9112 57.3524
13365 1 11.8175 40.518 56.0444
13360 1 10.0122 40.5412 58.6042
13404 1 14.549 38.9014 56.0695
18922 2 13.6425 40.5265 57.3286
13067 1 15.4684 40.5412 58.6042
18921 2 16.3736 38.9112 57.3524
13105 1 17.2737 40.518 56.0444
13104 1 20.0052 38.9014 56.0695
18646 2 19.0988 40.5265 57.3286
12879 1 20.9247 40.5412 58.6042
14015 1 0.899475 43.7513 56.0057
19548 2 2.72514 43.7572 57.2923
19850 2 -0.000752307 42.1418 57.3084
14013 1 1.82542 42.1542 58.5844
14014 1 3.63008 42.1346 56.0229
19565 2 5.45549 42.1418 57.3084
13671 1 4.55155 43.7671 58.5686
13676 1 6.35571 43.7513 56.0057
13701 1 9.08631 42.1346 56.0229
19215 2 8.18138 43.7572 57.2923
13670 1 7.28166 42.1542 58.5844
13364 1 11.812 43.7513 56.0057
19214 2 10.9117 42.1418 57.3084
13331 1 10.0078 43.7671 58.5686
13363 1 14.5426 42.1346 56.0229
18887 2 13.6376 43.7572 57.2923
13066 1 15.464 43.7671 58.5686
13362 1 12.7379 42.1542 58.5844
13071 1 17.2682 43.7513 56.0057
18924 2 16.368 42.1418 57.3084
13065 1 18.1941 42.1542 58.5844
13107 1 19.9988 42.1346 56.0229
18645 2 19.0939 43.7572 57.2923
12856 1 20.9203 43.7671 58.5686
14008 1 0.896572 46.9848 55.9856
19547 2 2.7225 46.9882 57.2736
19851 2 -0.00463096 45.3727 57.2806
14004 1 1.82197 45.3799 58.5572
14017 1 3.62577 45.368 55.9932
19546 2 5.45161 45.3727 57.2806
13656 1 4.54922 46.9925 58.5503
13674 1 9.08201 45.368 55.9932
13675 1 6.35281 46.9848 55.9856
19192 2 8.17874 46.9882 57.2736
13673 1 7.27821 45.3799 58.5572
13335 1 11.809 46.9848 55.9856
19217 2 10.9078 45.3727 57.2806
13330 1 10.0055 46.9925 58.5503
13366 1 14.5382 45.368 55.9932
18886 2 13.635 46.9882 57.2736
13039 1 15.4617 46.9925 58.5503
13329 1 12.7344 45.3799 58.5572
13070 1 17.2653 46.9848 55.9856
18885 2 16.3641 45.3727 57.2806
13068 1 18.1907 45.3799 58.5572
13069 1 19.9945 45.368 55.9932
18615 2 19.0912 46.9882 57.2736
12855 1 20.9179 46.9925 58.5503
14007 1 0.896795 50.2183 55.9864
19537 2 2.72273 50.2192 57.2744
19849 2 -0.00587403 48.6037 57.2715
14005 1 1.82088 48.605 58.5483
14006 1 3.6244 48.6016 55.9834
19549 2 5.45036 48.6037 57.2715
13655 1 4.54943 50.2176 58.5511
13657 1 6.35303 50.2183 55.9864
13677 1 9.08064 48.6016 55.9834
19191 2 8.17897 50.2192 57.2744
13654 1 7.27711 48.605 58.5483
13334 1 11.8093 50.2183 55.9864
19190 2 10.9066 48.6037 57.2715
13306 1 10.0057 50.2176 58.5511
13333 1 14.5369 48.6016 55.9834
18856 2 13.6352 50.2192 57.2744
13038 1 15.4619 50.2176 58.5511
13332 1 12.7334 48.605 58.5483
13040 1 17.2655 50.2183 55.9864
18888 2 16.3628 48.6037 57.2715
13037 1 18.1896 48.605 58.5483
13072 1 19.9931 48.6016 55.9834
18614 2 19.0914 50.2192 57.2744
12832 1 20.9181 50.2176 58.5511
14191 1 1.85316 0.277231 59.3
19734 2 0.948314 1.89959 60.5579
13897 1 4.58098 1.8827 59.2828
19768 2 3.67672 0.293333 60.5752
13929 1 7.3094 0.277231 59.3
19449 2 9.13295 0.293333 60.5752
19450 2 6.40455 1.89959 60.5579
13586 1 10.0372 1.8827 59.2828
19102 2 11.8608 1.89959 60.5579
13246 1 15.4935 1.8827 59.2828
13585 1 12.7656 0.277231 59.3
19120 2 14.5892 0.293333 60.5752
13256 1 18.2219 0.277231 59.3
18786 2 17.317 1.89959 60.5579
12976 1 20.9497 1.8827 59.2828
18785 2 20.0454 0.293333 60.5752
14192 1 1.85258 3.4884 59.2645
19733 2 0.947805 5.11274 60.5197
13896 1 4.58045 5.09437 59.2451
19732 2 3.67617 3.50605 60.5394
13895 1 7.30882 3.4884 59.2645
19418 2 6.40404 5.11274 60.5197
19451 2 9.13241 3.50605 60.5394
13562 1 10.0367 5.09437 59.2451
19101 2 11.8603 5.11274 60.5197
13245 1 15.4929 5.09437 59.2451
13587 1 12.7651 3.4884 59.2645
19100 2 14.5886 3.50605 60.5394
13244 1 18.2213 3.4884 59.2645
18778 2 17.3165 5.11274 60.5197
12975 1 20.9492 5.09437 59.2451
18787 2 20.0449 3.50605 60.5394
14156 1 1.85209 6.70064 59.2245
19695 2 0.947386 8.32694 60.4769
13859 1 4.58001 8.30728 59.2027
19735 2 3.6757 6.71969 60.4989
13898 1 7.30833 6.70064 59.2245
19416 2 9.13194 6.71969 60.4989
19417 2 6.40362 8.32694 60.4769
13561 1 10.0362 8.30728 59.2027
19078 2 11.8599 8.32694 60.4769
13230 1 15.4925 8.30728 59.2027
13560 1 12.7646 6.70064 59.2245
19103 2 14.5882 6.71969 60.4989
13247 1 18.2208 6.70064 59.2245
18777 2 17.3161 8.32694 60.4769
12974 1 20.9487 8.30728 59.2027
18776 2 20.0444 6.71969 60.4989
14157 1 1.8517 9.91432 59.1797
19694 2 0.947046 11.5425 60.4292
13858 1 4.57966 11.5218 59.1555
19693 2 3.67533 9.93454 60.4537
13857 1 7.30794 9.91432 59.1797
19378 2 6.40328 11.5425 60.4292
19419 2 9.13157 9.93454 60.4537
13530 1 10.0359 11.5218 59.1555
19077 2 11.8595 11.5425 60.4292
13229 1 15.4921 11.5218 59.1555
13563 1 12.7642 9.91432 59.1797
19076 2 14.5878 9.93454 60.4537
13228 1 18.2204 9.91432 59.1797
18762 2 17.3158 11.5425 60.4292
12967 1 20.9484 11.5218 59.1555
18779 2 20.044 9.93454 60.4537
14120 1 1.8514 13.1298 59.13
19655 2 0.946727 14.7598 60.3767
13814 1 4.57938 14.7384 59.1034
19696 2 3.67501 13.1509 60.4036
13860 1 7.30764 13.1298 59.13
19376 2 9.13125 13.1509 60.4036
19377 2 6.40297 14.7598 60.3767
13529 1 10.0356 14.7384 59.1034
19046 2 11.8592 14.7598 60.3767
13206 1 15.4919 14.7384 59.1034
13528 1 12.7639 13.1298 59.13
19079 2 14.5875 13.1509 60.4036
13231 1 18.2201 13.1298 59.13
18761 2 17.3154 14.7598 60.3767
12966 1 20.9481 14.7384 59.1034
18760 2 20.0437 13.1509 60.4036
14121 1 1.85112 16.3476 59.0754
19653 2 3.67466 16.3691 60.3486
13812 1 7.30736 16.3476 59.0754
19379 2 9.1309 16.3691 60.3486
13531 1 12.7636 16.3476 59.0754
19044 2 14.5871 16.3691 60.3486
13204 1 18.2198 16.3476 59.0754
18763 2 20.0434 16.3691 60.3486
19654 2 0.946309 17.979 60.3194
14084 1 1.85073 19.5681 59.016
13813 1 4.57907 17.9575 59.0463
19656 2 3.67412 19.5894 60.289
19331 2 6.40255 17.979 60.3194
13815 1 7.30697 19.5681 59.016
19329 2 9.13036 19.5894 60.289
13490 1 10.0353 17.9575 59.0463
19045 2 11.8588 17.979 60.3194
13205 1 15.4915 17.9575 59.0463
13488 1 12.7632 19.5681 59.016
19047 2 14.5866 19.5894 60.289
18738 2 17.315 17.979 60.3194
13207 1 18.2194 19.5681 59.016
12951 1 20.9478 17.9575 59.0463
18736 2 20.0428 19.5894 60.289
14085 1 1.84998 22.7913 58.9521
19616 2 0.945591 21.2003 60.2577
13768 1 4.57854 21.1793 58.9846
19614 2 3.67315 22.8118 60.2254
13766 1 7.30622 22.7913 58.9521
19330 2 6.40183 21.2003 60.2577
19332 2 9.12939 22.8118 60.2254
13489 1 10.0348 21.1793 58.9846
19006 2 11.8581 21.2003 60.2577
13174 1 15.491 21.1793 58.9846
13491 1 12.7625 22.7913 58.9521
19004 2 14.5856 22.8118 60.2254
13172 1 18.2187 22.7913 58.9521
18737 2 17.3143 21.2003 60.2577
12950 1 20.9473 21.1793 58.9846
18739 2 20.0419 22.8118 60.2254
14052 1 1.84849 26.017 58.8845
19615 2 0.944291 24.4237 60.1924
13724 1 2.76833 24.4474 61.4659
14051 1 0.039344 26.0593 61.4322
13767 1 4.57747 24.4039 58.9187
19617 2 3.67144 26.0361 60.1588
13722 1 5.49558 26.0593 61.4322
13769 1 7.30473 26.017 58.8845
19282 2 9.12768 26.0361 60.1588
19284 2 6.40053 24.4237 60.1924
13439 1 8.22457 24.4474 61.4659
13444 1 10.0337 24.4039 58.9187
19005 2 11.8568 24.4237 60.1924
13441 1 10.9518 26.0593 61.4322
13173 1 15.4899 24.4039 58.9187
13442 1 12.761 26.017 58.8845
19007 2 14.5839 26.0361 60.1588
13134 1 13.6808 24.4474 61.4659
13175 1 18.2172 26.017 58.8845
18707 2 17.313 24.4237 60.1924
13132 1 16.4081 26.0593 61.4322
12928 1 20.9462 24.4039 58.9187
18705 2 20.0402 26.0361 60.1588
12925 1 19.137 24.4474 61.4659
14053 1 1.84581 29.2445 58.8151
19584 2 0.942089 27.6487 60.1249
13723 1 2.76633 27.6714 61.3982
14026 1 0.0367931 29.2834 61.3644
13728 1 4.57544 27.6306 58.8499
19582 2 3.66869 29.2616 60.091
13725 1 5.49303 29.2834 61.3644
13726 1 7.30205 29.2445 58.8151
19283 2 6.39833 27.6487 60.1249
19285 2 9.12493 29.2616 60.091
13395 1 8.22257 27.6714 61.3982
13443 1 10.0317 27.6306 58.8499
18962 2 11.8546 27.6487 60.1249
13393 1 10.9493 29.2834 61.3644
13138 1 15.4879 27.6306 58.8499
13445 1 12.7583 29.2445 58.8151
18960 2 14.5812 29.2616 60.091
13133 1 13.6788 27.6714 61.3982
13136 1 18.2145 29.2445 58.8151
18706 2 17.3108 27.6487 60.1249
13135 1 16.4055 29.2834 61.3644
12927 1 20.9442 27.6306 58.8499
18708 2 20.0374 29.2616 60.091
12902 1 19.135 27.6714 61.3982
14028 1 1.84168 32.4727 58.7467
19583 2 0.938754 30.8745 60.0575
13692 1 2.7632 30.8954 61.331
14027 1 0.0331067 32.5072 61.2986
13727 1 4.57205 30.8586 58.7806
19585 2 3.66478 32.4874 60.0247
13690 1 5.48935 32.5072 61.2986
13729 1 7.29792 32.4727 58.7467
19242 2 9.12102 32.4874 60.0247
19244 2 6.39499 30.8745 60.0575
13394 1 8.21944 30.8954 61.331
13399 1 10.0283 30.8586 58.7806
18961 2 11.8512 30.8745 60.0575
13396 1 10.9456 32.5072 61.2986
13137 1 15.4845 30.8586 58.7806
13397 1 12.7542 32.4727 58.7467
18963 2 14.5773 32.4874 60.0247
13098 1 13.6757 30.8954 61.331
13139 1 18.2104 32.4727 58.7467
18675 2 17.3075 30.8745 60.0575
13096 1 16.4018 32.5072 61.2986
12904 1 20.9408 30.8586 58.7806
18673 2 20.0335 32.4874 60.0247
12901 1 19.1319 30.8954 61.331
14029 1 1.83633 35.7007 58.6828
19560 2 0.934333 34.1003 59.9931
13691 1 2.75902 34.1187 61.2674
13696 1 4.56724 34.0868 58.7139
13694 1 7.29257 35.7007 58.6828
19243 2 6.39057 34.1003 59.9931
13357 1 8.21526 34.1187 61.2674
13398 1 10.0235 34.0868 58.7139
18919 2 11.8468 34.1003 59.9931
13102 1 15.4797 34.0868 58.7139
13400 1 12.7488 35.7007 58.6828
13097 1 13.6715 34.1187 61.2674
13100 1 18.205 35.7007 58.6828
18674 2 17.303 34.1003 59.9931
12903 1 20.936 34.0868 58.7139
12878 1 19.1277 34.1187 61.2674
14010 1 0.02855 35.73 61.2379
19559 2 0.929268 37.3253 59.9354
13668 1 2.75425 37.3409 61.2106
19558 2 3.65996 35.7129 59.9632
13693 1 5.48479 35.73 61.2379
13695 1 4.56155 37.3144 58.6538
19245 2 9.1162 35.7129 59.9632
19212 2 6.38551 37.3253 59.9354
13356 1 8.21049 37.3409 61.2106
13355 1 10.941 35.73 61.2379
13361 1 10.0178 37.3144 58.6538
18918 2 11.8417 37.3253 59.9354
18917 2 14.5724 35.7129 59.9632
13101 1 15.474 37.3144 58.6538
13063 1 13.6667 37.3409 61.2106
13099 1 16.3973 35.73 61.2379
18643 2 17.298 37.3253 59.9354
18676 2 20.0287 35.7129 59.9632
12880 1 20.9303 37.3144 58.6538
12877 1 19.123 37.3409 61.2106
14012 1 1.83055 38.9279 58.6275
19544 2 0.924339 40.5495 59.888
13667 1 2.74964 40.5616 61.1642
14011 1 0.0237562 38.9514 61.1859
19561 2 3.65485 38.9375 59.9102
13666 1 5.47999 38.9514 61.1859
13697 1 7.28679 38.9279 58.6275
19210 2 9.11109 38.9375 59.9102
19211 2 6.38058 40.5495 59.888
13327 1 8.20588 40.5616 61.1642
18883 2 11.8368 40.5495 59.888
13358 1 10.9362 38.9514 61.1859
13359 1 12.743 38.9279 58.6275
18920 2 14.5673 38.9375 59.9102
13062 1 13.6621 40.5616 61.1642
13103 1 18.1993 38.9279 58.6275
18642 2 17.2931 40.5495 59.888
13061 1 16.3925 38.9514 61.1859
18641 2 20.0236 38.9375 59.9102
12854 1 19.1184 40.5616 61.1642
19543 2 0.920453 43.7729 59.8544
13652 1 2.74603 43.7811 61.1313
14002 1 0.0195455 42.1715 61.1458
19542 2 3.65033 42.1613 59.8693
13669 1 5.47578 42.1715 61.1458
19188 2 6.37669 43.7729 59.8544
19213 2 9.10657 42.1613 59.8693
13326 1 8.20227 43.7811 61.1313
18882 2 11.8329 43.7729 59.8544
13325 1 10.932 42.1715 61.1458
18881 2 14.5628 42.1613 59.8693
13035 1 13.6585 43.7811 61.1313
18612 2 17.2892 43.7729 59.8544
13064 1 16.3883 42.1715 61.1458
18644 2 20.019 42.1613 59.8693
12853 1 19.1147 43.7811 61.1313
19536 2 0.918393 46.9958 59.8371
13651 1 2.74413 46.9996 61.1144
14003 1 0.0167172 45.3904 61.1207
19545 2 3.64728 45.3844 59.8436
13650 1 5.47296 45.3904 61.1207
19186 2 9.10352 45.3844 59.8436
19187 2 6.37463 46.9958 59.8371
13305 1 8.20037 46.9996 61.1144
18855 2 11.8309 46.9958 59.8371
13328 1 10.9292 45.3904 61.1207
18884 2 14.5598 45.3844 59.8436
13034 1 13.6566 46.9996 61.1144
18611 2 17.2871 46.9958 59.8371
13033 1 16.3854 45.3904 61.1207
18610 2 20.016 45.3844 59.8436
12831 1 19.1128 46.9996 61.1144
19535 2 0.918602 50.2185 59.8379
13641 1 2.74434 50.2178 61.1151
14001 1 0.015847 48.6087 61.1126
19534 2 3.64632 48.6072 59.8352
13653 1 5.47209 48.6087 61.1126
19169 2 6.37484 50.2185 59.8379
19189 2 9.10256 48.6072 59.8352
13304 1 8.20058 50.2178 61.1151
18854 2 11.8311 50.2185 59.8379
13303 1 10.9283 48.6087 61.1126
18853 2 14.5588 48.6072 59.8352
13012 1 13.6568 50.2178 61.1151
18585 2 17.2873 50.2185 59.8379
13036 1 16.3846 48.6087 61.1126
18613 2 20.015 48.6072 59.8352
12830 1 19.1131 50.2178 61.1151
13893 1 2.7712 1.91694 61.8365
14190 1 0.0433255 0.309862 61.854
19730 2 1.86706 0.325838 63.1286
13851 1 0.961664 1.95117 64.3899
13892 1 5.49956 0.309862 61.854
19414 2 4.59492 1.9337 63.1109
13891 1 3.69002 0.342527 64.4077
13558 1 8.22743 1.91694 61.8365
19448 2 7.3233 0.325838 63.1286
13553 1 9.14626 0.342527 64.4077
13554 1 6.4179 1.95117 64.3899
13584 1 10.9558 0.309862 61.854
19098 2 10.0512 1.9337 63.1109
13222 1 11.8741 1.95117 64.3899
13242 1 13.6837 1.91694 61.8365
18774 2 15.5074 1.9337 63.1109
19097 2 12.7795 0.325838 63.1286
13240 1 14.6025 0.342527 64.4077
13241 1 16.412 0.309862 61.854
18784 2 18.2358 0.325838 63.1286
12970 1 17.3304 1.95117 64.3899
12973 1 19.1399 1.91694 61.8365
18536 2 20.9636 1.9337 63.1109
12969 1 20.0587 0.342527 64.4077
13855 1 2.77078 5.13167 61.7979
14154 1 0.0428523 3.5242 61.8178
19731 2 1.86657 3.54172 63.0921
13850 1 0.96127 5.16888 64.3506
13894 1 5.49909 3.5242 61.8178
19413 2 4.59448 5.14992 63.0721
13849 1 3.68957 3.55995 64.3708
13557 1 8.22701 5.13167 61.7979
19412 2 7.32281 3.54172 63.0921
13522 1 6.41751 5.16888 64.3506
13555 1 9.14581 3.55995 64.3708
13556 1 10.9553 3.5242 61.8178
19074 2 10.0507 5.14992 63.0721
13221 1 11.8737 5.16888 64.3506
13226 1 13.6833 5.13167 61.7979
18773 2 15.507 5.14992 63.0721
19099 2 12.779 3.54172 63.0921
13220 1 14.602 3.55995 64.3708
13243 1 16.4116 3.5242 61.8178
18772 2 18.2353 3.54172 63.0921
12962 1 17.33 5.16888 64.3506
12972 1 19.1395 5.13167 61.7979
18535 2 20.9632 5.14992 63.0721
12971 1 20.0583 3.55995 64.3708
13854 1 2.77048 8.34738 61.7544
14155 1 0.0424926 6.73939 61.7767
19691 2 1.86617 6.75831 63.0508
13806 1 0.961009 8.38721 64.3063
13853 1 5.49873 6.73939 61.7767
19374 2 4.59414 8.36692 63.0283
13852 1 3.68924 6.77796 64.3291
13526 1 8.22672 8.34738 61.7544
19415 2 7.32241 6.75831 63.0508
13521 1 6.41725 8.38721 64.3063
13520 1 9.14548 6.77796 64.3291
13559 1 10.955 6.73939 61.7767
19073 2 10.0504 8.36692 63.0283
13198 1 11.8735 8.38721 64.3063
13225 1 13.683 8.34738 61.7544
18758 2 15.5066 8.36692 63.0283
19072 2 12.7787 6.75831 63.0508
13223 1 14.6017 6.77796 64.3291
13224 1 16.4112 6.73939 61.7767
18775 2 18.2349 6.75831 63.0508
12961 1 17.3297 8.38721 64.3063
12965 1 19.1392 8.34738 61.7544
18534 2 20.9629 8.36692 63.0283
12960 1 20.058 6.77796 64.3291
13810 1 2.77029 11.5643 61.706
14118 1 0.0422539 9.95567 61.7308
19692 2 1.86588 9.97577 63.0046
13805 1 0.960862 11.6063 64.2571
13856 1 5.49849 9.95567 61.7308
19373 2 4.59388 11.5849 62.9796
13804 1 3.68904 9.99664 64.2823
13525 1 8.22653 11.5643 61.706
19372 2 7.32212 9.97577 63.0046
13482 1 6.4171 11.6063 64.2571
13523 1 9.14528 9.99664 64.2823
13524 1 10.9547 9.95567 61.7308
19042 2 10.0501 11.5849 62.9796
13197 1 11.8733 11.6063 64.2571
13202 1 13.6828 11.5643 61.706
18757 2 15.5064 11.5849 62.9796
19075 2 12.7784 9.97577 63.0046
13196 1 14.6015 9.99664 64.2823
13227 1 16.411 9.95567 61.7308
18756 2 18.2346 9.97577 63.0046
12946 1 17.3296 11.6063 64.2571
12964 1 19.139 11.5643 61.706
18527 2 20.9626 11.5849 62.9796
12963 1 20.0578 9.99664 64.2823
13809 1 2.77015 14.7827 61.6526
14119 1 0.042103 13.1733 61.6799
19651 2 1.86564 13.1942 62.9534
13760 1 0.960751 14.8261 64.2028
13808 1 5.49834 13.1733 61.6799
19327 2 4.59363 14.8039 62.9261
13807 1 3.68893 13.2161 64.2305
13486 1 8.22639 14.7827 61.6526
19375 2 7.32188 13.1942 62.9534
13480 1 9.14517 13.2161 64.2305
13481 1 6.41699 14.8261 64.2028
13527 1 10.9546 13.1733 61.6799
19041 2 10.0499 14.8039 62.9261
13166 1 11.8732 14.8261 64.2028
13201 1 13.6826 14.7827 61.6526
18734 2 15.5061 14.8039 62.9261
19040 2 12.7781 13.1942 62.9534
13199 1 14.6014 13.2161 64.2305
13200 1 16.4108 13.1733 61.6799
18759 2 18.2344 13.1942 62.9534
12945 1 17.3295 14.8261 64.2028
12949 1 19.1389 14.7827 61.6526
18526 2 20.9623 14.8039 62.9261
12944 1 20.0576 13.2161 64.2305
14082 1 0.0419462 16.3925 61.6241
19652 2 1.86535 16.4138 62.8975
13811 1 5.49818 16.3925 61.6241
13758 1 3.68878 16.4363 64.1739
19325 2 7.32159 16.4138 62.8975
13483 1 9.14502 16.4363 64.1739
13484 1 10.9544 16.3925 61.6241
19043 2 12.7778 16.4138 62.8975
13164 1 14.6013 16.4363 64.1739
13203 1 16.4107 16.3925 61.6241
18732 2 18.2341 16.4138 62.8975
12947 1 20.0575 16.4363 64.1739
13764 1 2.76993 18.0027 61.5944
13759 1 0.960524 18.0466 64.1439
14083 1 0.0416133 19.6133 61.5636
19612 2 1.86484 19.6345 62.8372
19326 2 4.59326 18.024 62.8679
13762 1 5.49785 19.6133 61.5636
13761 1 3.68842 19.6572 64.1129
13485 1 8.22617 18.0027 61.5944
13436 1 6.41676 18.0466 64.1439
19328 2 7.32108 19.6345 62.8372
13434 1 9.14466 19.6572 64.1129
19002 2 10.0495 18.024 62.8679
13165 1 11.873 18.0466 64.1439
13487 1 10.9541 19.6133 61.5636
13170 1 13.6824 18.0027 61.5944
18733 2 15.5057 18.024 62.8679
19000 2 12.7773 19.6345 62.8372
13167 1 14.6009 19.6572 64.1129
12923 1 17.3292 18.0466 64.1439
13168 1 16.4103 19.6133 61.5636
18735 2 18.2336 19.6345 62.8372
12948 1 19.1386 18.0027 61.5944
18511 2 20.962 18.024 62.8679
12921 1 20.0571 19.6572 64.1129
13763 1 2.76942 21.2243 61.5319
14050 1 0.0408524 22.8357 61.4992
19613 2 1.86387 22.8562 62.7733
13720 1 0.959966 21.2678 64.0811
13765 1 5.49709 22.8357 61.4992
19280 2 4.59255 21.2453 62.8056
13718 1 3.68761 22.8785 64.0485
13440 1 8.22566 21.2243 61.5319
19278 2 7.32011 22.8562 62.7733
13435 1 6.4162 21.2678 64.0811
13437 1 9.14385 22.8785 64.0485
13438 1 10.9533 22.8357 61.4992
19001 2 10.0488 21.2453 62.8056
13130 1 11.8724 21.2678 64.0811
13169 1 13.6819 21.2243 61.5319
18703 2 15.505 21.2453 62.8056
19003 2 12.7764 22.8562 62.7733
13128 1 14.6001 22.8785 64.0485
13171 1 16.4096 22.8357 61.4992
18701 2 18.2326 22.8562 62.7733
12922 1 17.3287 21.2678 64.0811
12926 1 19.1381 21.2243 61.5319
18510 2 20.9613 21.2453 62.8056
12924 1 20.0563 22.8785 64.0485
19580 2 1.86221 26.0785 62.7073
13719 1 0.958839 24.4892 64.0155
19279 2 4.59127 24.4673 62.7405
13721 1 3.68611 26.0998 63.9822
19281 2 7.31845 26.0785 62.7073
13389 1 9.14234 26.0998 63.9822
13391 1 6.41508 24.4892 64.0155
18958 2 10.0475 24.4673 62.7405
13129 1 11.8713 24.4892 64.0155
18702 2 15.5037 24.4673 62.7405
18956 2 12.7747 26.0785 62.7073
13131 1 14.5986 26.0998 63.9822
18704 2 18.2309 26.0785 62.7073
12899 1 17.3276 24.4892 64.0155
18491 2 20.96 24.4673 62.7405
12897 1 20.0548 26.0998 63.9822
19581 2 1.85966 29.3008 62.641
13688 1 0.956911 27.7102 63.9489
19240 2 4.58918 27.6897 62.674
13686 1 3.68372 29.3204 63.916
19238 2 7.3159 29.3008 62.641
13390 1 6.41315 27.7102 63.9489
13392 1 9.13996 29.3204 63.916
18957 2 10.0454 27.6897 62.674
13094 1 11.8694 27.7102 63.9489
18671 2 15.5017 27.6897 62.674
18959 2 12.7721 29.3008 62.641
13092 1 14.5962 29.3204 63.916
18669 2 18.2284 29.3008 62.641
12898 1 17.3256 27.7102 63.9489
18490 2 20.9579 27.6897 62.674
12900 1 20.0524 29.3204 63.916
19556 2 1.8562 32.5223 62.577
13687 1 0.954063 30.9303 63.8837
19239 2 4.58615 30.9116 62.6085
13689 1 3.68044 32.5398 63.8524
19241 2 7.31243 32.5223 62.577
13351 1 9.13667 32.5398 63.8524
13353 1 6.4103 30.9303 63.8837
18915 2 10.0424 30.9116 62.6085
13093 1 11.8665 30.9303 63.8837
18670 2 15.4986 30.9116 62.6085
18913 2 12.7687 32.5223 62.577
13095 1 14.5929 32.5398 63.8524
18672 2 18.2249 32.5223 62.577
12875 1 17.3228 30.9303 63.8837
18471 2 20.9549 30.9116 62.6085
12873 1 20.0492 32.5398 63.8524
13664 1 0.950413 34.1489 63.8225
19208 2 4.5823 34.1326 62.5468
13352 1 6.40665 34.1489 63.8225
18914 2 10.0385 34.1326 62.5468
13059 1 11.8629 34.1489 63.8225
18639 2 15.4948 34.1326 62.5468
12874 1 17.3191 34.1489 63.8225
18470 2 20.951 34.1326 62.5468
19557 2 1.85206 35.7426 62.5183
13663 1 0.946332 37.3658 63.7684
13662 1 3.6765 35.7576 63.7943
19207 2 4.57801 37.3521 62.492
19206 2 7.30829 35.7426 62.5183
13354 1 9.13274 35.7576 63.7943
13323 1 6.40257 37.3658 63.7684
18879 2 10.0343 37.3521 62.492
13058 1 11.8588 37.3658 63.7684
18916 2 12.7645 35.7426 62.5183
13057 1 14.589 35.7576 63.7943
18638 2 15.4905 37.3521 62.492
18637 2 18.2208 35.7426 62.5183
12851 1 17.315 37.3658 63.7684
12876 1 20.0452 35.7576 63.7943
18451 2 20.9467 37.3521 62.492
19540 2 1.84778 38.9614 62.4683
13648 1 0.942464 40.5808 63.7245
19184 2 4.57392 40.5702 62.4474
13665 1 3.67246 38.9735 63.745
19209 2 7.30402 38.9614 62.4683
13321 1 9.1287 38.9735 63.745
13322 1 6.3987 40.5808 63.7245
18878 2 10.0302 40.5702 62.4474
13031 1 11.8549 40.5808 63.7245
18608 2 15.4864 40.5702 62.4474
18877 2 12.7603 38.9614 62.4683
13060 1 14.5849 38.9735 63.745
18640 2 18.2165 38.9614 62.4683
12850 1 17.3112 40.5808 63.7245
18450 2 20.9426 40.5702 62.4474
12849 1 20.0412 38.9735 63.745
19541 2 1.84405 42.1788 62.4299
13647 1 0.939456 43.7942 63.6937
19183 2 4.57073 43.787 62.416
13646 1 3.66893 42.1877 63.7073
19182 2 7.30029 42.1788 62.4299
13301 1 6.39569 43.7942 63.6937
13324 1 9.12517 42.1877 63.7073
18851 2 10.027 43.787 62.416
13030 1 11.8519 43.7942 63.6937
18607 2 15.4832 43.787 62.416
18880 2 12.7565 42.1788 62.4299
13029 1 14.5814 42.1877 63.7073
18606 2 18.2128 42.1788 62.4299
12828 1 17.3082 43.7942 63.6937
18431 2 20.9394 43.787 62.416
12852 1 20.0376 42.1877 63.7073
19532 2 1.84156 45.3951 62.4059
13640 1 0.937894 47.0065 63.678
19168 2 4.56907 47.003 62.4
13649 1 3.66659 45.4004 63.6838
19185 2 7.2978 45.3951 62.4059
13299 1 9.12282 45.4004 63.6838
13300 1 6.39413 47.0065 63.678
18850 2 10.0253 47.003 62.4
13011 1 11.8504 47.0065 63.678
18584 2 15.4815 47.003 62.4
18849 2 12.754 45.3951 62.4059
13032 1 14.5791 45.4004 63.6838
18609 2 18.2103 45.3951 62.4059
12827 1 17.3066 47.0065 63.678
18430 2 20.9378 47.003 62.4
12826 1 20.0353 45.4004 63.6838
19533 2 1.84081 48.6108 62.3982
13639 1 0.938108 50.2185 63.6786
19167 2 4.56928 50.2186 62.4007
13638 1 3.66589 48.6125 63.6762
19166 2 7.29705 48.6108 62.3982
13284 1 6.39435 50.2185 63.6786
13302 1 9.12213 48.6125 63.6762
18828 2 10.0255 50.2186 62.4007
13010 1 11.8506 50.2185 63.6786
18583 2 15.4818 50.2186 62.4007
18852 2 12.7533 48.6108 62.3982
13009 1 14.5784 48.6125 63.6762
18582 2 18.2095 48.6108 62.3982
12809 1 17.3068 50.2185 63.6786
18411 2 20.938 50.2186 62.4007
12829 1 20.0346 48.6125 63.6762
19410 2 2.78557 1.96762 65.6631
19729 2 0.0577257 0.358165 65.681
13847 1 1.88057 0.375765 66.9621
19409 2 5.51396 0.358165 65.681
13518 1 4.60841 1.98596 66.944
19070 2 8.24181 1.96762 65.6631
13552 1 7.33681 0.375765 66.9621
19096 2 10.9702 0.358165 65.681
13218 1 10.0647 1.98596 66.944
18770 2 13.698 1.96762 65.6631
12958 1 15.5209 1.98596 66.944
13217 1 12.793 0.375765 66.9621
18769 2 16.4264 0.358165 65.681
12968 1 18.2493 0.375765 66.9621
18533 2 19.1543 1.96762 65.6631
12784 1 20.9771 1.98596 66.944
19370 2 2.7851 5.18687 65.6237
19689 2 0.0572021 3.57719 65.644
13848 1 1.88004 3.59624 66.9248
19411 2 5.51344 3.57719 65.644
13517 1 4.60794 5.20659 66.9043
19069 2 8.24134 5.18687 65.6237
13516 1 7.33628 3.59624 66.9248
19068 2 10.9697 3.57719 65.644
13194 1 10.0642 5.20659 66.9043
18754 2 13.6976 5.18687 65.6237
12957 1 15.5204 5.20659 66.9043
13219 1 12.7925 3.59624 66.9248
18771 2 16.4259 3.57719 65.644
12956 1 18.2488 3.59624 66.9248
18532 2 19.1538 5.18687 65.6237
12783 1 20.9767 5.20659 66.9043
19369 2 2.78474 8.40659 65.5793
19690 2 0.0567858 6.79667 65.6021
13802 1 1.87964 6.81701 66.8825
19368 2 5.51302 6.79667 65.6021
13478 1 4.60761 8.42748 66.8595
19038 2 8.24098 8.40659 65.5793
13519 1 7.33588 6.81701 66.8825
19071 2 10.9693 6.79667 65.6021
13193 1 10.0638 8.42748 66.8595
18753 2 13.6972 8.40659 65.5793
12942 1 15.5201 8.42748 66.8595
13192 1 12.7921 6.81701 66.8825
18752 2 16.4255 6.79667 65.6021
12959 1 18.2484 6.81701 66.8825
18525 2 19.1535 8.40659 65.5793
12782 1 20.9763 8.42748 66.8595
19323 2 2.78446 11.6268 65.5299
19649 2 0.0564743 10.0166 65.5552
13803 1 1.87937 10.038 66.8352
19371 2 5.51271 10.0166 65.5552
13477 1 4.60739 11.6486 66.8097
19037 2 8.2407 11.6268 65.5299
13476 1 7.33561 10.038 66.8352
19036 2 10.969 10.0166 65.5552
13162 1 10.0636 11.6486 66.8097
18730 2 13.6969 11.6268 65.5299
12941 1 15.5199 11.6486 66.8097
13195 1 12.7918 10.038 66.8352
18755 2 16.4252 10.0166 65.5552
12940 1 18.2481 10.038 66.8352
18524 2 19.1532 11.6268 65.5299
12775 1 20.9761 11.6486 66.8097
19322 2 2.78419 14.8474 65.4757
19650 2 0.0562163 13.237 65.5034
13756 1 1.87918 13.2591 66.783
19321 2 5.51245 13.237 65.5034
13432 1 4.60721 14.8697 66.755
18998 2 8.24043 14.8474 65.4757
13479 1 7.33542 13.2591 66.783
19039 2 10.9687 13.237 65.5034
13161 1 10.0634 14.8697 66.755
18729 2 13.6967 14.8474 65.4757
12919 1 15.5197 14.8697 66.755
13160 1 12.7917 13.2591 66.783
18728 2 16.4249 13.237 65.5034
12943 1 18.2479 13.2591 66.783
18509 2 19.1529 14.8474 65.4757
12774 1 20.9759 14.8697 66.755
19610 2 0.0558972 16.4578 65.4469
13757 1 1.87896 16.4802 66.7259
19324 2 5.51214 16.4578 65.4469
13430 1 7.3352 16.4802 66.7259
18996 2 10.9684 16.4578 65.4469
13163 1 12.7914 16.4802 66.7259
18731 2 16.4246 16.4578 65.4469
12917 1 18.2477 16.4802 66.7259
19276 2 2.78378 18.0683 65.417
19611 2 0.0553378 19.6787 65.3862
13716 1 1.87851 19.701 66.6648
13431 1 4.6069 18.0906 66.6958
19274 2 5.51158 19.6787 65.3862
18997 2 8.24002 18.0683 65.417
13433 1 7.33475 19.701 66.6648
13126 1 10.0631 18.0906 66.6958
18999 2 10.9678 19.6787 65.3862
18699 2 13.6963 18.0683 65.417
12918 1 15.5194 18.0906 66.6958
13124 1 12.791 19.701 66.6648
18697 2 16.4241 19.6787 65.3862
12920 1 18.2472 19.701 66.6648
18508 2 19.1525 18.0683 65.417
12763 1 20.9756 18.0906 66.6958
19275 2 2.78303 21.2892 65.3547
19578 2 0.0543399 22.8995 65.3225
13717 1 1.87764 22.9211 66.6007
19277 2 5.51058 22.8995 65.3225
13387 1 4.60625 21.3112 66.633
18954 2 8.23926 21.2892 65.3547
13385 1 7.33387 22.9211 66.6007
18952 2 10.9668 22.8995 65.3225
13125 1 10.0625 21.3112 66.633
18698 2 13.6955 21.2892 65.3547
12895 1 15.5187 21.3112 66.633
13127 1 12.7901 22.9211 66.6007
18700 2 16.4231 22.8995 65.3225
12893 1 18.2464 22.9211 66.6007
18489 2 19.1517 21.2892 65.3547
12762 1 20.975 21.3112 66.633
19236 2 2.78174 24.5097 65.2899
19579 2 0.0527283 26.1197 65.2572
13684 1 1.87616 26.1401 66.5353
19234 2 5.50897 26.1197 65.2572
13386 1 4.6051 24.5308 66.568
18953 2 8.23798 24.5097 65.2899
13388 1 7.33239 26.1401 66.5353
18955 2 10.9652 26.1197 65.2572
13090 1 10.0613 24.5308 66.568
18667 2 13.6942 24.5097 65.2899
12894 1 15.5176 24.5308 66.568
13088 1 12.7886 26.1401 66.5353
18665 2 16.4214 26.1197 65.2572
12896 1 18.2449 26.1401 66.5353
18488 2 19.1505 24.5097 65.2899
12751 1 20.9738 24.5308 66.568
19235 2 2.77976 27.7294 65.2245
19554 2 0.0503638 29.3387 65.1923
13685 1 1.87395 29.3575 66.4705
19237 2 5.5066 29.3387 65.1923
13349 1 4.60327 27.749 66.5027
18911 2 8.236 27.7294 65.2245
13347 1 7.33019 29.3575 66.4705
18909 2 10.9628 29.3387 65.1923
13089 1 10.0595 27.749 66.5027
18666 2 13.6922 27.7294 65.2245
12871 1 15.5157 27.749 66.5027
13091 1 12.7864 29.3575 66.4705
18668 2 16.4191 29.3387 65.1923
12869 1 18.2427 29.3575 66.4705
18469 2 19.1485 27.7294 65.2245
12750 1 20.972 27.749 66.5027
19204 2 2.77701 30.9475 65.1607
19555 2 0.0472569 32.5559 65.1303
13660 1 1.87101 32.5726 66.4088
19202 2 5.5035 32.5559 65.1303
13348 1 4.60068 30.9653 66.4391
18910 2 8.23325 30.9475 65.1607
13350 1 7.32725 32.5726 66.4088
18912 2 10.9597 32.5559 65.1303
13055 1 10.0569 30.9653 66.4391
18635 2 13.6895 30.9475 65.1607
12870 1 15.5132 30.9653 66.4391
13053 1 12.7835 32.5726 66.4088
18633 2 16.416 32.5559 65.1303
12872 1 18.2397 32.5726 66.4088
18468 2 19.1457 30.9475 65.1607
12739 1 20.9694 30.9653 66.4391
19203 2 2.77361 34.1638 65.1012
13319 1 4.59745 34.1793 66.38
18875 2 8.22985 34.1638 65.1012
13054 1 10.0537 34.1793 66.38
18634 2 13.6861 34.1638 65.1012
12847 1 15.5099 34.1793 66.38
18449 2 19.1423 34.1638 65.1012
12738 1 20.9662 34.1793 66.38
19538 2 0.0436526 35.7711 65.0739
13661 1 1.86758 35.7853 66.3529
19180 2 2.76991 37.3779 65.0488
19205 2 5.49989 35.7711 65.0739
13318 1 4.59393 37.3904 66.3281
13317 1 7.32382 35.7853 66.3529
18874 2 8.22614 37.3779 65.0488
18873 2 10.9561 35.7711 65.0739
13027 1 10.0502 37.3904 66.3281
13056 1 12.7801 35.7853 66.3529
18604 2 13.6824 37.3779 65.0488
12846 1 15.5064 37.3904 66.3281
18636 2 16.4124 35.7711 65.0739
12845 1 18.2363 35.7853 66.3529
18448 2 19.1386 37.3779 65.0488
12727 1 20.9626 37.3904 66.3281
19179 2 2.7664 40.5901 65.0064
19539 2 0.0399671 38.9842 65.0262
13644 1 1.8641 38.9953 66.3057
19178 2 5.49621 38.9842 65.0262
13297 1 4.59063 40.5997 66.2862
18847 2 8.22264 40.5901 65.0064
13320 1 7.32034 38.9953 66.3057
18876 2 10.9524 38.9842 65.0262
13026 1 10.0469 40.5997 66.2862
18603 2 13.6789 40.5901 65.0064
12824 1 15.5031 40.5997 66.2862
13025 1 12.7766 38.9953 66.3057
18602 2 16.4087 38.9842 65.0262
12848 1 18.2328 38.9953 66.3057
18429 2 19.1351 40.5901 65.0064
12726 1 20.9593 40.5997 66.2862
19164 2 2.76371 43.8006 64.9767
19530 2 0.0368017 42.1955 64.9898
13645 1 1.86111 42.2036 66.2698
19181 2 5.49304 42.1955 64.9898
13296 1 4.58809 43.8072 66.2569
18846 2 8.21995 43.8006 64.9767
13295 1 7.31735 42.2036 66.2698
18845 2 10.9493 42.1955 64.9898
13007 1 10.0443 43.8072 66.2569
18580 2 13.6762 43.8006 64.9767
12823 1 15.5006 43.8072 66.2569
13028 1 12.7736 42.2036 66.2698
18605 2 16.4055 42.1955 64.9898
12822 1 18.2298 42.2036 66.2698
18428 2 19.1324 43.8006 64.9767
12715 1 20.9568 43.8072 66.2569
19163 2 2.76234 47.01 64.9616
19531 2 0.0347208 45.4053 64.9672
13636 1 1.85915 45.4104 66.2476
19162 2 5.49096 45.4053 64.9672
13283 1 4.5868 47.0135 66.242
18827 2 8.21858 47.01 64.9616
13298 1 7.31539 45.4104 66.2476
18848 2 10.9472 45.4053 64.9672
13006 1 10.043 47.0135 66.242
18579 2 13.6748 47.01 64.9616
12808 1 15.4993 47.0135 66.242
13005 1 12.7716 45.4104 66.2476
18578 2 16.4034 45.4053 64.9672
12825 1 18.2279 45.4104 66.2476
18410 2 19.1311 47.01 64.9616
12714 1 20.9555 47.0135 66.242
19153 2 2.76256 50.219 64.9623
19529 2 0.0341248 48.6145 64.96
13637 1 1.8586 48.6165 66.2404
19165 2 5.49036 48.6145 64.96
13282 1 4.58702 50.2194 66.2427
18826 2 8.2188 50.219 64.9623
13281 1 7.31483 48.6165 66.2404
18825 2 10.9466 48.6145 64.96
12992 1 10.0433 50.2194 66.2427
18561 2 13.675 50.219 64.9623
12807 1 15.4995 50.2194 66.2427
13008 1 12.7711 48.6165 66.2404
18581 2 16.4028 48.6145 64.96
12806 1 18.2273 48.6165 66.2404
18409 2 19.1313 50.219 64.9623
12703 1 20.9557 50.2194 66.2427
13514 1 2.79821 2.0196 69.5024
13846 1 0.0704583 0.407858 69.5205
19366 2 0.976381 2.00115 68.2135
13513 1 5.5267 0.407858 69.5205
19408 2 3.70483 0.390084 68.2316
13190 1 8.25445 2.0196 69.5024
19065 2 9.16107 0.390084 68.2316
19066 2 6.43262 2.00115 68.2135
13216 1 10.9829 0.407858 69.5205
18750 2 11.8889 2.00115 68.2135
12954 1 13.7107 2.0196 69.5024
18768 2 14.6173 0.390084 68.2316
12953 1 16.4392 0.407858 69.5205
18530 2 17.3451 2.00115 68.2135
12781 1 19.1669 2.0196 69.5024
18529 2 20.0735 0.390084 68.2316
13474 1 2.79756 5.24313 69.4623
13800 1 0.0697502 3.63136 69.483
19365 2 0.975796 5.22347 68.1737
13515 1 5.52599 3.63136 69.483
19364 2 3.70419 3.61228 68.1943
13189 1 8.2538 5.24313 69.4623
19034 2 6.43203 5.22347 68.1737
19067 2 9.16043 3.61228 68.1943
13188 1 10.9822 3.63136 69.483
18749 2 11.8883 5.22347 68.1737
12938 1 13.71 5.24313 69.4623
18748 2 14.6167 3.61228 68.1943
12955 1 16.4385 3.63136 69.483
18522 2 17.3445 5.22347 68.1737
12780 1 19.1663 5.24313 69.4623
18531 2 20.0729 3.61228 68.1943
13473 1 2.79704 8.46656 69.4173
13801 1 0.0691646 6.85487 69.4405
19319 2 0.975322 8.44596 68.129
13472 1 5.5254 6.85487 69.4405
19367 2 3.70366 6.8347 68.152
13158 1 8.25328 8.46656 69.4173
19032 2 9.1599 6.8347 68.152
19033 2 6.43156 8.44596 68.129
13191 1 10.9816 6.85487 69.4405
18726 2 11.8878 8.44596 68.129
12937 1 13.7095 8.46656 69.4173
18751 2 14.6161 6.8347 68.152
12936 1 16.4379 6.85487 69.4405
18521 2 17.344 8.44596 68.129
12773 1 19.1658 8.46656 69.4173
18520 2 20.0724 6.8347 68.152
13428 1 2.79665 11.6897 69.3673
13754 1 0.0687158 10.0782 69.3929
19318 2 0.974936 11.6685 68.0792
13475 1 5.52495 10.0782 69.3929
19317 2 3.70324 10.0572 68.1047
13157 1 8.25289 11.6897 69.3673
18994 2 6.43117 11.6685 68.0792
19035 2 9.15948 10.0572 68.1047
13156 1 10.9812 10.0782 69.3929
18725 2 11.8874 11.6685 68.0792
12915 1 13.7091 11.6897 69.3673
18724 2 14.6157 10.0572 68.1047
12939 1 16.4374 10.0782 69.3929
18506 2 17.3437 11.6685 68.0792
12772 1 19.1654 11.6897 69.3673
18523 2 20.072 10.0572 68.1047
13427 1 2.79631 14.9121 69.3125
13755 1 0.0683626 13.301 69.3405
19272 2 0.974561 14.8907 68.0248
13426 1 5.5246 13.301 69.3405
19320 2 3.70287 13.2796 68.0526
13122 1 8.25255 14.9121 69.3125
18992 2 9.15911 13.2796 68.0526
18993 2 6.4308 14.8907 68.0248
13159 1 10.9808 13.301 69.3405
18695 2 11.887 14.8907 68.0248
12914 1 13.7088 14.9121 69.3125
18727 2 14.6154 13.2796 68.0526
12913 1 16.4371 13.301 69.3405
18505 2 17.3433 14.8907 68.0248
12761 1 19.165 14.9121 69.3125
18504 2 20.0716 13.2796 68.0526
13714 1 0.0679932 16.523 69.2835
13429 1 5.52423 16.523 69.2835
19270 2 3.70245 16.5016 67.9959
18995 2 9.15869 16.5016 67.9959
13120 1 10.9805 16.523 69.2835
18693 2 14.6149 16.5016 67.9959
12916 1 16.4367 16.523 69.2835
18507 2 20.0712 16.5016 67.9959
13383 1 2.79588 18.1335 69.2535
19271 2 0.974049 18.1124 67.966
13715 1 0.0674404 19.7436 69.2226
13381 1 5.52368 19.7436 69.2226
19273 2 3.7018 19.7228 67.9352
13121 1 8.25211 18.1335 69.2535
18950 2 6.43029 18.1124 67.966
18948 2 9.15803 19.7228 67.9352
18694 2 11.8865 18.1124 67.966
13123 1 10.9799 19.7436 69.2226
12891 1 13.7084 18.1335 69.2535
18696 2 14.6143 19.7228 67.9352
18486 2 17.3428 18.1124 67.966
12889 1 16.4362 19.7436 69.2226
12760 1 19.1646 18.1335 69.2535
18484 2 20.0705 19.7228 67.9352
13382 1 2.79512 21.3534 69.1909
13682 1 0.0664976 22.9627 69.1588
19232 2 0.973196 21.333 67.9038
13384 1 5.52274 22.9627 69.1588
19230 2 3.70072 22.9428 67.8719
13086 1 8.25136 21.3534 69.1909
18949 2 6.42943 21.333 67.9038
18951 2 9.15696 22.9428 67.8719
13084 1 10.979 22.9627 69.1588
18663 2 11.8857 21.333 67.9038
12890 1 13.7076 21.3534 69.1909
18661 2 14.6132 22.9428 67.8719
12892 1 16.4352 22.9627 69.1588
18485 2 17.3419 21.333 67.9038
12749 1 19.1638 21.3534 69.1909
18487 2 20.0694 22.9428 67.8719
13345 1 2.79395 24.5715 69.1266
13683 1 0.065075 26.1796 69.0944
19231 2 0.971879 24.5521 67.8397
13343 1 5.52131 26.1796 69.0944
19233 2 3.69914 26.1609 67.8074
13085 1 8.25019 24.5715 69.1266
18905 2 9.15538 26.1609 67.8074
18907 2 6.42812 24.5521 67.8397
13087 1 10.9776 26.1796 69.0944
18662 2 11.8844 24.5521 67.8397
12867 1 13.7064 24.5715 69.1266
18664 2 14.6116 26.1609 67.8074
12865 1 16.4338 26.1796 69.0944
18466 2 17.3406 24.5521 67.8397
12748 1 19.1627 24.5715 69.1266
18464 2 20.0679 26.1609 67.8074
13344 1 2.79226 27.787 69.0625
13658 1 0.0630471 29.3937 69.0311
19200 2 0.969996 27.7692 67.7754
13346 1 5.51929 29.3937 69.0311
19198 2 3.69692 29.3767 67.7438
13051 1 8.2485 27.787 69.0625
18906 2 6.42623 27.7692 67.7754
18908 2 9.15316 29.3767 67.7438
13049 1 10.9755 29.3937 69.0311
18631 2 11.8825 27.7692 67.7754
12866 1 13.7047 27.787 69.0625
18629 2 14.6094 29.3767 67.7438
12868 1 16.4318 29.3937 69.0311
18465 2 17.3387 27.7692 67.7754
12737 1 19.161 27.787 69.0625
18467 2 20.0656 29.3767 67.7438
13315 1 2.78992 30.9997 69.0006
13659 1 0.0604299 32.6048 68.9712
19199 2 0.967445 30.9836 67.7131
13313 1 5.51667 32.6048 68.9712
19201 2 3.69407 32.5898 67.6835
13050 1 8.24616 30.9997 69.0006
18869 2 9.15031 32.5898 67.6835
18871 2 6.42368 30.9836 67.7131
13052 1 10.9729 32.6048 68.9712
18630 2 11.8799 30.9836 67.7131
12843 1 13.7024 30.9997 69.0006
18632 2 14.6065 32.5898 67.6835
12841 1 16.4291 32.6048 68.9712
18446 2 17.3362 30.9836 67.7131
12736 1 19.1586 30.9997 69.0006
18444 2 20.0628 32.5898 67.6835
13314 1 2.78707 34.2092 68.9432
19176 2 0.96435 34.1953 67.6553
13023 1 8.24331 34.2092 68.9432
18870 2 6.42059 34.1953 67.6553
18600 2 11.8768 34.1953 67.6553
12842 1 13.6995 34.2092 68.9432
18445 2 17.3331 34.1953 67.6553
12725 1 19.1558 34.2092 68.9432
13642 1 0.0574381 35.8128 68.9171
13293 1 2.78402 37.4157 68.8931
19175 2 0.961031 37.404 67.6048
13316 1 5.51368 35.8128 68.9171
19174 2 3.69081 35.8 67.629
18872 2 9.14705 35.8 67.629
13022 1 8.24026 37.4157 68.8931
18843 2 6.41727 37.404 67.6048
13021 1 10.9699 35.8128 68.9171
18599 2 11.8735 37.404 67.6048
18598 2 14.6033 35.8 67.629
12820 1 13.6965 37.4157 68.8931
12844 1 16.4262 35.8128 68.9171
18426 2 17.3297 37.404 67.6048
18447 2 20.0595 35.8 67.629
12724 1 19.1527 37.4157 68.8931
13292 1 2.78117 40.6194 68.8528
13643 1 0.0544126 39.0179 68.8715
19160 2 0.957976 40.6102 67.5641
13291 1 5.51065 39.0179 68.8715
19177 2 3.68757 39.0074 67.583
13003 1 8.23741 40.6194 68.8528
18841 2 9.1438 39.0074 67.583
18842 2 6.41421 40.6102 67.5641
13024 1 10.9669 39.0179 68.8715
18576 2 11.8705 40.6102 67.5641
12819 1 13.6936 40.6194 68.8528
18601 2 14.6 39.0074 67.583
12818 1 16.4231 39.0179 68.8715
18425 2 17.3267 40.6102 67.5641
12713 1 19.1499 40.6194 68.8528
18424 2 20.0563 39.0074 67.583
13279 1 2.77901 43.8209 68.8246
13634 1 0.0518557 42.2204 68.8371
19159 2 0.955649 43.8142 67.5357
13294 1 5.50809 42.2204 68.8371
19158 2 3.68481 42.2124 67.5482
18818 2 4.60254 43.828 70.0901
13002 1 8.23525 43.8209 68.8246
18823 2 6.41189 43.8142 67.5357
18844 2 9.14105 42.2124 67.5482
13001 1 10.9643 42.2204 68.8371
18575 2 11.8681 43.8142 67.5357
18556 2 10.0588 43.828 70.0901
12804 1 13.6915 43.8209 68.8246
18574 2 14.5973 42.2124 67.5482
18402 2 15.515 43.828 70.0901
12821 1 16.4206 42.2204 68.8371
18407 2 17.3244 43.8142 67.5357
12712 1 19.1477 43.8209 68.8246
18427 2 20.0535 42.2124 67.5482
18328 2 20.9713 43.828 70.0901
13278 1 2.77793 47.021 68.8104
13635 1 0.050195 45.4211 68.8157
19152 2 0.954482 47.017 67.5213
19148 2 1.87375 45.4258 70.0814
13277 1 5.50643 45.4211 68.8157
19161 2 3.68302 45.4157 67.5267
18807 2 4.6015 47.0234 70.0763
12991 1 8.23417 47.021 68.8104
18821 2 9.13926 45.4157 67.5267
18822 2 6.41072 47.017 67.5213
18820 2 7.32998 45.4258 70.0814
13004 1 10.9627 45.4211 68.8157
18560 2 11.867 47.017 67.5213
18555 2 10.0577 47.0234 70.0763
12803 1 13.6904 47.021 68.8104
18577 2 14.5955 45.4157 67.5267
18391 2 15.514 47.0234 70.0763
18554 2 12.7862 45.4258 70.0814
12802 1 16.4189 45.4211 68.8157
18406 2 17.3232 47.017 67.5213
18404 2 18.2425 45.4258 70.0814
12702 1 19.1466 47.021 68.8104
18405 2 20.0517 45.4157 67.5267
18327 2 20.9702 47.0234 70.0763
13270 1 2.77816 50.2207 68.811
13633 1 0.0497562 48.6208 68.8089
19151 2 0.954716 50.2193 67.5219
19149 2 1.87334 48.6209 70.0747
13280 1 5.50599 48.6208 68.8089
19150 2 3.68254 48.6181 67.5197
18806 2 4.60175 50.2184 70.0768
12990 1 8.2344 50.2207 68.811
18808 2 6.41095 50.2193 67.5219
18824 2 9.13878 48.6181 67.5197
18805 2 7.32957 48.6209 70.0747
12989 1 10.9622 48.6208 68.8089
18559 2 11.8672 50.2193 67.5219
18545 2 10.058 50.2184 70.0768
12793 1 13.6906 50.2207 68.811
18558 2 14.595 48.6181 67.5197
18390 2 15.5142 50.2184 70.0768
18557 2 12.7858 48.6209 70.0747
12805 1 16.4185 48.6208 68.8089
18392 2 17.3234 50.2193 67.5219
18389 2 18.2421 48.6209 70.0747
12701 1 19.1469 50.2207 68.811
18408 2 20.0513 48.6181 67.5197
18320 2 20.9705 50.2184 70.0768
13470 1 0.982975 2.05344 72.0775
19362 2 1.89557 0.420712 70.7776
13512 1 3.7116 0.440211 72.0958
19030 2 4.62327 2.03343 70.7594
13185 1 9.16784 0.440211 72.0958
13186 1 6.43921 2.05344 72.0775
19064 2 7.3518 0.420712 70.7776
12934 1 11.8955 2.05344 72.0775
18746 2 10.0795 2.03343 70.7594
12952 1 14.6241 0.440211 72.0958
18518 2 15.5357 2.03343 70.7594
18745 2 12.808 0.420712 70.7776
12778 1 17.3517 2.05344 72.0775
18528 2 18.2643 0.420712 70.7776
12777 1 20.0803 0.440211 72.0958
18376 2 20.992 2.03343 70.7594
13469 1 0.982049 5.27975 72.0374
19363 2 1.89475 3.64618 70.74
13468 1 3.71062 3.66663 72.0581
19029 2 4.62249 5.25895 70.7194
13154 1 6.43829 5.27975 72.0374
13187 1 9.16685 3.66663 72.0581
19028 2 7.35099 3.64618 70.74
12933 1 11.8945 5.27975 72.0374
18722 2 10.0787 5.25895 70.7194
12932 1 14.6231 3.66663 72.0581
18517 2 15.535 5.25895 70.7194
18747 2 12.8072 3.64618 70.74
12770 1 17.3508 5.27975 72.0374
18516 2 18.2635 3.64618 70.74
12779 1 20.0793 3.66663 72.0581
18375 2 20.9912 5.25895 70.7194
13424 1 0.981282 8.5056 71.9923
19315 2 1.89403 6.8717 70.6976
13471 1 3.70976 6.89275 72.0155
18990 2 4.62183 8.48439 70.6745
13152 1 9.166 6.89275 72.0155
13153 1 6.43752 8.5056 71.9923
19031 2 7.35026 6.8717 70.6976
12911 1 11.8938 8.5056 71.9923
18721 2 10.0781 8.48439 70.6745
12935 1 14.6222 6.89275 72.0155
18502 2 15.5343 8.48439 70.6745
18720 2 12.8065 6.8717 70.6976
12769 1 17.35 8.5056 71.9923
18519 2 18.2627 6.8717 70.6976
12768 1 20.0785 6.89275 72.0155
18374 2 20.9905 8.48439 70.6745
13423 1 0.980695 11.7306 71.9423
19316 2 1.89341 10.097 70.6502
13422 1 3.70909 10.1182 71.9679
18989 2 4.62126 11.7094 70.6247
13118 1 6.43693 11.7306 71.9423
13155 1 9.16533 10.1182 71.9679
18988 2 7.34965 10.097 70.6502
12910 1 11.8932 11.7306 71.9423
18691 2 10.0775 11.7094 70.6247
12909 1 14.6216 10.1182 71.9679
18501 2 15.5337 11.7094 70.6247
18723 2 12.8059 10.097 70.6502
12758 1 17.3494 11.7306 71.9423
18500 2 18.2621 10.097 70.6502
12771 1 20.0778 10.1182 71.9679
18368 2 20.99 11.7094 70.6247
19268 2 1.89287 13.3217 70.598
13425 1 3.70858 13.3427 71.9156
18946 2 4.62072 14.9336 70.5703
13116 1 9.16481 13.3427 71.9156
18991 2 7.34911 13.3217 70.598
18690 2 10.077 14.9336 70.5703
12912 1 14.6211 13.3427 71.9156
18482 2 15.5332 14.9336 70.5703
18689 2 12.8054 13.3217 70.598
18503 2 18.2616 13.3217 70.598
12756 1 20.0773 13.3427 71.9156
18367 2 20.9894 14.9336 70.5703
13379 1 0.980238 14.9544 71.8877
19269 2 1.8923 16.5452 70.5415
13377 1 3.70814 16.5657 71.8588
13117 1 6.43648 14.9544 71.8877
13119 1 9.16438 16.5657 71.8588
18944 2 7.34854 16.5452 70.5415
12887 1 11.8927 14.9544 71.8877
12885 1 14.6206 16.5657 71.8588
18692 2 12.8048 16.5452 70.5415
12757 1 17.349 14.9544 71.8877
18480 2 18.261 16.5452 70.5415
12759 1 20.0769 16.5657 71.8588
13378 1 0.979782 18.1764 71.8289
19228 2 1.89152 19.767 70.4812
18945 2 4.62007 18.1564 70.5117
13380 1 3.70763 19.7865 71.7982
13082 1 6.43602 18.1764 71.8289
13080 1 9.16387 19.7865 71.7982
18947 2 7.34776 19.767 70.4812
12886 1 11.8923 18.1764 71.8289
18659 2 10.0763 18.1564 70.5117
18481 2 15.5325 18.1564 70.5117
12888 1 14.6201 19.7865 71.7982
18657 2 12.804 19.767 70.4812
12746 1 17.3485 18.1764 71.8289
18483 2 18.2602 19.767 70.4812
18360 2 20.9888 18.1564 70.5117
12744 1 20.0763 19.7865 71.7982
13341 1 0.979204 21.3959 71.7666
19229 2 1.89029 22.9864 70.4184
13339 1 3.70695 23.0045 71.7342
18903 2 4.6191 21.377 70.45
13081 1 6.43544 21.3959 71.7666
13083 1 9.16319 23.0045 71.7342
18901 2 7.34653 22.9864 70.4184
12863 1 11.8917 21.3959 71.7666
18658 2 10.0753 21.377 70.45
12861 1 14.6194 23.0045 71.7342
18462 2 15.5316 21.377 70.45
18660 2 12.8028 22.9864 70.4184
12745 1 17.3479 21.3959 71.7666
18460 2 18.259 22.9864 70.4184
12747 1 20.0757 23.0045 71.7342
18359 2 20.9878 21.377 70.45
13340 1 0.978276 24.6122 71.7028
19196 2 1.88876 26.2028 70.3549
19195 2 0.0766773 26.2458 72.8902
13342 1 3.70573 26.2191 71.6714
18902 2 4.61772 24.595 70.3866
18861 2 5.53292 26.2458 72.8902
13045 1 9.16196 26.2191 71.6714
13047 1 6.43451 24.6122 71.7028
18904 2 7.345 26.2028 70.3549
12862 1 11.8908 24.6122 71.7028
18627 2 10.074 24.595 70.3866
18624 2 10.9892 26.2458 72.8902
12864 1 14.6182 26.2191 71.6714
18461 2 15.5302 24.595 70.3866
18625 2 12.8012 26.2028 70.3549
12734 1 17.347 24.6122 71.7028
18463 2 18.2575 26.2028 70.3549
18436 2 16.4454 26.2458 72.8902
12732 1 20.0744 26.2191 71.6714
18352 2 20.9864 24.595 70.3866
13311 1 0.976831 27.8251 71.6401
19197 2 1.88663 29.4157 70.2925
18862 2 2.80387 27.8515 72.8592
19170 2 0.0746833 29.4561 72.8288
13309 1 3.70406 29.4302 71.6094
18867 2 4.61589 27.8097 70.3234
18864 2 5.53092 29.4561 72.8288
13046 1 6.43307 27.8251 71.6401
13048 1 9.16029 29.4302 71.6094
18865 2 7.34287 29.4157 70.2925
18592 2 8.26011 27.8515 72.8592
12839 1 11.8893 27.8251 71.6401
18626 2 10.0721 27.8097 70.3234
18590 2 10.9872 29.4561 72.8288
12837 1 14.6165 29.4302 71.6094
18442 2 15.5284 27.8097 70.3234
18628 2 12.7991 29.4157 70.2925
18437 2 13.7163 27.8515 72.8592
12733 1 17.3455 27.8251 71.6401
18440 2 18.2553 29.4157 70.2925
18439 2 16.4434 29.4561 72.8288
12735 1 20.0728 29.4302 71.6094
18351 2 20.9846 27.8097 70.3234
18342 2 19.1726 27.8515 72.8592
13310 1 0.97492 31.0343 71.5796
19172 2 1.88395 32.6247 70.2335
18835 2 2.8016 31.0593 72.7993
19171 2 0.0721509 32.6612 72.771
13312 1 3.70191 32.6374 71.551
18866 2 4.61347 31.0207 70.2624
18833 2 5.52839 32.6612 72.771
13017 1 9.15815 32.6374 71.551
13019 1 6.43116 31.0343 71.5796
18868 2 7.34019 32.6247 70.2335
18591 2 8.25783 31.0593 72.7993
12838 1 11.8874 31.0343 71.5796
18596 2 10.0697 31.0207 70.2624
18593 2 10.9846 32.6612 72.771
12840 1 14.6144 32.6374 71.551
18441 2 15.5259 31.0207 70.2624
18594 2 12.7964 32.6247 70.2335
18418 2 13.7141 31.0593 72.7993
12722 1 17.3436 31.0343 71.5796
18443 2 18.2527 32.6247 70.2335
18416 2 16.4409 32.6612 72.771
12720 1 20.0706 32.6374 71.551
18344 2 20.9822 31.0207 70.2624
18341 2 19.1703 31.0593 72.7993
13289 1 0.972583 34.2396 71.5238
18834 2 2.79885 34.2618 72.7442
18839 2 4.61058 34.2277 70.206
13018 1 6.42882 34.2396 71.5238
18568 2 8.25509 34.2618 72.7442
12816 1 11.8851 34.2396 71.5238
18595 2 10.0668 34.2277 70.206
18422 2 15.5231 34.2277 70.206
18417 2 13.7113 34.2618 72.7442
12721 1 17.3413 34.2396 71.5238
18343 2 20.9793 34.2277 70.206
18334 2 19.1676 34.2618 72.7442
19173 2 1.88092 35.8298 70.1804
13288 1 0.97006 37.441 71.4752
19154 2 0.0692597 35.8611 72.7192
18815 2 2.7959 37.4593 72.6963
13287 1 3.69944 35.8408 71.4984
18838 2 4.60751 37.431 70.157
18836 2 5.5255 35.8611 72.7192
13020 1 9.15568 35.8408 71.4984
18837 2 7.33716 35.8298 70.1804
12999 1 6.4263 37.441 71.4752
18567 2 8.25214 37.4593 72.6963
12815 1 11.8825 37.441 71.4752
18572 2 10.0637 37.431 70.157
18566 2 10.9817 35.8611 72.7192
12814 1 14.6119 35.8408 71.4984
18597 2 12.7934 35.8298 70.1804
18421 2 15.52 37.431 70.157
18399 2 13.7084 37.4593 72.6963
18420 2 18.2496 35.8298 70.1804
12710 1 17.3388 37.441 71.4752
18419 2 16.438 35.8611 72.7192
12723 1 20.0682 35.8408 71.4984
18336 2 20.9762 37.431 70.157
18333 2 19.1646 37.4593 72.6963
13275 1 0.967715 40.639 71.4362
19156 2 1.87791 39.0313 70.1359
18814 2 2.79317 40.6524 72.658
19155 2 0.0663619 39.0564 72.6758
13290 1 3.69696 39.0404 71.4543
18819 2 4.60467 40.6308 70.1176
18813 2 5.5226 39.0564 72.6758
12997 1 9.1532 39.0404 71.4543
12998 1 6.42395 40.639 71.4362
18840 2 7.33415 39.0313 70.1359
18552 2 8.24941 40.6524 72.658
12800 1 11.8802 40.639 71.4362
18571 2 10.0609 40.6308 70.1176
18569 2 10.9788 39.0564 72.6758
12817 1 14.6094 39.0404 71.4543
18403 2 15.5172 40.6308 70.1176
18570 2 12.7904 39.0313 70.1359
18398 2 13.7056 40.6524 72.658
12709 1 17.3364 40.639 71.4362
18423 2 18.2466 39.0313 70.1359
18397 2 16.4351 39.0564 72.6758
12708 1 20.0657 39.0404 71.4543
18335 2 20.9734 40.6308 70.1176
18326 2 19.1619 40.6524 72.658
13274 1 0.965951 43.8342 71.409
19157 2 1.87537 42.2297 70.1022
18803 2 2.79111 43.842 72.6313
19146 2 0.0639067 42.2476 72.6431
13273 1 3.69486 42.2369 71.421
18816 2 5.52015 42.2476 72.6431
12987 1 6.42219 43.8342 71.409
13000 1 9.15109 42.2369 71.421
18817 2 7.33161 42.2297 70.1022
18551 2 8.24734 43.842 72.6313
12799 1 11.8784 43.8342 71.409
18550 2 10.9764 42.2476 72.6431
12798 1 14.6073 42.2369 71.421
18573 2 12.7879 42.2297 70.1022
18387 2 13.7036 43.842 72.6313
12699 1 17.3347 43.8342 71.409
18401 2 18.2441 42.2297 70.1022
18400 2 16.4326 42.2476 72.6431
12711 1 20.0636 42.2369 71.421
18325 2 19.1598 43.842 72.6313
13269 1 0.965101 47.0276 71.3953
18802 2 2.7901 47.0294 72.6178
19147 2 0.0623345 45.4359 72.6228
13276 1 3.69351 45.431 71.4004
18801 2 5.51857 45.4359 72.6228
12985 1 9.14975 45.431 71.4004
12986 1 6.42134 47.0276 71.3953
18544 2 8.24634 47.0294 72.6178
12792 1 11.8776 47.0276 71.3953
18553 2 10.9748 45.4359 72.6228
12801 1 14.606 45.431 71.4004
18386 2 13.7026 47.0294 72.6178
12698 1 17.3338 47.0276 71.3953
18385 2 16.431 45.4359 72.6228
12697 1 20.0622 45.431 71.4004
18319 2 19.1588 47.0294 72.6178
13268 1 0.965351 50.2206 71.3958
18796 2 2.79038 50.2162 72.6183
19145 2 0.0619592 48.6228 72.6163
13267 1 3.6932 48.6241 71.3938
18804 2 5.5182 48.6228 72.6163
12980 1 6.42159 50.2206 71.3958
12988 1 9.14944 48.6241 71.3938
18543 2 8.24662 50.2162 72.6183
12791 1 11.8778 50.2206 71.3958
18542 2 10.9744 48.6228 72.6163
12790 1 14.6057 48.6241 71.3938
18380 2 13.7029 50.2162 72.6183
12692 1 17.3341 50.2206 71.3958
18388 2 16.4307 48.6228 72.6163
12700 1 20.0619 48.6241 71.3938
18318 2 19.1591 50.2162 72.6183
13466 1 1.83705 0.481614 74.7468
18982 2 0.972954 2.10082 75.7651
19026 2 2.81201 2.06471 73.2909
19361 2 0.0844307 0.450309 73.3091
13150 1 4.56448 2.0956 74.7286
19024 2 3.70177 0.485405 75.7832
19025 2 5.54067 0.450309 73.3091
13184 1 7.29329 0.481614 74.7468
18713 2 9.15801 0.485405 75.7832
18714 2 6.42919 2.10082 75.7651
18718 2 8.26825 2.06471 73.2909
12930 1 10.0207 2.0956 74.7286
18494 2 11.8854 2.10082 75.7651
18744 2 10.9969 0.450309 73.3091
12766 1 15.477 2.0956 74.7286
12929 1 12.7495 0.481614 74.7468
18512 2 14.6143 0.485405 75.7832
18514 2 13.7245 2.06471 73.2909
12776 1 18.2058 0.481614 74.7468
18370 2 17.3417 2.10082 75.7651
18513 2 16.4531 0.450309 73.3091
12688 1 20.9332 2.0956 74.7286
18369 2 20.0705 0.485405 75.7832
18373 2 19.1807 2.06471 73.2909
13467 1 1.83574 3.70934 74.7092
18981 2 0.971657 5.33132 75.7253
18986 2 2.811 5.29353 73.2509
19313 2 0.0833735 3.67913 73.2715
13149 1 4.56332 5.32281 74.6886
18980 2 3.7004 3.71614 75.7458
19027 2 5.53961 3.67913 73.2715
13148 1 7.29198 3.70934 74.7092
18683 2 6.4279 5.33132 75.7253
18715 2 9.15664 3.71614 75.7458
18717 2 8.26724 5.29353 73.2509
12907 1 10.0196 5.32281 74.6886
18493 2 11.8841 5.33132 75.7253
18716 2 10.9959 3.67913 73.2715
12765 1 15.4758 5.32281 74.6886
12931 1 12.7482 3.70934 74.7092
18492 2 14.6129 3.71614 75.7458
18498 2 13.7235 5.29353 73.2509
12764 1 18.2045 3.70934 74.7092
18363 2 17.3404 5.33132 75.7253
18515 2 16.4521 3.67913 73.2715
12687 1 20.932 5.32281 74.6886
18371 2 20.0691 3.71614 75.7458
18372 2 19.1797 5.29353 73.2509
13420 1 1.83477 6.93596 74.6668
18938 2 0.970616 8.56106 75.6809
18985 2 2.8101 8.5221 73.2061
19314 2 0.0824129 6.90787 73.2291
13114 1 4.56259 8.54878 74.6438
18983 2 3.69922 6.94631 75.7037
18984 2 5.53865 6.90787 73.2291
13151 1 7.29101 6.93596 74.6668
18681 2 9.15545 6.94631 75.7037
18682 2 6.42685 8.56106 75.6809
18687 2 8.26634 8.5221 73.2061
12906 1 10.0188 8.54878 74.6438
18474 2 11.8831 8.56106 75.6809
18719 2 10.9949 6.90787 73.2291
12754 1 15.4751 8.54878 74.6438
12905 1 12.7472 6.93596 74.6668
18495 2 14.6117 6.94631 75.7037
18497 2 13.7226 8.5221 73.2061
12767 1 18.2035 6.93596 74.6668
18362 2 17.3393 8.56106 75.6809
18496 2 16.4511 6.90787 73.2291
12686 1 20.9313 8.54878 74.6438
18361 2 20.0679 6.94631 75.7037
18366 2 19.1788 8.5221 73.2061
13421 1 1.83433 10.1612 74.6196
18937 2 0.96993 11.7896 75.6319
18942 2 2.80935 11.7499 73.1565
19266 2 0.081592 10.1362 73.1819
13113 1 4.56248 11.7733 74.5943
18936 2 3.69834 10.1755 75.657
18987 2 5.53783 10.1362 73.1819
13112 1 7.29057 10.1612 74.6196
18651 2 6.42617 11.7896 75.6319
18684 2 9.15458 10.1755 75.657
18686 2 8.26559 11.7499 73.1565
12883 1 10.0187 11.7733 74.5943
18473 2 11.8824 11.7896 75.6319
18685 2 10.9941 10.1362 73.1819
12753 1 15.475 11.7733 74.5943
12908 1 12.7468 10.1612 74.6196
18472 2 14.6108 10.1755 75.657
18478 2 13.7218 11.7499 73.1565
12752 1 18.203 10.1612 74.6196
18355 2 17.3386 11.7896 75.6319
18499 2 16.4503 10.1362 73.1819
12685 1 20.9312 11.7733 74.5943
18364 2 20.0671 10.1755 75.657
18365 2 19.1781 11.7499 73.1565
13375 1 1.83456 13.3848 74.5678
19267 2 0.0808941 13.3634 73.13
18939 2 3.69785 13.4032 75.6058
18940 2 5.53713 13.3634 73.13
13115 1 7.2908 13.3848 74.5678
18649 2 9.15408 13.4032 75.6058
18688 2 10.9934 13.3634 73.13
12881 1 12.747 13.3848 74.5678
18475 2 14.6103 13.4032 75.6058
12755 1 18.2033 13.3848 74.5678
18476 2 16.4496 13.3634 73.13
18353 2 20.0666 13.4032 75.6058
18895 2 0.969603 15.0162 75.5787
18941 2 2.80868 14.9764 73.1024
13376 1 1.8355 16.6065 74.5117
19226 2 0.0802185 16.5888 73.0739
13078 1 4.56307 14.9959 74.5402
18893 2 3.69767 16.6285 75.5508
18943 2 5.53646 16.5888 73.0739
18650 2 6.42584 15.0162 75.5787
18655 2 8.26492 14.9764 73.1024
13076 1 7.29174 16.6065 74.5117
18652 2 9.1539 16.6285 75.5508
12882 1 10.0193 14.9959 74.5402
18454 2 11.8821 15.0162 75.5787
18653 2 10.9927 16.5888 73.0739
12742 1 15.4755 14.9959 74.5402
18477 2 13.7212 14.9764 73.1024
12884 1 12.748 16.6065 74.5117
18452 2 14.6101 16.6285 75.5508
18354 2 17.3383 15.0162 75.5787
12740 1 18.2042 16.6065 74.5117
18479 2 16.4489 16.5888 73.0739
12684 1 20.9318 14.9959 74.5402
18358 2 19.1774 14.9764 73.1024
18356 2 20.0664 16.6285 75.5508
18894 2 0.969505 18.2401 75.5221
18899 2 2.80794 18.2007 73.0445
13337 1 1.83704 19.8257 74.4523
19227 2 0.0793955 19.8117 73.0144
13077 1 4.56433 18.2165 74.4824
18896 2 3.69761 19.8508 75.4929
18897 2 5.53563 19.8117 73.0144
18619 2 6.42574 18.2401 75.5221
18654 2 8.26418 18.2007 73.0445
13079 1 7.29328 19.8257 74.4523
18617 2 9.15385 19.8508 75.4929
12859 1 10.0206 18.2165 74.4824
18453 2 11.882 18.2401 75.5221
18656 2 10.9919 19.8117 73.0144
12741 1 15.4768 18.2165 74.4824
18458 2 13.7204 18.2007 73.0445
12857 1 12.7495 19.8257 74.4523
18455 2 14.6101 19.8508 75.4929
18347 2 17.3382 18.2401 75.5221
12743 1 18.2058 19.8257 74.4523
18456 2 16.4481 19.8117 73.0144
12683 1 20.933 18.2165 74.4824
18357 2 19.1767 18.2007 73.0445
18345 2 20.0663 19.8508 75.4929
13338 1 1.83929 23.0414 74.3907
18859 2 0.9695 21.4604 75.4634
18898 2 2.80695 21.4219 72.9838
19194 2 0.0780625 23.0309 72.9528
13043 1 4.56619 21.4342 74.4218
18857 2 3.69755 23.0689 75.4338
18900 2 5.5343 23.0309 72.9528
13041 1 7.29553 23.0414 74.3907
18618 2 6.42574 21.4604 75.4634
18620 2 9.15379 23.0689 75.4338
18623 2 8.26318 21.4219 72.9838
12858 1 10.0224 21.4342 74.4218
18434 2 11.882 21.4604 75.4634
18621 2 10.9905 23.0309 72.9528
12730 1 15.4787 21.4342 74.4218
12860 1 12.7518 23.0414 74.3907
18432 2 14.61 23.0689 75.4338
18457 2 13.7194 21.4219 72.9838
12728 1 18.208 23.0414 74.3907
18346 2 17.3382 21.4604 75.4634
18459 2 16.4468 23.0309 72.9528
12682 1 20.9349 21.4342 74.4218
18348 2 20.0663 23.0689 75.4338
18350 2 19.1757 21.4219 72.9838
13307 1 1.84131 26.2532 74.3281
18858 2 0.969415 24.6762 75.4031
18863 2 2.80558 24.6388 72.9215
13042 1 4.56837 24.6476 74.3595
18860 2 3.69742 26.2823 75.3725
13044 1 7.29755 26.2532 74.3281
18586 2 9.15366 26.2823 75.3725
18588 2 6.42565 24.6762 75.4031
18622 2 8.26182 24.6388 72.9215
12835 1 10.0246 24.6476 74.3595
18433 2 11.8819 24.6762 75.4031
12729 1 15.4808 24.6476 74.3595
12833 1 12.7538 26.2532 74.3281
18435 2 14.6099 26.2823 75.3725
18438 2 13.7181 24.6388 72.9215
12731 1 18.21 26.2532 74.3281
18339 2 17.3381 24.6762 75.4031
12681 1 20.9371 24.6476 74.3595
18337 2 20.0661 26.2823 75.3725
18349 2 19.1743 24.6388 72.9215
13308 1 1.8435 29.4616 74.2665
18831 2 0.96915 27.887 75.3422
13015 1 4.57054 27.8579 74.297
18829 2 3.69703 29.4902 75.3126
13013 1 7.29974 29.4616 74.2665
18587 2 6.42539 27.887 75.3422
18589 2 9.15327 29.4902 75.3126
12834 1 10.0268 27.8579 74.297
18414 2 11.8816 27.887 75.3422
12718 1 15.483 27.8579 74.297
12836 1 12.756 29.4616 74.2665
18412 2 14.6095 29.4902 75.3126
12716 1 18.2122 29.4616 74.2665
18338 2 17.3379 27.887 75.3422
12680 1 20.9393 27.8579 74.297
18340 2 20.0657 29.4902 75.3126
13285 1 1.84552 32.6659 74.2083
18830 2 0.968542 31.092 75.2839
13014 1 4.57266 31.0643 74.2368
13016 1 7.30176 32.6659 74.2083
18564 2 6.42478 31.092 75.2839
12812 1 10.0289 31.0643 74.2368
18413 2 11.881 31.092 75.2839
12717 1 15.4851 31.0643 74.2368
12810 1 12.758 32.6659 74.2083
12719 1 18.2142 32.6659 74.2083
18331 2 17.3373 31.092 75.2839
12679 1 20.9414 31.0643 74.2368
18811 2 0.967493 34.2911 75.2304
18832 2 3.69619 32.6923 75.2564
12995 1 4.57454 34.2664 74.1814
18562 2 9.15243 32.6923 75.2564
18563 2 6.42373 34.2911 75.2304
12811 1 10.0308 34.2664 74.1814
18395 2 11.88 34.2911 75.2304
18415 2 14.6087 32.6923 75.2564
12706 1 15.487 34.2664 74.1814
18330 2 17.3362 34.2911 75.2304
18329 2 20.0649 32.6923 75.2564
12678 1 20.9433 34.2664 74.1814
13286 1 1.84726 35.8658 74.1562
18810 2 0.966168 37.4843 75.1841
18809 2 3.69497 35.8885 75.2062
12994 1 4.57615 37.4641 74.1331
12993 1 7.3035 35.8658 74.1562
18565 2 9.15121 35.8885 75.2062
18548 2 6.42241 37.4843 75.1841
12796 1 10.0324 37.4641 74.1331
18394 2 11.8786 37.4843 75.1841
12813 1 12.7597 35.8658 74.1562
18393 2 14.6074 35.8885 75.2062
12705 1 15.4886 37.4641 74.1331
12704 1 18.216 35.8658 74.1562
18323 2 17.3349 37.4843 75.1841
18332 2 20.0637 35.8885 75.2062
12677 1 20.9449 37.4641 74.1331
13271 1 1.84872 39.0613 74.1125
18799 2 0.964847 40.6722 75.1471
12983 1 4.57746 40.6576 74.0945
18812 2 3.69361 39.0789 75.1643
12996 1 7.30496 39.0613 74.1125
18546 2 9.14985 39.0789 75.1643
18547 2 6.42109 40.6722 75.1471
12795 1 10.0337 40.6576 74.0945
18383 2 11.8773 40.6722 75.1471
12695 1 15.4899 40.6576 74.0945
12794 1 12.7612 39.0613 74.1125
18396 2 14.6061 39.0789 75.1643
12707 1 18.2174 39.0613 74.1125
18322 2 17.3336 40.6722 75.1471
12676 1 20.9462 40.6576 74.0945
18321 2 20.0623 39.0789 75.1643
13272 1 1.84988 42.2531 74.0795
18798 2 0.963838 43.8557 75.1215
12982 1 4.57845 43.8478 74.0676
18797 2 3.6924 42.2644 75.1328
12981 1 7.30612 42.2531 74.0795
18540 2 6.42008 43.8557 75.1215
18549 2 9.14864 42.2644 75.1328
12788 1 10.0347 43.8478 74.0676
18382 2 11.8763 43.8557 75.1215
12694 1 15.4909 43.8478 74.0676
12797 1 12.7624 42.2531 74.0795
18381 2 14.6049 42.2644 75.1328
12693 1 18.2186 42.2531 74.0795
18316 2 17.3326 43.8557 75.1215
12675 1 20.9472 43.8478 74.0676
18324 2 20.0611 42.2644 75.1328
13265 1 1.85069 45.442 74.0591
18795 2 0.963397 47.0365 75.1085
12979 1 4.57907 47.0359 74.054
18800 2 3.69165 45.4463 75.1134
12984 1 7.30693 45.442 74.0591
18538 2 9.14789 45.4463 75.1134
18539 2 6.41963 47.0365 75.1085
18379 2 11.8759 47.0365 75.1085
12787 1 10.0353 47.0359 74.054
18384 2 14.6041 45.4463 75.1134
12786 1 12.7632 45.442 74.0591
12691 1 15.4915 47.0359 74.054
18315 2 17.3321 47.0365 75.1085
12696 1 18.2194 45.442 74.0591
18314 2 20.0604 45.4463 75.1134
12674 1 20.9478 47.0359 74.054
18794 2 0.963665 50.2165 75.109
13266 1 1.85111 48.6296 74.0525
18793 2 3.69156 48.6264 75.1071
12978 1 4.57929 50.2233 74.0546
12977 1 7.30735 48.6296 74.0525
18537 2 6.4199 50.2165 75.109
18541 2 9.1478 48.6264 75.1071
12785 1 10.0355 50.2233 74.0546
18378 2 11.8761 50.2165 75.109
12690 1 15.4918 50.2233 74.0546
12789 1 12.7636 48.6296 74.0525
18377 2 14.604 48.6264 75.1071
12689 1 18.2198 48.6296 74.0525
18313 2 17.3324 50.2165 75.109
12673 1 20.948 50.2233 74.0546
18317 2 20.0603 48.6264 75.1071
10351 2 2.75342 51.6876 -4.07748
10343 2 0.92288 51.6874 -1.58423
10366 2 0.0247247 53.279 -4.07206
4096 1 1.86568 53.268 -3.02054
4062 1 4.59474 51.6792 -3.02605
10352 2 5.48096 53.279 -4.07206
10341 2 3.65065 53.2767 -1.57866
10254 2 8.20966 51.6876 -4.07748
10250 2 6.37912 51.6874 -1.58423
10251 2 9.10689 53.2767 -1.57866
4060 1 7.32192 53.268 -3.02054
3935 1 10.051 51.6792 -3.02605
10055 2 11.8354 51.6874 -1.58423
10252 2 10.9372 53.279 -4.07206
3710 1 15.5072 51.6792 -3.02605
10063 2 13.6659 51.6876 -4.07748
3936 1 12.7782 53.268 -3.02054
10053 2 14.5631 53.2767 -1.57866
9773 2 17.2916 51.6874 -1.58423
3708 1 18.2344 53.268 -3.02054
10064 2 16.3934 53.279 -4.07206
3392 1 20.9635 51.6792 -3.02605
9776 2 19.1221 51.6876 -4.07748
9774 2 20.0194 53.2767 -1.57866
10347 2 2.7521 54.8701 -4.06454
10342 2 0.922108 54.8656 -1.57093
4061 1 4.59255 54.8566 -3.01288
10253 2 8.20834 54.8701 -4.06454
10242 2 6.37835 54.8656 -1.57093
3931 1 10.0488 54.8566 -3.01288
10054 2 11.8346 54.8656 -1.57093
3709 1 15.505 54.8566 -3.01288
10059 2 13.6646 54.8701 -4.06454
9767 2 17.2908 54.8656 -1.57093
3391 1 20.9613 54.8566 -3.01288
9775 2 19.1208 54.8701 -4.06454
10367 2 0.0230964 56.4606 -4.055
10346 2 2.7502 58.0506 -4.04352
10332 2 0.92107 58.0419 -1.5493
4092 1 1.86289 56.4449 -3.00314
10345 2 5.47933 56.4606 -4.055
10344 2 3.64974 56.4541 -1.56112
4054 1 4.58921 58.0327 -2.99141
10246 2 8.20644 58.0506 -4.04352
10241 2 6.37731 58.0419 -1.5493
4063 1 7.31913 56.4449 -3.00314
10240 2 9.10597 56.4541 -1.56112
10255 2 10.9356 56.4606 -4.055
3930 1 10.0454 58.0327 -2.99141
10043 2 11.8335 58.0419 -1.5493
3702 1 15.5017 58.0327 -2.99141
3929 1 12.7754 56.4449 -3.00314
10056 2 14.5622 56.4541 -1.56112
10058 2 13.6627 58.0506 -4.04352
3711 1 18.2316 56.4449 -3.00314
9766 2 17.2898 58.0419 -1.5493
10057 2 16.3918 56.4606 -4.055
3390 1 20.9579 58.0327 -2.99141
9765 2 20.0185 56.4541 -1.56112
9770 2 19.1189 58.0506 -4.04352
10364 2 0.02095 59.6399 -4.03021
10336 2 2.74784 61.2284 -4.01518
10331 2 0.919849 61.2155 -1.52013
4093 1 1.85904 59.6201 -2.97779
10348 2 5.47719 59.6399 -4.03021
10330 2 3.6486 59.6291 -1.5356
4053 1 4.5849 61.2069 -2.96239
10245 2 8.20408 61.2284 -4.01518
10243 2 9.10483 59.6291 -1.5356
4052 1 7.31528 59.6201 -2.97779
10226 2 6.37609 61.2155 -1.52013
10244 2 10.9334 59.6399 -4.03021
3919 1 10.0411 61.2069 -2.96239
10042 2 11.8323 61.2155 -1.52013
3701 1 15.4974 61.2069 -2.96239
3932 1 12.7715 59.6201 -2.97779
10041 2 14.5611 59.6291 -1.5356
10047 2 13.6603 61.2284 -4.01518
3700 1 18.2278 59.6201 -2.97779
9753 2 17.2886 61.2155 -1.52013
10060 2 16.3897 59.6399 -4.03021
3383 1 20.9536 61.2069 -2.96239
9768 2 20.0173 59.6291 -1.5356
9769 2 19.1166 61.2284 -4.01518
10365 2 0.018417 62.816 -3.99855
10335 2 2.74516 64.4026 -3.98046
10320 2 0.918523 64.3859 -1.4844
4088 1 1.85432 62.793 -2.94535
10334 2 5.47466 62.816 -3.99855
10333 2 3.64731 62.8011 -1.50301
4039 1 4.57981 64.3784 -2.92681
4055 1 7.31056 62.793 -2.94535
10224 2 9.10355 62.8011 -1.50301
10225 2 6.37476 64.3859 -1.4844
10230 2 8.2014 64.4026 -3.98046
10247 2 10.9309 62.816 -3.99855
3918 1 10.0361 64.3784 -2.92681
10023 2 11.831 64.3859 -1.4844
3686 1 15.4923 64.3784 -2.92681
3917 1 12.7668 62.793 -2.94535
10044 2 14.5598 62.8011 -1.50301
10046 2 13.6576 64.4026 -3.98046
3703 1 18.223 62.793 -2.94535
9752 2 17.2872 64.3859 -1.4844
10045 2 16.3871 62.816 -3.99855
3382 1 20.9485 64.3784 -2.92681
9751 2 20.016 62.8011 -1.50301
9756 2 19.1139 64.4026 -3.98046
10362 2 0.0156098 65.9883 -3.96105
10324 2 2.74225 67.5728 -3.94048
10319 2 0.917139 67.5525 -1.44326
4089 1 1.84891 65.963 -2.90691
10337 2 5.47185 65.9883 -3.96105
10318 2 3.64596 65.9696 -1.46443
4038 1 4.57411 67.5468 -2.8858
4037 1 7.30515 65.963 -2.90691
10203 2 6.37338 67.5525 -1.44326
10227 2 9.10219 65.9696 -1.46443
10229 2 8.19849 67.5728 -3.94048
3899 1 10.0304 67.5468 -2.8858
10022 2 11.8296 67.5525 -1.44326
10228 2 10.9281 65.9883 -3.96105
3685 1 15.4866 67.5468 -2.8858
3920 1 12.7614 65.963 -2.90691
10021 2 14.5584 65.9696 -1.46443
10027 2 13.6547 67.5728 -3.94048
3684 1 18.2176 65.963 -2.90691
9731 2 17.2859 67.5525 -1.44326
10048 2 16.3843 65.9883 -3.96105
3367 1 20.9428 67.5468 -2.8858
9754 2 20.0147 65.9696 -1.46443
9755 2 19.111 67.5728 -3.94048
10363 2 0.0126138 69.1563 -3.91889
10323 2 2.73919 70.7386 -3.89644
10308 2 0.915714 70.7151 -1.39798
4084 1 1.84297 69.1296 -2.86365
10322 2 5.46885 69.1563 -3.91889
10321 2 3.64455 69.1343 -1.42106
4023 1 4.56798 70.7115 -2.84063
4040 1 7.29921 69.1296 -2.86365
10201 2 9.10079 69.1343 -1.42106
10202 2 6.37195 70.7151 -1.39798
10207 2 8.19542 70.7386 -3.89644
3898 1 10.0242 70.7115 -2.84063
9995 2 11.8282 70.7151 -1.39798
10231 2 10.9251 69.1563 -3.91889
3662 1 15.4805 70.7115 -2.84063
3897 1 12.7554 69.1296 -2.86365
10024 2 14.557 69.1343 -1.42106
10026 2 13.6517 70.7386 -3.89644
3687 1 18.2117 69.1296 -2.86365
9730 2 17.2844 70.7151 -1.39798
10025 2 16.3813 69.1563 -3.91889
3366 1 20.9367 70.7115 -2.84063
9729 2 20.0133 69.1343 -1.42106
9734 2 19.1079 70.7386 -3.89644
10360 2 0.00949388 72.3197 -3.87329
10312 2 2.73602 73.8997 -3.84959
10307 2 0.914242 73.8737 -1.34987
4085 1 1.83668 72.2924 -2.81689
10325 2 5.46573 72.3197 -3.87329
10306 2 3.6431 72.2949 -1.3742
4022 1 4.56159 73.8723 -2.79261
4021 1 7.29292 72.2924 -2.81689
10179 2 6.37048 73.8737 -1.34987
10204 2 9.09934 72.2949 -1.3742
10206 2 8.19226 73.8997 -3.84959
3872 1 10.0178 73.8723 -2.79261
9994 2 11.8267 73.8737 -1.34987
10205 2 10.922 72.3197 -3.87329
3661 1 15.4741 73.8723 -2.79261
3900 1 12.7492 72.2924 -2.81689
9993 2 14.5556 72.2949 -1.3742
9999 2 13.6485 73.8997 -3.84959
3660 1 18.2054 72.2924 -2.81689
9701 2 17.283 73.8737 -1.34987
10028 2 16.3782 72.3197 -3.87329
3343 1 20.9303 73.8723 -2.79261
9732 2 20.0118 72.2949 -1.3742
9733 2 19.1047 73.8997 -3.84959
10361 2 0.00630349 75.4786 -3.8255
4080 1 1.83023 75.4513 -2.76793
10310 2 5.46254 75.4786 -3.8255
10309 2 3.6416 75.4516 -1.32515
4024 1 7.28647 75.4513 -2.76793
10177 2 9.09784 75.4516 -1.32515
10208 2 10.9188 75.4786 -3.8255
3870 1 12.7427 75.4513 -2.76793
9996 2 14.5541 75.4516 -1.32515
3663 1 18.1989 75.4513 -2.76793
9997 2 16.375 75.4786 -3.8255
9699 2 20.0103 75.4516 -1.32515
10358 2 0.00309369 78.633 -3.77672
10311 2 2.73282 77.0563 -3.80116
10296 2 0.912709 77.0285 -1.30021
4081 1 1.82381 78.6063 -2.71802
10313 2 5.45933 78.633 -3.77672
10294 2 3.64004 78.6046 -1.27518
4007 1 4.55513 77.0293 -2.74302
4005 1 7.28005 78.6063 -2.71802
10178 2 6.36895 77.0285 -1.30021
10180 2 9.09627 78.6046 -1.27518
10183 2 8.18906 77.0563 -3.80116
3871 1 10.0114 77.0293 -2.74302
9960 2 11.8252 77.0285 -1.30021
10181 2 10.9156 78.633 -3.77672
3630 1 15.4676 77.0293 -2.74302
3873 1 12.7363 78.6063 -2.71802
9958 2 14.5525 78.6046 -1.27518
9998 2 13.6453 77.0563 -3.80116
3628 1 18.1925 78.6063 -2.71802
9700 2 17.2814 77.0285 -1.30021
10000 2 16.3718 78.633 -3.77672
3342 1 20.9238 77.0293 -2.74302
9702 2 20.0088 78.6046 -1.27518
9704 2 19.1015 77.0563 -3.80116
10300 2 2.72962 80.2086 -3.75231
10295 2 0.911104 80.1797 -1.2502
4076 1 1.8176 81.7576 -2.66832
10298 2 5.45616 81.7832 -3.72805
10297 2 3.63839 81.7541 -1.2254
4006 1 4.54879 80.1824 -2.69308
4008 1 7.27384 81.7576 -2.66832
10153 2 9.09463 81.7541 -1.2254
10155 2 6.36734 80.1797 -1.2502
10182 2 8.18586 80.2086 -3.75231
3844 1 10.005 80.1824 -2.69308
9959 2 11.8236 80.1797 -1.2502
10184 2 10.9124 81.7832 -3.72805
3629 1 15.4613 80.1824 -2.69308
3842 1 12.7301 81.7576 -2.66832
9961 2 14.5509 81.7541 -1.2254
9964 2 13.6421 80.2086 -3.75231
3631 1 18.1863 81.7576 -2.66832
9663 2 17.2798 80.1797 -1.2502
9962 2 16.3686 81.7832 -3.72805
10359 2 21.8249 81.7832 -3.72805
3311 1 20.9175 80.1824 -2.69308
9661 2 20.0071 81.7541 -1.2254
9703 2 19.0983 80.2086 -3.75231
10299 2 2.72648 83.3568 -3.70407
10284 2 0.909425 83.3277 -1.20091
4077 1 1.81175 84.9056 -2.61982
10301 2 5.45306 84.9296 -3.68046
10282 2 3.63668 84.9006 -1.17682
3991 1 4.54274 83.332 -2.64386
3989 1 7.26799 84.9056 -2.61982
10154 2 6.36566 83.3277 -1.20091
10156 2 9.09292 84.9006 -1.17682
10159 2 8.18272 83.3568 -3.70407
3843 1 9.99898 83.332 -2.64386
9924 2 11.8219 83.3277 -1.20091
10157 2 10.9093 84.9296 -3.68046
3591 1 15.4552 83.332 -2.64386
3845 1 12.7242 84.9056 -2.61982
9922 2 14.5492 84.9006 -1.17682
9963 2 13.639 83.3568 -3.70407
3589 1 18.1805 84.9056 -2.61982
9662 2 17.2781 83.3277 -1.20091
9965 2 16.3655 84.9296 -3.68046
10356 2 21.8218 84.9296 -3.68046
3310 1 20.9115 83.332 -2.64386
9664 2 20.0054 84.9006 -1.17682
9666 2 19.0952 83.3568 -3.70407
10288 2 2.72345 86.5016 -3.65733
10283 2 0.907687 86.4729 -1.15325
4072 1 1.80638 88.0504 -2.57334
10286 2 5.45011 88.0728 -3.63476
10285 2 3.63492 88.0445 -1.13027
3990 1 4.53712 86.4784 -2.59628
3992 1 7.26262 88.0504 -2.57334
10129 2 9.09116 88.0445 -1.13027
10131 2 6.36393 86.4729 -1.15325
10158 2 8.17969 86.5016 -3.65733
3816 1 9.99336 86.4784 -2.59628
9923 2 11.8202 86.4729 -1.15325
10160 2 10.9063 88.0728 -3.63476
3590 1 15.4496 86.4784 -2.59628
3814 1 12.7189 88.0504 -2.57334
9925 2 14.5474 88.0445 -1.13027
9928 2 13.6359 86.5016 -3.65733
3592 1 18.1751 88.0504 -2.57334
9618 2 17.2764 86.4729 -1.15325
9926 2 16.3626 88.0728 -3.63476
10357 2 21.8188 88.0728 -3.63476
3271 1 20.9058 86.4784 -2.59628
9616 2 20.0036 88.0445 -1.13027
9665 2 19.0922 86.5016 -3.65733
10287 2 2.72058 89.6433 -3.61283
10272 2 0.90592 89.6156 -1.10796
4073 1 1.80156 91.1927 -2.52954
10289 2 5.44734 91.2133 -3.5916
3975 1 4.53202 89.6219 -2.55107
3973 1 7.2578 91.1927 -2.52954
10130 2 6.36216 89.6156 -1.10796
10135 2 8.17682 89.6433 -3.61283
3815 1 9.98826 89.6219 -2.55107
9888 2 11.8184 89.6156 -1.10796
10133 2 10.9036 91.2133 -3.5916
3551 1 15.4445 89.6219 -2.55107
3817 1 12.714 91.1927 -2.52954
9927 2 13.6331 89.6433 -3.61283
3549 1 18.1703 91.1927 -2.52954
9617 2 17.2746 89.6156 -1.10796
9929 2 16.3598 91.2133 -3.5916
10354 2 21.8161 91.2133 -3.5916
3270 1 20.9007 89.6219 -2.55107
9621 2 19.0893 89.6433 -3.61283
10276 2 2.71791 92.7826 -3.57114
4068 1 1.79732 94.3328 -2.48892
10274 2 5.44478 94.3514 -3.5515
3974 1 4.52748 92.763 -2.50881
3976 1 7.25355 94.3328 -2.48892
10134 2 8.17415 92.7826 -3.57114
3788 1 9.98372 92.763 -2.50881
10136 2 10.901 94.3514 -3.5515
3550 1 15.44 92.763 -2.50881
3786 1 12.7098 94.3328 -2.48892
9892 2 13.6304 92.7826 -3.57114
3552 1 18.166 94.3328 -2.48892
9890 2 16.3573 94.3514 -3.5515
10355 2 21.8135 94.3514 -3.5515
3224 1 20.8962 92.763 -2.50881
9620 2 19.0866 92.7826 -3.57114
10275 2 2.71548 95.9198 -3.53273
4069 1 1.79365 97.4711 -2.45187
3960 1 4.52353 95.9022 -2.46993
10277 2 5.44248 97.4878 -3.51486
3958 1 7.24989 97.4711 -2.45187
10112 2 8.17172 95.9198 -3.53273
3787 1 9.97977 95.9022 -2.46993
10110 2 10.8987 97.4878 -3.51486
3512 1 15.436 95.9022 -2.46993
3789 1 12.7061 97.4711 -2.45187
9891 2 13.628 95.9198 -3.53273
3510 1 18.1624 97.4711 -2.45187
9893 2 16.355 97.4878 -3.51486
10353 2 21.8112 97.4878 -3.51486
3223 1 20.8922 95.9022 -2.46993
9575 2 19.0842 95.9198 -3.53273
10265 2 2.71331 99.0554 -3.49793
6143 1 1.79056 100.608 -2.41865
3959 1 4.52015 99.0397 -2.43477
12526 2 5.44045 100.623 -3.48196
10111 2 8.16955 99.0554 -3.49793
6112 1 7.24679 100.608 -2.41865
3761 1 9.97639 99.0397 -2.43477
12432 2 10.8967 100.623 -3.48196
3511 1 15.4326 99.0397 -2.43477
9857 2 13.6258 99.0554 -3.49793
5982 1 12.703 100.608 -2.41865
12238 2 16.3529 100.623 -3.48196
5760 1 18.1593 100.608 -2.41865
3176 1 20.8889 99.0397 -2.43477
9574 2 19.082 99.0554 -3.49793
12544 2 21.8092 100.623 -3.48196
4058 1 2.74666 51.6823 -0.365462
10340 2 1.83431 53.2705 0.967043
4090 1 0.0181425 53.2696 -0.359886
10238 2 4.56278 51.684 0.961346
4059 1 5.47438 53.2696 -0.359886
3927 1 8.2029 51.6823 -0.365462
10236 2 7.29055 53.2705 0.967043
10051 2 10.019 51.684 0.961346
3925 1 10.9306 53.2696 -0.359886
3706 1 13.6591 51.6823 -0.365462
9763 2 15.4753 51.684 0.961346
10052 2 12.7468 53.2705 0.967043
3707 1 16.3869 53.2696 -0.359886
9761 2 18.203 53.2705 0.967043
3389 1 19.1154 51.6823 -0.365462
9408 2 20.9315 51.684 0.961346
4050 1 2.74576 54.8566 -0.352138
10237 2 4.56201 54.8568 0.97495
3926 1 8.202 54.8566 -0.352138
10039 2 10.0182 54.8568 0.97495
3698 1 13.6582 54.8566 -0.352138
9762 2 15.4745 54.8568 0.97495
3388 1 19.1145 54.8566 -0.352138
9407 2 20.9307 54.8568 0.97495
10328 2 1.83338 56.4426 0.984987
4049 1 2.74448 58.0294 -0.330421
4091 1 0.0170399 56.4433 -0.342285
4048 1 5.47328 56.4433 -0.342285
10222 2 4.56093 58.028 0.997059
3915 1 8.20071 58.0294 -0.330421
10239 2 7.28962 56.4426 0.984987
3928 1 10.9295 56.4433 -0.342285
10038 2 10.0172 58.028 0.997059
3697 1 13.657 58.0294 -0.330421
9749 2 15.4734 58.028 0.997059
10037 2 12.7459 56.4426 0.984987
3696 1 16.3858 56.4433 -0.342285
9764 2 18.2021 56.4426 0.984987
3381 1 19.1132 58.0294 -0.330421
9406 2 20.9296 58.028 0.997059
10329 2 1.83218 59.6128 1.01106
4035 1 2.7429 61.2001 -0.301091
4086 1 0.0155991 59.6151 -0.316651
4051 1 5.47184 59.6151 -0.316651
10221 2 4.55963 61.197 1.02687
3914 1 8.19914 61.2001 -0.301091
10220 2 7.28842 59.6128 1.01106
3913 1 10.9281 59.6151 -0.316651
10019 2 10.0159 61.197 1.02687
3682 1 13.6554 61.2001 -0.301091
9748 2 15.4721 61.197 1.02687
10040 2 12.7447 59.6128 1.01106
3699 1 16.3843 59.6151 -0.316651
9747 2 18.2009 59.6128 1.01106
3380 1 19.1116 61.2001 -0.301091
9399 2 20.9283 61.197 1.02687
10316 2 1.83079 62.7805 1.04435
4034 1 2.7411 64.368 -0.265129
4087 1 0.0139025 62.7844 -0.28387
4033 1 5.47014 62.7844 -0.28387
10199 2 4.55816 64.3632 1.06336
3895 1 8.19734 64.368 -0.265129
10223 2 7.28703 62.7805 1.04435
3916 1 10.9264 62.7844 -0.28387
10018 2 10.0144 64.3632 1.06336
3681 1 13.6536 64.368 -0.265129
9727 2 15.4706 64.3632 1.06336
10017 2 12.7433 62.7805 1.04435
3680 1 16.3826 62.7844 -0.28387
9750 2 18.1995 62.7805 1.04435
3365 1 19.1098 64.368 -0.265129
9398 2 20.9269 64.3632 1.06336
10317 2 1.82926 65.9452 1.08373
4019 1 2.73913 67.5328 -0.223695
4082 1 0.0120153 65.9508 -0.245019
4036 1 5.46825 65.9508 -0.245019
10198 2 4.55656 67.5263 1.10532
3894 1 8.19537 67.5328 -0.223695
10197 2 7.28549 65.9452 1.08373
3893 1 10.9245 65.9508 -0.245019
9991 2 10.0128 67.5263 1.10532
3658 1 13.6516 67.5328 -0.223695
9726 2 15.469 67.5263 1.10532
10020 2 12.7417 65.9452 1.08373
3683 1 16.3807 65.9508 -0.245019
9725 2 18.198 65.9452 1.08373
3364 1 19.1078 67.5328 -0.223695
9383 2 20.9253 67.5263 1.10532
10304 2 1.8276 69.1067 1.12796
4018 1 2.73703 70.6943 -0.178063
4083 1 0.00998015 69.114 -0.201321
4017 1 5.46622 69.114 -0.201321
10175 2 4.55485 70.6862 1.15147
3868 1 8.19327 70.6943 -0.178063
10200 2 7.28384 69.1067 1.12796
3896 1 10.9225 69.114 -0.201321
9990 2 10.0111 70.6862 1.15147
3657 1 13.6495 70.6943 -0.178063
9697 2 15.4673 70.6862 1.15147
9989 2 12.7401 69.1067 1.12796
3656 1 16.3787 69.114 -0.201321
9728 2 18.1963 69.1067 1.12796
3341 1 19.1057 70.6943 -0.178063
9382 2 20.9236 70.6862 1.15147
10305 2 1.82583 72.2649 1.17568
4003 1 2.73482 73.8523 -0.129558
4078 1 0.00782192 72.2737 -0.154086
4020 1 5.46406 72.2737 -0.154086
10174 2 4.55302 73.8429 1.20043
3867 1 8.19106 73.8523 -0.129558
10173 2 7.28207 72.2649 1.17568
3866 1 10.9203 72.2737 -0.154086
9956 2 10.0093 73.8429 1.20043
3626 1 13.6473 73.8523 -0.129558
9696 2 15.4655 73.8429 1.20043
9992 2 12.7383 72.2649 1.17568
3659 1 16.3765 72.2737 -0.154086
9695 2 18.1945 72.2649 1.17568
3340 1 19.1035 73.8523 -0.129558
9359 2 20.9217 73.8429 1.20043
10292 2 1.82395 75.42 1.22556
4079 1 0.00555853 75.43 -0.10464
4002 1 2.73251 77.007 -0.0794883
4001 1 5.4618 75.43 -0.10464
10151 2 4.55108 76.9964 1.25091
10176 2 7.28018 75.42 1.22556
3840 1 8.18875 77.007 -0.0794883
3869 1 10.918 75.43 -0.10464
9955 2 10.0073 76.9964 1.25091
9954 2 12.7364 75.42 1.22556
3625 1 13.645 77.007 -0.0794883
9659 2 15.4636 76.9964 1.25091
3624 1 16.3743 75.43 -0.10464
9698 2 18.1927 75.42 1.22556
3309 1 19.1012 77.007 -0.0794883
9358 2 20.9198 76.9964 1.25091
10293 2 1.82195 78.5721 1.27632
4074 1 0.00321039 78.5831 -0.0542535
4004 1 5.45945 78.5831 -0.0542535
10149 2 7.27819 78.5721 1.27632
3838 1 10.9157 78.5831 -0.0542535
9957 2 12.7344 78.5721 1.27632
3627 1 16.3719 78.5831 -0.0542535
9657 2 18.1907 78.5721 1.27632
10280 2 1.81987 81.7215 1.32679
3987 1 2.73013 80.1585 -0.0290768
3985 1 5.45704 81.7331 -0.00408973
10150 2 4.54904 80.1471 1.30165
3839 1 8.18637 80.1585 -0.0290768
10152 2 7.27611 81.7215 1.32679
3841 1 10.9133 81.7331 -0.00408973
9920 2 10.0053 80.1471 1.30165
3587 1 13.6426 80.1585 -0.0290768
9658 2 15.4615 80.1471 1.30165
9918 2 12.7323 81.7215 1.32679
3585 1 16.3695 81.7331 -0.00408973
9660 2 18.1886 81.7215 1.32679
4075 1 21.8258 81.7331 -0.00408973
3308 1 19.0988 80.1585 -0.0290768
9327 2 20.9178 80.1471 1.30165
10281 2 1.81773 84.8685 1.37597
3986 1 2.72771 83.3071 0.0205866
3988 1 5.45462 84.8805 0.0448421
10127 2 4.54692 83.2953 1.35159
3812 1 8.18395 83.3071 0.0205866
10125 2 7.27397 84.8685 1.37597
3810 1 10.9109 84.8805 0.0448421
9919 2 10.0032 83.2953 1.35159
3586 1 13.6402 83.3071 0.0205866
9614 2 15.4594 83.2953 1.35159
9921 2 12.7302 84.8685 1.37597
3588 1 16.3671 84.8805 0.0448421
9612 2 18.1864 84.8685 1.37597
4070 1 21.8233 84.8805 0.0448421
3269 1 19.0964 83.3071 0.0205866
9326 2 20.9156 83.2953 1.35159
10268 2 1.81558 88.0136 1.42303
3971 1 2.7253 86.4533 0.0685779
3969 1 5.45223 88.0255 0.0917066
10126 2 4.54477 86.4413 1.39981
3811 1 8.18154 86.4533 0.0685779
10128 2 7.27182 88.0136 1.42303
3813 1 10.9085 88.0255 0.0917066
9884 2 10.001 86.4413 1.39981
3547 1 13.6378 86.4533 0.0685779
9613 2 15.4572 86.4413 1.39981
9882 2 12.7281 88.0136 1.42303
3545 1 16.3647 88.0255 0.0917066
9615 2 18.1843 88.0136 1.42303
4071 1 21.8209 88.0255 0.0917066
3268 1 19.094 86.4533 0.0685779
9287 2 20.9135 86.4413 1.39981
10269 2 1.81346 91.157 1.46732
3970 1 2.72294 89.5972 0.114151
10270 2 3.63316 91.1863 -1.08639
3972 1 5.44991 91.1685 0.135844
10104 2 4.54263 89.5854 1.44556
10132 2 9.0894 91.1863 -1.08639
3784 1 8.17918 89.5972 0.114151
10102 2 7.2697 91.157 1.46732
3782 1 10.9062 91.1685 0.135844
9883 2 9.99887 89.5854 1.44556
9886 2 14.5456 91.1863 -1.08639
3546 1 13.6354 89.5972 0.114151
9568 2 15.4551 89.5854 1.44556
9885 2 12.7259 91.157 1.46732
3548 1 16.3624 91.1685 0.135844
9566 2 18.1822 91.157 1.46732
9619 2 20.0019 91.1863 -1.08639
4066 1 21.8186 91.1685 0.135844
3222 1 19.0917 89.5972 0.114151
9286 2 20.9113 89.5854 1.44556
10271 2 0.904167 92.7564 -1.06562
10260 2 1.81144 94.299 1.50835
3956 1 2.72068 92.7394 0.156729
10273 2 3.63143 94.3262 -1.0457
3954 1 5.44773 94.31 0.176755
10103 2 4.54056 92.7281 1.48827
10106 2 9.08767 94.3262 -1.0457
10108 2 6.36041 92.7564 -1.06562
3783 1 8.17692 92.7394 0.156729
10105 2 7.26767 94.299 1.50835
9887 2 11.8166 92.7564 -1.06562
3785 1 10.904 94.31 0.176755
9852 2 9.99679 92.7281 1.48827
9889 2 14.5439 94.3262 -1.0457
3508 1 13.6332 92.7394 0.156729
9567 2 15.453 92.7281 1.48827
9850 2 12.7239 94.299 1.50835
9572 2 17.2729 92.7564 -1.06562
3506 1 16.3602 94.31 0.176755
9569 2 18.1802 94.299 1.50835
9570 2 20.0001 94.3262 -1.0457
4067 1 21.8164 94.31 0.176755
3221 1 19.0894 92.7394 0.156729
9240 2 20.9093 92.7281 1.48827
10264 2 0.902476 95.8957 -1.02667
10261 2 1.80955 97.4401 1.54576
3955 1 2.71857 95.8802 0.195879
10262 2 3.62979 97.4648 -1.00857
3957 1 5.44571 97.4501 0.214056
10088 2 4.53859 95.8697 1.52753
10107 2 6.35871 95.8957 -1.02667
10109 2 9.08603 97.4648 -1.00857
3760 1 8.17481 95.8802 0.195879
10086 2 7.26579 97.4401 1.54576
9856 2 11.815 95.8957 -1.02667
3758 1 10.9019 97.4501 0.214056
9851 2 9.99483 95.8697 1.52753
9854 2 14.5423 97.4648 -1.00857
3507 1 13.6311 95.8802 0.195879
9528 2 15.4511 95.8697 1.52753
9853 2 12.722 97.4401 1.54576
9571 2 17.2712 95.8957 -1.02667
3509 1 16.3582 97.4501 0.214056
9526 2 18.1783 97.4401 1.54576
9573 2 19.9985 97.4648 -1.00857
4065 1 21.8144 97.4501 0.214056
3175 1 19.0873 95.8802 0.195879
9239 2 20.9073 95.8697 1.52753
10263 2 0.900892 99.0337 -0.991439
3945 1 2.71665 99.0198 0.231261
12515 2 1.80784 100.58 1.57926
10087 2 4.53679 99.0103 1.56301
6105 1 5.44389 100.589 0.247472
12525 2 3.62827 100.602 -0.975288
10089 2 6.35713 99.0337 -0.991439
3759 1 8.17289 99.0198 0.231261
12424 2 7.26408 100.58 1.57926
12425 2 9.08451 100.602 -0.975288
9855 2 11.8134 99.0337 -0.991439
9825 2 9.99303 99.0103 1.56301
5981 1 10.9001 100.589 0.247472
3473 1 13.6291 99.0198 0.231261
9527 2 15.4493 99.0103 1.56301
12226 2 12.7203 100.58 1.57926
12237 2 14.5407 100.602 -0.975288
9529 2 17.2696 99.0337 -0.991439
11947 2 18.1766 100.58 1.57926
5753 1 16.3564 100.589 0.247472
3174 1 19.0854 99.0198 0.231261
9192 2 20.9055 99.0103 1.56301
6142 1 21.8126 100.589 0.247472
11948 2 19.997 100.602 -0.975288
4046 1 0.927585 51.6809 2.22188
10234 2 2.74677 51.682 3.52026
10326 2 0.018281 53.2661 3.52612
4044 1 3.65535 53.2659 2.22763
10235 2 5.47452 53.2661 3.52612
3923 1 6.38382 51.6809 2.22188
10035 2 8.20301 51.682 3.52026
3924 1 9.11159 53.2659 2.22763
3694 1 11.8401 51.6809 2.22188
10033 2 10.9308 53.2661 3.52612
9759 2 13.6592 51.682 3.52026
3692 1 14.5678 53.2659 2.22763
3386 1 17.2963 51.6809 2.22188
9760 2 16.387 53.2661 3.52612
9405 2 19.1155 51.682 3.52026
3387 1 20.0241 53.2659 2.22763
4045 1 0.926789 54.8506 2.23563
10218 2 2.74592 54.8499 3.53425
3911 1 6.38303 54.8506 2.23563
10034 2 8.20216 54.8499 3.53425
3693 1 11.8393 54.8506 2.23563
9745 2 13.6584 54.8499 3.53425
3378 1 17.2955 54.8506 2.23563
9404 2 19.1146 54.8499 3.53425
10327 2 0.0172423 56.4334 3.54455
4031 1 0.925629 58.019 2.25798
10217 2 2.74472 58.0165 3.55693
4047 1 3.65436 56.435 2.24578
10216 2 5.47348 56.4334 3.54455
3909 1 9.1106 56.435 2.24578
3910 1 6.38187 58.019 2.25798
10015 2 8.20096 58.0165 3.55693
3678 1 11.8381 58.019 2.25798
10036 2 10.9297 56.4334 3.54455
3695 1 14.5668 56.435 2.24578
9744 2 13.6572 58.0165 3.55693
3377 1 17.2943 58.019 2.25798
9743 2 16.386 56.4334 3.54455
3376 1 20.0231 56.435 2.24578
9397 2 19.1134 58.0165 3.55693
10314 2 0.0159001 59.5992 3.57127
4030 1 0.924194 61.1855 2.28813
10195 2 2.74325 61.1813 3.58747
4029 1 3.65306 59.6025 2.27214
10219 2 5.47214 59.5992 3.57127
3891 1 6.38043 61.1855 2.28813
3912 1 9.1093 59.6025 2.27214
10014 2 8.19949 61.1813 3.58747
3677 1 11.8367 61.1855 2.28813
10013 2 10.9284 59.5992 3.57127
3676 1 14.5655 59.6025 2.27214
9723 2 13.6557 61.1813 3.58747
3362 1 17.2929 61.1855 2.28813
9746 2 16.3846 59.5992 3.57127
3379 1 20.0218 59.6025 2.27214
9396 2 19.112 61.1813 3.58747
10315 2 0.014315 62.7628 3.60536
4015 1 0.92254 64.3496 2.32506
10194 2 2.74156 64.3437 3.62481
4032 1 3.65151 62.7678 2.30582
10193 2 5.47055 62.7628 3.60536
3889 1 9.10775 62.7678 2.30582
3890 1 6.37878 64.3496 2.32506
9987 2 8.1978 64.3437 3.62481
3654 1 11.835 64.3496 2.32506
10016 2 10.9268 62.7628 3.60536
3679 1 14.564 62.7678 2.30582
9722 2 13.654 64.3437 3.62481
3361 1 17.2913 64.3496 2.32506
9721 2 16.383 62.7628 3.60536
3360 1 20.0202 62.7678 2.30582
9381 2 19.1103 64.3437 3.62481
10302 2 0.0125296 65.9239 3.64564
4014 1 0.920704 67.511 2.36755
10171 2 2.73969 67.5035 3.6677
4013 1 3.64976 65.9306 2.34569
10196 2 5.46877 65.9239 3.64564
3864 1 6.37694 67.511 2.36755
3892 1 9.106 65.9306 2.34569
9986 2 8.19593 67.5035 3.6677
3653 1 11.8332 67.511 2.36755
9985 2 10.925 65.9239 3.64564
3652 1 14.5622 65.9306 2.34569
9693 2 13.6522 67.5035 3.6677
3338 1 17.2894 67.511 2.36755
9724 2 16.3812 65.9239 3.64564
3363 1 20.0185 65.9306 2.34569
9380 2 19.1084 67.5035 3.6677
10303 2 0.0105658 69.0824 3.69079
3999 1 0.918703 70.6696 2.41427
10170 2 2.73764 70.6607 3.71476
4016 1 3.64784 69.0907 2.39047
10169 2 5.4668 69.0824 3.69079
3862 1 9.10408 69.0907 2.39047
3863 1 6.37494 70.6696 2.41427
9952 2 8.19388 70.6607 3.71476
3622 1 11.8312 70.6696 2.41427
9988 2 10.923 69.0824 3.69079
3655 1 14.5603 69.0907 2.39047
9692 2 13.6501 70.6607 3.71476
3337 1 17.2874 70.6696 2.41427
9691 2 16.3793 69.0824 3.69079
3336 1 20.0166 69.0907 2.39047
9357 2 19.1064 70.6607 3.71476
10290 2 0.00843268 72.2383 3.73942
3998 1 0.916548 73.8254 2.46382
10147 2 2.73542 73.8153 3.7646
3997 1 3.64576 72.2479 2.43878
10172 2 5.46467 72.2383 3.73942
3836 1 6.37279 73.8254 2.46382
3865 1 9.102 72.2479 2.43878
9951 2 8.19166 73.8153 3.7646
3621 1 11.829 73.8254 2.46382
9950 2 10.9209 72.2383 3.73942
3620 1 14.5582 72.2479 2.43878
9655 2 13.6479 73.8153 3.7646
3306 1 17.2853 73.8254 2.46382
9694 2 16.3771 72.2383 3.73942
3339 1 20.0145 72.2479 2.43878
9356 2 19.1041 73.8153 3.7646
10291 2 0.00614176 75.3916 3.79013
3983 1 0.914258 76.9785 2.51487
10146 2 2.73306 76.9674 3.81585
4000 1 3.64354 75.4023 2.48924
10145 2 5.46238 75.3916 3.79013
3834 1 9.09978 75.4023 2.48924
3835 1 6.3705 76.9785 2.51487
9916 2 8.1893 76.9674 3.81585
9953 2 10.9186 75.3916 3.79013
3583 1 11.8267 76.9785 2.51487
3623 1 14.556 75.4023 2.48924
9654 2 13.6455 76.9674 3.81585
9653 2 16.3749 75.3916 3.79013
3305 1 17.283 76.9785 2.51487
3304 1 20.0123 75.4023 2.48924
9325 2 19.1018 76.9674 3.81585
10278 2 0.00371816 78.5426 3.84161
3981 1 3.64119 78.5541 2.54056
10148 2 5.45996 78.5426 3.84161
3837 1 9.09743 78.5541 2.54056
9914 2 10.9162 78.5426 3.84161
3581 1 14.5537 78.5541 2.54056
9656 2 16.3724 78.5426 3.84161
3307 1 20.0099 78.5541 2.54056
10279 2 0.00120447 81.6916 3.89268
3982 1 0.91186 80.1291 2.56616
10123 2 2.73059 80.1174 3.86726
3984 1 3.63875 81.7036 2.59154
10121 2 5.45744 81.6916 3.89268
3806 1 9.09499 81.7036 2.59154
3808 1 6.3681 80.1291 2.56616
9915 2 8.18683 80.1174 3.86726
3582 1 11.8243 80.1291 2.56616
9917 2 10.9137 81.6916 3.89268
3584 1 14.5512 81.7036 2.59154
9610 2 13.6431 80.1174 3.86726
3266 1 17.2806 80.1291 2.56616
9608 2 16.3699 81.6916 3.89268
3264 1 20.0075 81.7036 2.59154
9324 2 19.0993 80.1174 3.86726
3967 1 0.909399 83.2776 2.61657
10122 2 2.72805 83.2655 3.91774
3965 1 3.63628 84.8511 2.64116
10124 2 5.4549 84.8389 3.94233
3807 1 6.36564 83.2776 2.61657
3809 1 9.09252 84.8511 2.64116
9880 2 8.18429 83.2655 3.91774
3543 1 11.8219 83.2776 2.61657
9878 2 10.9111 84.8389 3.94233
3541 1 14.5488 84.8511 2.64116
9609 2 13.6405 83.2655 3.91774
3265 1 17.2781 83.2776 2.61657
9611 2 16.3674 84.8389 3.94233
10266 2 21.8236 84.8389 3.94233
3267 1 20.005 84.8511 2.64116
9285 2 19.0968 83.2655 3.91774
3966 1 0.906929 86.4242 2.66519
10100 2 2.72551 86.412 3.96637
3968 1 3.63383 87.9968 2.68858
10098 2 5.45238 87.9848 3.98975
3778 1 9.09007 87.9968 2.68858
3780 1 6.36317 86.4242 2.66519
9879 2 8.18175 86.412 3.96637
3542 1 11.8194 86.4242 2.66519
9881 2 10.9086 87.9848 3.98975
3544 1 14.5463 87.9968 2.68858
9564 2 13.638 86.412 3.96637
3219 1 17.2756 86.4242 2.66519
9562 2 16.3649 87.9848 3.98975
10267 2 21.8211 87.9848 3.98975
3217 1 20.0025 87.9968 2.68858
9284 2 19.0942 86.412 3.96637
3952 1 0.904508 89.5692 2.71127
10099 2 2.72303 89.5574 4.01242
3950 1 3.63145 91.1412 2.73317
10101 2 5.44995 91.1297 4.03431
3779 1 6.36075 89.5692 2.71127
3781 1 9.08769 91.1412 2.73317
9848 2 8.17927 89.5574 4.01242
3504 1 11.817 89.5692 2.71127
9846 2 10.9062 91.1297 4.03431
3502 1 14.5439 91.1412 2.73317
9563 2 13.6355 89.5574 4.01242
3218 1 17.2732 89.5692 2.71127
9565 2 16.3624 91.1297 4.03431
10258 2 21.8187 91.1297 4.03431
3220 1 20.0002 91.1412 2.73317
9238 2 19.0917 89.5574 4.01242
3951 1 0.90219 92.713 2.75425
10084 2 2.72067 92.7017 4.05536
3953 1 3.62921 94.2845 2.77444
10082 2 5.44766 94.2736 4.07553
3754 1 9.08545 94.2845 2.77444
3756 1 6.35843 92.713 2.75425
9847 2 8.1769 92.7017 4.05536
3503 1 11.8147 92.713 2.75425
9849 2 10.9039 94.2736 4.07553
3505 1 14.5417 94.2845 2.77444
9524 2 13.6331 92.7017 4.05536
3172 1 17.2709 92.713 2.75425
9522 2 16.3601 94.2736 4.07553
10259 2 21.8164 94.2736 4.07553
3170 1 19.9979 94.2845 2.77444
9237 2 19.0894 92.7017 4.05536
3944 1 0.900026 95.8557 2.79372
10083 2 2.71846 95.8453 4.09478
3942 1 3.62715 97.4268 2.81205
10085 2 5.44555 97.4169 4.11309
3755 1 6.35626 95.8557 2.79372
3757 1 9.08339 97.4268 2.81205
9824 2 8.1747 95.8453 4.09478
3472 1 11.8125 95.8557 2.79372
9822 2 10.9018 97.4169 4.11309
3470 1 14.5396 97.4268 2.81205
9523 2 13.6309 95.8453 4.09478
3171 1 17.2687 95.8557 2.79372
9525 2 16.358 97.4169 4.11309
10257 2 21.8143 97.4169 4.11309
3173 1 19.9959 97.4268 2.81205
9191 2 19.0872 95.8453 4.09478
3943 1 0.898077 98.9977 2.82937
10073 2 2.71646 98.9884 4.1304
6104 1 3.62528 100.568 2.84566
12409 2 5.44369 100.56 4.14668
3737 1 6.35432 98.9977 2.82937
9823 2 8.1727 98.9884 4.1304
5970 1 9.08152 100.568 2.84566
3471 1 11.8106 98.9977 2.82937
12225 2 10.8999 100.56 4.14668
9489 2 13.6289 98.9884 4.1304
5752 1 14.5378 100.568 2.84566
3129 1 17.2668 98.9977 2.82937
11934 2 16.3562 100.56 4.14668
9190 2 19.0852 98.9884 4.1304
12514 2 21.8124 100.56 4.14668
5433 1 19.994 100.568 2.84566
10214 2 0.930739 51.6814 6.08356
4043 1 1.83866 53.2633 4.79991
3907 1 4.56715 51.6808 4.79396
10212 2 3.65844 53.2634 6.08962
10031 2 6.38698 51.6814 6.08356
3905 1 7.2949 53.2633 4.79991
10032 2 9.11468 53.2634 6.08962
3690 1 10.0234 51.6808 4.79396
9741 2 11.8432 51.6814 6.08356
3374 1 15.4796 51.6808 4.79396
3691 1 12.7511 53.2633 4.79991
9739 2 14.5709 53.2634 6.08962
9402 2 17.2995 51.6814 6.08356
3372 1 18.2074 53.2633 4.79991
3008 1 20.9359 51.6808 4.79396
9403 2 20.0272 53.2634 6.08962
10213 2 0.929793 54.8451 6.09798
3906 1 4.5663 54.8459 4.80816
10011 2 6.38603 54.8451 6.09798
3674 1 10.0225 54.8459 4.80816
9740 2 11.8423 54.8451 6.09798
3373 1 15.4788 54.8459 4.80816
9394 2 17.2985 54.8451 6.09798
3007 1 20.935 54.8459 4.80816
4027 1 1.8376 56.4281 4.81863
10191 2 0.928425 58.0076 6.12135
3887 1 4.56505 58.0101 4.83122
10215 2 3.65727 56.4266 6.1086
3908 1 7.29384 56.4281 4.81863
10009 2 9.11351 56.4266 6.1086
10010 2 6.38466 58.0076 6.12135
3673 1 10.0213 58.0101 4.83122
9719 2 11.8409 58.0076 6.12135
3358 1 15.4775 58.0101 4.83122
3672 1 12.7501 56.4281 4.81863
9742 2 14.5698 56.4266 6.1086
3375 1 18.2063 56.4281 4.81863
9393 2 17.2971 58.0076 6.12135
3006 1 20.9338 58.0101 4.83122
9392 2 20.026 56.4266 6.1086
4028 1 1.83619 59.5916 4.84582
10190 2 0.926721 61.1685 6.15281
3886 1 4.56349 61.1727 4.86231
10189 2 3.65573 59.5883 6.13614
3885 1 7.29242 59.5916 4.84582
9983 2 6.38296 61.1685 6.15281
10012 2 9.11197 59.5883 6.13614
3650 1 10.0197 61.1727 4.86231
9718 2 11.8392 61.1685 6.15281
3357 1 15.476 61.1727 4.86231
3675 1 12.7487 59.5916 4.84582
9717 2 14.5682 59.5883 6.13614
3356 1 18.2049 59.5916 4.84582
9378 2 17.2954 61.1685 6.15281
2999 1 20.9322 61.1727 4.86231
9395 2 20.0244 59.5883 6.13614
4011 1 1.83449 62.7532 4.88053
10167 2 0.924751 64.3273 6.1912
3860 1 4.56168 64.3332 4.90032
10192 2 3.65389 62.7482 6.17122
3888 1 7.29073 62.7532 4.88053
9981 2 9.11012 62.7482 6.17122
9982 2 6.38099 64.3273 6.1912
3649 1 10.0179 64.3332 4.90032
9689 2 11.8372 64.3273 6.1912
3334 1 15.4742 64.3332 4.90032
3648 1 12.747 62.7532 4.88053
9720 2 14.5664 62.7482 6.17122
3359 1 18.2032 62.7532 4.88053
9377 2 17.2935 64.3273 6.1912
2998 1 20.9304 64.3332 4.90032
9376 2 20.0226 62.7482 6.17122
4012 1 1.83257 65.9126 4.92153
10166 2 0.922554 67.484 6.23519
3859 1 4.55964 67.4914 4.94397
10165 2 3.6518 65.9059 6.21259
3858 1 7.2888 65.9126 4.92153
9948 2 6.37879 67.484 6.23519
9984 2 9.10804 65.9059 6.21259
3618 1 10.0159 67.4914 4.94397
9688 2 11.835 67.484 6.23519
3333 1 15.4721 67.4914 4.94397
3651 1 12.745 65.9126 4.92153
9687 2 14.5643 65.9059 6.21259
3332 1 18.2013 65.9126 4.92153
9354 2 17.2913 67.484 6.23519
2983 1 20.9284 67.4914 4.94397
9379 2 20.0205 65.9059 6.21259
3995 1 1.83042 69.0697 4.96746
10143 2 0.920144 70.6384 6.28333
3832 1 4.55739 70.6473 4.99183
10168 2 3.64949 69.0615 6.25884
3861 1 7.28666 69.0697 4.96746
9946 2 9.10573 69.0615 6.25884
9947 2 6.37638 70.6384 6.28333
3617 1 10.0136 70.6473 4.99183
9651 2 11.8326 70.6384 6.28333
3302 1 15.4699 70.6473 4.99183
3616 1 12.7429 69.0697 4.96746
9690 2 14.562 69.0615 6.25884
3335 1 18.1991 69.0697 4.96746
9353 2 17.2889 70.6384 6.28333
2982 1 20.9261 70.6473 4.99183
9352 2 20.0182 69.0615 6.25884
3996 1 1.82807 72.2244 5.01689
10142 2 0.917537 73.7908 6.33413
3831 1 4.55494 73.8009 5.04245
10141 2 3.64698 72.2149 6.30849
3830 1 7.28431 72.2244 5.01689
9912 2 6.37378 73.7908 6.33413
9949 2 9.10322 72.2149 6.30849
3579 1 10.0112 73.8009 5.04245
9650 2 11.83 73.7908 6.33413
3301 1 15.4674 73.8009 5.04245
3619 1 12.7405 72.2244 5.01689
9649 2 14.5595 72.2149 6.30849
3300 1 18.1968 72.2244 5.01689
9322 2 17.2863 73.7908 6.33413
2959 1 20.9237 73.8009 5.04245
9355 2 20.0157 72.2149 6.30849
3979 1 1.82553 75.3769 5.06836
10119 2 0.914764 76.9414 6.38619
10144 2 3.64429 75.3663 6.36009
3804 1 4.55232 76.9524 5.09444
3833 1 7.28177 75.3769 5.06836
9910 2 9.10053 75.3663 6.36009
9911 2 6.371 76.9414 6.38619
3578 1 10.0086 76.9524 5.09444
9606 2 11.8272 76.9414 6.38619
3577 1 12.738 75.3769 5.06836
9652 2 14.5568 75.3663 6.36009
3262 1 15.4648 76.9524 5.09444
3303 1 18.1942 75.3769 5.06836
9321 2 17.2835 76.9414 6.38619
9320 2 20.013 75.3663 6.36009
2958 1 20.921 76.9524 5.09444
3980 1 1.82285 78.5274 5.12053
10117 2 3.64145 78.5161 6.41228
3802 1 7.27909 78.5274 5.12053
9913 2 9.09769 78.5161 6.41228
3580 1 12.7353 78.5274 5.12053
9604 2 14.5539 78.5161 6.41228
3260 1 18.1916 78.5274 5.12053
9323 2 20.0102 78.5161 6.41228
3963 1 1.82007 81.6763 5.17219
10118 2 0.911883 80.0904 6.43822
3803 1 4.54959 80.1021 5.14649
10120 2 3.63854 81.6645 6.46388
3805 1 7.27631 81.6763 5.17219
9874 2 9.09478 81.6645 6.46388
9876 2 6.36812 80.0904 6.43822
3539 1 10.0058 80.1021 5.14649
9605 2 11.8244 80.0904 6.43822
3261 1 15.4621 80.1021 5.14649
3537 1 12.7325 81.6763 5.17219
9607 2 14.551 81.6645 6.46388
3263 1 18.1888 81.6763 5.17219
9282 2 17.2806 80.0904 6.43822
2927 1 20.9183 80.1021 5.14649
9280 2 20.0073 81.6645 6.46388
3964 1 1.81728 84.8237 5.22233
10096 2 0.908966 83.2383 6.48914
3776 1 4.54679 83.2502 5.19751
10094 2 3.63564 84.8118 6.5139
3774 1 7.27352 84.8237 5.22233
9875 2 6.3652 83.2383 6.48914
9877 2 9.09188 84.8118 6.5139
3538 1 10.003 83.2502 5.19751
9560 2 11.8214 83.2383 6.48914
3215 1 15.4593 83.2502 5.19751
3540 1 12.7298 84.8237 5.22233
9558 2 14.5481 84.8118 6.5139
3213 1 18.186 84.8237 5.22233
9281 2 17.2777 83.2383 6.48914
2926 1 20.9155 83.2502 5.19751
9283 2 20.0044 84.8118 6.5139
3948 1 1.81454 87.9701 5.27013
10095 2 0.906094 86.3852 6.53805
3775 1 4.54402 86.3971 5.24657
10097 2 3.63282 87.9584 6.56153
3777 1 7.27078 87.9701 5.27013
9842 2 9.08906 87.9584 6.56153
9844 2 6.36233 86.3852 6.53805
3500 1 10.0003 86.3971 5.24657
9559 2 11.8186 86.3852 6.53805
3214 1 15.4565 86.3971 5.24657
3498 1 12.727 87.9701 5.27013
9561 2 14.5453 87.9584 6.56153
3216 1 18.1833 87.9701 5.27013
9235 2 17.2748 86.3852 6.53805
2887 1 20.9127 86.3971 5.24657
9233 2 20.0015 87.9584 6.56153
3949 1 1.81193 91.1156 5.31498
10080 2 0.90334 89.5315 6.58427
3752 1 4.54133 89.543 5.29296
10078 2 3.63015 91.1044 6.60619
3750 1 7.26817 91.1156 5.31498
9843 2 6.35958 89.5315 6.58427
9845 2 9.08638 91.1044 6.60619
3499 1 9.99757 89.543 5.29296
9520 2 11.8158 89.5315 6.58427
3168 1 15.4538 89.543 5.29296
3501 1 12.7244 91.1156 5.31498
9518 2 14.5426 91.1044 6.60619
3166 1 18.1806 91.1156 5.31498
9234 2 17.2721 89.5315 6.58427
2886 1 20.91 89.543 5.29296
9236 2 19.9989 91.1044 6.60619
3940 1 1.80949 94.2606 5.3564
10079 2 0.900766 92.6773 6.62726
3751 1 4.5388 92.6882 5.33614
10081 2 3.62768 94.2501 6.64743
3753 1 7.26573 94.2606 5.3564
9818 2 9.08392 94.2501 6.64743
9820 2 6.357 92.6773 6.62726
3468 1 9.99504 92.6882 5.33614
9519 2 11.8132 92.6773 6.62726
3167 1 15.4513 92.6882 5.33614
3466 1 12.722 94.2606 5.3564
9521 2 14.5402 94.2501 6.64743
3169 1 18.1782 94.2606 5.3564
9188 2 17.2695 92.6773 6.62726
2841 1 20.9075 92.6882 5.33614
9186 2 19.9964 94.2501 6.64743
3941 1 1.80727 97.4051 5.39408
10072 2 0.89842 95.8228 6.66666
3736 1 4.53647 95.8329 5.37572
10070 2 3.62547 97.3954 6.68491
3734 1 7.26351 97.4051 5.39408
9819 2 6.35466 95.8228 6.66666
9821 2 9.08171 97.3954 6.68491
3467 1 9.99271 95.8329 5.37572
9488 2 11.8109 95.8228 6.66666
3128 1 15.4489 95.8329 5.37572
3469 1 12.7197 97.4051 5.39408
9486 2 14.5379 97.3954 6.68491
3126 1 18.176 97.4051 5.39408
9187 2 17.2671 95.8228 6.66666
2840 1 20.9052 95.8329 5.37572
9189 2 19.9942 97.3954 6.68491
10071 2 0.896328 98.968 6.70221
6090 1 1.8053 100.55 5.4278
3735 1 4.53437 98.9775 5.41145
12408 2 3.62348 100.541 6.71853
9801 2 6.35257 98.968 6.70221
5969 1 7.26154 100.55 5.4278
12206 2 9.07972 100.541 6.71853
3441 1 9.99061 98.9775 5.41145
9487 2 11.8088 98.968 6.70221
3127 1 15.4468 98.9775 5.41145
5737 1 12.7178 100.55 5.4278
11933 2 14.536 100.541 6.71853
9145 2 17.265 98.968 6.70221
5432 1 18.174 100.55 5.4278
2795 1 20.9031 98.9775 5.41145
11577 2 19.9922 100.541 6.71853
3903 1 2.75105 51.681 7.36125
3879 1 0.935371 51.6813 9.92649
4025 1 0.0224841 53.2619 7.36746
10211 2 1.84261 53.2614 8.65416
10007 2 4.57123 51.6813 8.64783
3904 1 5.47872 53.2619 7.36746
3877 1 3.66293 53.2603 9.93301
3670 1 8.20729 51.681 7.36125
3666 1 6.39161 51.6813 9.92649
3667 1 9.11917 53.2603 9.93301
10005 2 7.29884 53.2614 8.65416
3350 1 11.8478 51.6813 9.92649
9737 2 10.0275 51.6813 8.64783
3668 1 10.935 53.2619 7.36746
3370 1 13.6635 51.681 7.36125
9390 2 15.4837 51.6813 8.64783
3348 1 14.5754 53.2603 9.93301
9738 2 12.7551 53.2614 8.65416
3002 1 17.3041 51.6813 9.92649
3371 1 16.3912 53.2619 7.36746
9388 2 18.2113 53.2614 8.65416
3005 1 19.1198 51.681 7.36125
9024 2 20.9399 51.6813 8.64783
3003 1 20.0316 53.2603 9.93301
3883 1 2.75002 54.8426 7.37601
3878 1 0.934084 54.8392 9.94201
10006 2 4.57007 54.8412 8.66288
3669 1 8.20625 54.8426 7.37601
3642 1 6.39032 54.8392 9.94201
3349 1 11.8466 54.8392 9.94201
9715 2 10.0263 54.8412 8.66288
3354 1 13.6625 54.8426 7.37601
9389 2 15.4825 54.8412 8.66288
2994 1 17.3028 54.8392 9.94201
3004 1 19.1187 54.8426 7.37601
9023 2 20.9388 54.8412 8.66288
3882 1 2.74855 58.0031 7.39994
4026 1 0.0212163 56.423 7.38687
3852 1 0.932237 57.9961 9.96703
10187 2 1.84117 56.4207 8.67392
3881 1 5.47745 56.423 7.38687
3880 1 3.66134 56.4178 9.95338
9979 2 4.56839 57.9999 8.68718
3646 1 8.20479 58.0031 7.39994
3640 1 9.11758 56.4178 9.95338
3641 1 6.38848 57.9961 9.96703
10008 2 7.29741 56.4207 8.67392
3671 1 10.9337 56.423 7.38687
3326 1 11.8447 57.9961 9.96703
9714 2 10.0246 57.9999 8.68718
3353 1 13.661 58.0031 7.39994
3351 1 14.5738 56.4178 9.95338
9374 2 15.4809 57.9999 8.68718
9713 2 12.7536 56.4207 8.67392
3352 1 16.3899 56.423 7.38687
2993 1 17.301 57.9961 9.96703
9391 2 18.2099 56.4207 8.67392
2997 1 19.1173 58.0031 7.39994
2992 1 20.0301 56.4178 9.95338
9022 2 20.9371 57.9999 8.68718
3856 1 2.74672 61.162 7.43214
4009 1 0.0195575 59.5828 7.41507
3851 1 0.929993 61.1515 10.0006
10188 2 1.83929 59.5787 8.70252
3884 1 5.4758 59.5828 7.41507
3850 1 3.65928 59.574 9.98283
9978 2 4.56633 61.157 8.7198
3645 1 8.20296 61.162 7.43214
3610 1 6.38623 61.1515 10.0006
3643 1 9.11551 59.574 9.98283
9977 2 7.29552 59.5787 8.70252
3644 1 10.932 59.5828 7.41507
3325 1 11.8425 61.1515 10.0006
9685 2 10.0226 61.157 8.7198
3330 1 13.6592 61.162 7.43214
3324 1 14.5718 59.574 9.98283
9373 2 15.4788 61.157 8.7198
9716 2 12.7518 59.5787 8.70252
3355 1 16.3883 59.5828 7.41507
2978 1 17.2987 61.1515 10.0006
9372 2 18.208 59.5787 8.70252
2996 1 19.1154 61.162 7.43214
2995 1 20.028 59.574 9.98283
9015 2 20.9351 61.157 8.7198
3855 1 2.74461 64.3192 7.47142
4010 1 0.0175834 62.7408 7.45097
3824 1 0.927454 64.3053 10.0414
10163 2 1.83707 62.735 8.73885
3854 1 5.47382 62.7408 7.45097
3853 1 3.65688 62.7286 10.0202
9944 2 4.56399 64.3125 8.75951
3614 1 8.20085 64.3192 7.47142
3608 1 9.11311 62.7286 10.0202
3609 1 6.38369 64.3053 10.0414
9980 2 7.29331 62.735 8.73885
3647 1 10.9301 62.7408 7.45097
3294 1 11.8399 64.3053 10.0414
9684 2 10.0202 64.3125 8.75951
3329 1 13.6571 64.3192 7.47142
3327 1 14.5694 62.7286 10.0202
9350 2 15.4765 64.3125 8.75951
9683 2 12.7496 62.735 8.73885
3328 1 16.3863 62.7408 7.45097
2977 1 17.2962 64.3053 10.0414
9375 2 18.2058 62.735 8.73885
2981 1 19.1133 64.3192 7.47142
2976 1 20.0256 62.7286 10.0202
9014 2 20.9327 64.3125 8.75951
3828 1 2.74225 67.4743 7.51637
3993 1 0.0153455 65.897 7.49328
3823 1 0.924659 67.4573 10.0879
10164 2 1.8346 65.8895 8.78157
3857 1 5.47158 65.897 7.49328
3822 1 3.65421 65.8815 10.0641
9943 2 4.56139 67.466 8.80484
3613 1 8.19849 67.4743 7.51637
3571 1 6.3809 67.4573 10.0879
3611 1 9.11045 65.8815 10.0641
9942 2 7.29084 65.8895 8.78157
3612 1 10.9278 65.897 7.49328
3293 1 11.8371 67.4573 10.0879
9647 2 10.0176 67.466 8.80484
3298 1 13.6547 67.4743 7.51637
3292 1 14.5667 65.8815 10.0641
9349 2 15.4739 67.466 8.80484
9686 2 12.7471 65.8895 8.78157
3331 1 16.3841 65.897 7.49328
2954 1 17.2934 67.4573 10.0879
9348 2 18.2033 65.8895 8.78157
2980 1 19.111 67.4743 7.51637
2979 1 20.0229 65.8815 10.0641
8999 2 20.9301 67.466 8.80484
3827 1 2.73965 70.6274 7.56548
3994 1 0.0128625 69.0511 7.54051
3796 1 0.921614 70.6077 10.1385
10139 2 1.83189 69.0421 8.82913
3826 1 5.4691 69.0511 7.54051
3825 1 3.65129 69.0327 10.1128
9908 2 4.55856 70.6177 8.85424
3575 1 8.19589 70.6274 7.56548
3569 1 9.10752 69.0327 10.1128
3570 1 6.37785 70.6077 10.1385
9945 2 7.28812 69.0421 8.82913
3615 1 10.9253 69.0511 7.54051
3254 1 11.8341 70.6077 10.1385
9646 2 10.0148 70.6177 8.85424
3297 1 13.6521 70.6274 7.56548
3295 1 14.5638 69.0327 10.1128
9318 2 15.471 70.6177 8.85424
9645 2 12.7444 69.0421 8.82913
3296 1 16.3816 69.0511 7.54051
2953 1 17.2903 70.6077 10.1385
9351 2 18.2006 69.0421 8.82913
2957 1 19.1084 70.6274 7.56548
2952 1 20.02 69.0327 10.1128
8998 2 20.9273 70.6177 8.85424
3800 1 2.73682 73.7788 7.6172
3977 1 0.0101444 72.2033 7.59111
3795 1 0.918341 73.7567 10.1914
10140 2 1.82895 72.193 8.87996
3829 1 5.46638 72.2033 7.59111
3794 1 3.64812 72.1823 10.1647
9907 2 4.55553 73.7679 8.90612
3574 1 8.19306 73.7788 7.6172
3531 1 6.37458 73.7567 10.1914
3572 1 9.10436 72.1823 10.1647
9906 2 7.28519 72.193 8.87996
3573 1 10.9226 72.2033 7.59111
3253 1 11.8308 73.7567 10.1914
9602 2 10.0118 73.7679 8.90612
3258 1 13.6493 73.7788 7.6172
3252 1 14.5606 72.1823 10.1647
9317 2 15.468 73.7679 8.90612
9648 2 12.7414 72.193 8.87996
3299 1 16.3789 72.2033 7.59111
2922 1 17.2871 73.7567 10.1914
9316 2 18.1977 72.193 8.87996
2956 1 19.1055 73.7788 7.6172
2955 1 20.0168 72.1823 10.1647
8975 2 20.9242 73.7679 8.90612
3978 1 0.00721954 75.3538 7.64358
10115 2 1.82583 75.3424 8.93252
3768 1 0.914904 76.9047 10.2451
3799 1 2.73382 76.9286 7.67007
3798 1 5.46346 75.3538 7.64358
3797 1 3.64476 75.3308 10.2182
9872 2 4.55233 76.9168 8.95901
3529 1 9.10099 75.3308 10.2182
9909 2 7.28206 75.3424 8.93252
3530 1 6.37114 76.9047 10.2451
3535 1 8.19005 76.9286 7.67007
3576 1 10.9197 75.3538 7.64358
3207 1 11.8274 76.9047 10.2451
9601 2 10.0086 76.9168 8.95901
3255 1 14.5572 75.3308 10.2182
9600 2 12.7383 75.3424 8.93252
3257 1 13.6463 76.9286 7.67007
9278 2 15.4648 76.9168 8.95901
3256 1 16.3759 75.3538 7.64358
9319 2 18.1945 75.3424 8.93252
2921 1 17.2836 76.9047 10.2451
2920 1 20.0135 75.3308 10.2182
2925 1 19.1025 76.9286 7.67007
8974 2 20.921 76.9168 8.95901
3961 1 0.00414587 78.503 7.69651
10116 2 1.82258 78.4909 8.98542
3801 1 5.46038 78.503 7.69651
3766 1 3.64127 78.4785 10.2719
3532 1 9.09751 78.4785 10.2719
9870 2 7.27882 78.4909 8.98542
3533 1 10.9166 78.503 7.69651
3205 1 14.5538 78.4785 10.2719
9603 2 12.7351 78.4909 8.98542
3259 1 16.3729 78.503 7.69651
9276 2 18.1913 78.4909 8.98542
2923 1 20.01 78.4785 10.2719
3772 1 2.7307 80.0771 7.72277
3962 1 0.00100627 81.6511 7.74871
3767 1 0.911403 80.0522 10.2983
10092 2 1.8193 81.6386 9.03746
3770 1 5.45724 81.6511 7.74871
3769 1 3.63778 81.6258 10.3244
9871 2 4.54906 80.0648 9.01161
3534 1 8.18694 80.0771 7.72277
3490 1 9.09402 81.6258 10.3244
3492 1 6.36764 80.0522 10.2983
9873 2 7.27554 81.6386 9.03746
3536 1 10.9135 81.6511 7.74871
3206 1 11.8239 80.0522 10.2983
9556 2 10.0053 80.0648 9.01161
3211 1 13.6432 80.0771 7.72277
3208 1 14.5503 81.6258 10.3244
9277 2 15.4615 80.0648 9.01161
9554 2 12.7318 81.6386 9.03746
3209 1 16.3697 81.6511 7.74871
2882 1 17.2801 80.0522 10.2983
9279 2 18.188 81.6386 9.03746
2924 1 19.0994 80.0771 7.72277
2880 1 20.0065 81.6258 10.3244
8943 2 20.9178 80.0648 9.01161
3771 1 2.72756 83.2248 7.77421
10093 2 1.81609 84.7859 9.08769
3773 1 5.45413 84.7984 7.79917
9840 2 4.5458 83.2122 9.06285
3496 1 8.1838 83.2248 7.77421
9838 2 7.27233 84.7859 9.08769
3494 1 10.9104 84.7984 7.79917
9555 2 10.002 83.2122 9.06285
3210 1 13.64 83.2248 7.77421
9231 2 15.4583 83.2122 9.06285
9557 2 12.7286 84.7859 9.08769
3212 1 16.3666 84.7984 7.79917
9229 2 18.1848 84.7859 9.08769
3946 1 21.8228 84.7984 7.79917
2885 1 19.0963 83.2248 7.77421
8942 2 20.9145 83.2122 9.06285
3748 1 2.72449 86.3719 7.8235
10076 2 1.81304 87.933 9.13537
3746 1 5.45113 87.9453 7.84713
9839 2 4.54266 86.3594 9.11188
3495 1 8.18073 86.3719 7.8235
9841 2 7.26927 87.933 9.13537
3497 1 10.9074 87.9453 7.84713
9516 2 9.9989 86.3594 9.11188
3164 1 13.637 86.3719 7.8235
9230 2 15.4551 86.3594 9.11188
9514 2 12.7255 87.933 9.13537
3162 1 16.3636 87.9453 7.84713
9232 2 18.1818 87.933 9.13537
3947 1 21.8198 87.9453 7.84713
2884 1 19.0932 86.3719 7.8235
8904 2 20.9114 86.3594 9.11188
3747 1 2.72158 89.5186 7.86998
10077 2 1.8102 91.0801 9.17994
3749 1 5.44832 91.0919 7.892
9816 2 4.5397 89.5065 9.15807
3464 1 8.17782 89.5186 7.86998
9814 2 7.26644 91.0801 9.17994
3462 1 10.9046 91.0919 7.892
9515 2 9.99594 89.5065 9.15807
3163 1 13.6341 89.5186 7.86998
9184 2 15.4522 89.5065 9.15807
9517 2 12.7227 91.0801 9.17994
3165 1 16.3608 91.0919 7.892
9182 2 18.1789 91.0801 9.17994
3938 1 21.817 91.0919 7.892
2839 1 19.0903 89.5186 7.86998
8903 2 20.9084 89.5065 9.15807
3732 1 2.71888 92.6651 7.91313
10068 2 1.80762 94.2273 9.22103
3730 1 5.44574 94.2383 7.93335
9815 2 4.53699 92.6537 9.20094
3463 1 8.17512 92.6651 7.91313
9817 2 7.26386 94.2273 9.22103
3465 1 10.902 94.2383 7.93335
9484 2 9.99323 92.6537 9.20094
3124 1 13.6314 92.6651 7.91313
9183 2 15.4495 92.6537 9.20094
9482 2 12.7201 94.2273 9.22103
3122 1 16.3582 94.2383 7.93335
9185 2 18.1763 94.2273 9.22103
3939 1 21.8145 94.2383 7.93335
2838 1 19.0876 92.6651 7.91313
8864 2 20.9057 92.6537 9.20094
3731 1 2.71644 95.8115 7.95262
10069 2 1.80533 97.3746 9.25835
3733 1 5.44342 97.3847 7.9709
9800 2 4.53456 95.801 9.24017
3440 1 8.17268 95.8115 7.95262
9798 2 7.26157 97.3746 9.25835
3438 1 10.8997 97.3847 7.9709
9483 2 9.9908 95.801 9.24017
3123 1 13.6289 95.8115 7.95262
9144 2 15.447 95.801 9.24017
9485 2 12.7178 97.3746 9.25835
3125 1 16.3559 97.3847 7.9709
9142 2 18.174 97.3746 9.25835
3937 1 21.8121 97.3847 7.9709
2794 1 19.0852 95.8115 7.95262
8863 2 20.9033 95.801 9.24017
3721 1 2.71425 98.9579 7.98822
12386 2 1.80333 100.522 9.29178
9799 2 4.53241 98.9483 9.27556
5950 1 5.44141 100.531 8.00456
3439 1 8.17049 98.9579 7.98822
12205 2 7.25957 100.522 9.29178
9457 2 9.98865 98.9483 9.27556
5736 1 10.8976 100.531 8.00456
3089 1 13.6267 98.9579 7.98822
9143 2 15.4449 98.9483 9.27556
11912 2 12.7158 100.522 9.29178
11576 2 18.172 100.522 9.29178
5417 1 16.3539 100.531 8.00456
2793 1 19.083 98.9579 7.98822
8824 2 20.9011 98.9483 9.27556
6089 1 21.8101 100.531 8.00456
10003 2 2.7559 51.6814 11.212
3876 1 1.84763 53.2586 12.4974
10185 2 0.0271241 53.2595 11.2186
3638 1 4.5765 51.6814 12.4905
10004 2 5.48336 53.2595 11.2186
9711 2 8.21214 51.6814 11.212
3636 1 7.30387 53.2586 12.4974
3346 1 10.0327 51.6814 12.4905
9709 2 10.9396 53.2595 11.2186
2990 1 15.489 51.6814 12.4905
9386 2 13.6684 51.6814 11.212
3347 1 12.7601 53.2586 12.4974
2988 1 18.2163 53.2586 12.4974
9387 2 16.3958 53.2595 11.2186
2640 1 20.9452 51.6814 12.4905
9021 2 19.1246 51.6814 11.212
9975 2 2.7544 54.8374 11.2278
3637 1 4.57479 54.8356 12.507
9710 2 8.21064 54.8374 11.2278
3322 1 10.031 54.8356 12.507
2989 1 15.4873 54.8356 12.507
9370 2 13.6669 54.8374 11.2278
2639 1 20.9435 54.8356 12.507
9020 2 19.1231 54.8374 11.2278
3848 1 1.84552 56.4124 12.519
9974 2 2.75225 57.9924 11.2533
10186 2 0.0252694 56.4151 11.2394
3606 1 4.57236 57.9889 12.5334
9973 2 5.48151 56.4151 11.2394
3639 1 7.30176 56.4124 12.519
9681 2 8.20849 57.9924 11.2533
3321 1 10.0286 57.9889 12.5334
9712 2 10.9377 56.4151 11.2394
2974 1 15.4848 57.9889 12.5334
3320 1 12.758 56.4124 12.519
9369 2 13.6647 57.9924 11.2533
2991 1 18.2142 56.4124 12.519
9368 2 16.394 56.4151 11.2394
2638 1 20.9411 57.9889 12.5334
9013 2 19.121 57.9924 11.2533
3849 1 1.84285 59.5651 12.55
9940 2 2.74967 61.1461 11.2874
10161 2 0.0228835 59.5694 11.2693
3605 1 4.5695 61.1409 12.5686
9976 2 5.47912 59.5694 11.2693
3604 1 7.29909 59.5651 12.55
9680 2 8.20591 61.1461 11.2874
3290 1 10.0257 61.1409 12.5686
9679 2 10.9354 59.5694 11.2693
2973 1 15.482 61.1409 12.5686
3323 1 12.7553 59.5651 12.55
9346 2 13.6621 61.1461 11.2874
2972 1 18.2116 59.5651 12.55
9371 2 16.3916 59.5694 11.2693
2631 1 20.9382 61.1409 12.5686
9012 2 19.1184 61.1461 11.2874
3820 1 1.83985 62.7163 12.5892
9939 2 2.7468 64.2981 11.3287
10162 2 0.0201491 62.7223 11.3072
3567 1 4.56637 64.2913 12.6114
9938 2 5.47639 62.7223 11.3072
3607 1 7.29609 62.7163 12.5892
9643 2 8.20304 64.2981 11.3287
3289 1 10.0226 64.2913 12.6114
9682 2 10.9326 62.7223 11.3072
2950 1 15.4788 64.2913 12.6114
3288 1 12.7523 62.7163 12.5892
9345 2 13.6593 64.2981 11.3287
2975 1 18.2086 62.7163 12.5892
9344 2 16.3889 62.7223 11.3072
2630 1 20.9351 64.2913 12.6114
8997 2 19.1155 64.2981 11.3287
3821 1 1.8366 65.8659 12.635
9904 2 2.7437 67.4484 11.3757
10137 2 0.017159 65.8734 11.3516
3566 1 4.56301 67.4401 12.6597
9941 2 5.4734 65.8734 11.3516
3565 1 7.29284 65.8659 12.635
9642 2 8.19993 67.4484 11.3757
3250 1 10.0192 67.4401 12.6597
9641 2 10.9296 65.8734 11.3516
2949 1 15.4755 67.4401 12.6597
3291 1 12.7491 65.8659 12.635
9314 2 13.6562 67.4484 11.3757
2948 1 18.2053 65.8659 12.635
9347 2 16.3859 65.8734 11.3516
2615 1 20.9317 67.4401 12.6597
8996 2 19.1124 67.4484 11.3757
3792 1 1.83312 69.014 12.6855
9903 2 2.74037 70.5974 11.4266
10138 2 0.0139394 69.0231 11.4008
3527 1 4.55941 70.5876 12.7119
9902 2 5.47018 69.0231 11.4008
3568 1 7.28936 69.014 12.6855
9598 2 8.1966 70.5974 11.4266
3249 1 10.0157 70.5876 12.7119
9644 2 10.9264 69.0231 11.4008
2918 1 15.4719 70.5876 12.7119
3248 1 12.7456 69.014 12.6855
9313 2 13.6528 70.5974 11.4266
2951 1 18.2018 69.014 12.6855
9312 2 16.3827 69.0231 11.4008
2614 1 20.9281 70.5876 12.7119
8973 2 19.1091 70.5974 11.4266
3793 1 1.82942 72.161 12.7389
9868 2 2.73684 73.7452 11.4797
10113 2 0.0105061 72.1714 11.4529
3526 1 4.55562 73.7342 12.7661
9905 2 5.46674 72.1714 11.4529
3525 1 7.28566 72.161 12.7389
9597 2 8.19308 73.7452 11.4797
3203 1 10.0119 73.7342 12.7661
9596 2 10.923 72.1714 11.4529
2917 1 15.4681 73.7342 12.7661
3251 1 12.7419 72.161 12.7389
9274 2 13.6493 73.7452 11.4797
2916 1 18.1981 72.161 12.7389
9315 2 16.3792 72.1714 11.4529
2591 1 20.9243 73.7342 12.7661
8972 2 19.1056 73.7452 11.4797
3764 1 1.82556 75.3073 12.7935
10114 2 0.00691047 75.3188 11.5065
9867 2 2.7332 76.8924 11.5334
9866 2 5.46315 75.3188 11.5065
3488 1 4.55172 76.8804 12.8207
3528 1 7.2818 75.3073 12.7935
9552 2 8.18944 76.8924 11.5334
9599 2 10.9194 75.3188 11.5065
3202 1 10.008 76.8804 12.8207
3201 1 12.738 75.3073 12.7935
2878 1 15.4642 76.8804 12.8207
9273 2 13.6457 76.8924 11.5334
2919 1 18.1943 75.3073 12.7935
9272 2 16.3756 75.3188 11.5065
2590 1 20.9204 76.8804 12.8207
8941 2 19.1019 76.8924 11.5334
3765 1 1.82165 78.4536 12.8477
10090 2 0.00324703 78.4659 11.5601
9869 2 5.45949 78.4659 11.5601
3486 1 7.27789 78.4536 12.8477
9550 2 10.9157 78.4659 11.5601
3204 1 12.7341 78.4536 12.8477
2876 1 18.1904 78.4536 12.8477
9275 2 16.372 78.4659 11.5601
3740 1 1.81784 81.6001 12.9005
9836 2 2.72955 80.0393 11.5865
10091 2 -0.000367963 81.6128 11.6124
3487 1 4.54785 80.0268 12.8744
9834 2 5.45587 81.6128 11.6124
3489 1 7.27408 81.6001 12.9005
9551 2 8.18578 80.0393 11.5865
3156 1 10.0041 80.0268 12.8744
9553 2 10.9121 81.6128 11.6124
2877 1 15.4603 80.0268 12.8744
3154 1 12.7303 81.6001 12.9005
9227 2 13.642 80.0393 11.5865
2879 1 18.1866 81.6001 12.9005
9225 2 16.3683 81.6128 11.6124
2559 1 20.9166 80.0268 12.8744
8940 2 19.0983 80.0393 11.5865
3744 1 0.907949 83.1994 10.35
3741 1 1.81424 84.7473 12.951
9835 2 2.726 83.1864 11.6379
10074 2 -0.00382463 84.7601 11.6627
3742 1 3.63439 84.773 10.375
3456 1 4.54413 83.1736 12.9261
9837 2 5.45241 84.7601 11.6627
3491 1 6.36419 83.1994 10.35
3493 1 9.09063 84.773 10.375
3454 1 7.27048 84.7473 12.951
9512 2 8.18224 83.1864 11.6379
3160 1 11.8204 83.1994 10.35
3155 1 10.0004 83.1736 12.9261
9510 2 10.9087 84.7601 11.6627
3158 1 14.5469 84.773 10.375
2832 1 15.4566 83.1736 12.9261
3157 1 12.7267 84.7473 12.951
9226 2 13.6385 83.1864 11.6379
2881 1 17.2767 83.1994 10.35
2830 1 18.183 84.7473 12.951
9228 2 16.3649 84.7601 11.6627
2883 1 20.0031 84.773 10.375
2558 1 20.9128 83.1736 12.9261
8902 2 19.0947 83.1864 11.6379
3743 1 0.904647 86.3467 10.3993
3724 1 1.81094 87.8952 12.9986
9812 2 2.72265 86.3339 11.6868
3745 1 3.6312 87.9204 10.4229
3455 1 4.54067 86.3212 12.9752
9810 2 5.4492 87.9078 11.7102
3458 1 9.08744 87.9204 10.4229
3460 1 6.36089 86.3467 10.3993
3457 1 7.26718 87.8952 12.9986
9511 2 8.17889 86.3339 11.6868
3159 1 11.8171 86.3467 10.3993
3116 1 9.99691 86.3212 12.9752
9513 2 10.9054 87.9078 11.7102
3161 1 14.5437 87.9204 10.4229
2831 1 15.4531 86.3212 12.9752
3114 1 12.7234 87.8952 12.9986
9180 2 13.6351 86.3339 11.6868
2836 1 17.2734 86.3467 10.3993
2833 1 18.1797 87.8952 12.9986
9178 2 16.3617 87.9078 11.7102
2834 1 19.9999 87.9204 10.4229
10075 2 21.8179 87.9078 11.7102
2523 1 20.9094 86.3212 12.9752
8901 2 19.0914 86.3339 11.6868
3728 1 0.901575 89.4941 10.4457
3725 1 1.80797 91.044 13.0429
9811 2 2.71958 89.4819 11.7328
3726 1 3.62826 91.068 10.4676
3432 1 4.53753 89.4695 13.0212
9813 2 5.44628 91.0561 11.7545
3459 1 6.35781 89.4941 10.4457
3461 1 9.0845 91.068 10.4676
3430 1 7.26421 91.044 13.0429
9480 2 8.17582 89.4819 11.7328
3120 1 11.8141 89.4941 10.4457
3115 1 9.99377 89.4695 13.0212
9478 2 10.9025 91.0561 11.7545
3118 1 14.5407 91.068 10.4676
2787 1 15.45 89.4695 13.0212
3117 1 12.7205 91.044 13.0429
9179 2 13.6321 89.4819 11.7328
2835 1 17.2703 89.4941 10.4457
2785 1 18.1767 91.044 13.0429
9181 2 16.3588 91.0561 11.7545
2837 1 19.997 91.068 10.4676
10066 2 21.815 91.0561 11.7545
2522 1 20.9062 89.4695 13.0212
8862 2 19.0883 89.4819 11.7328
3727 1 0.898784 92.6419 10.4886
3716 1 1.80537 94.1936 13.0835
9796 2 2.71683 92.6304 11.7753
3729 1 3.62562 94.216 10.5087
3431 1 4.53475 92.6187 13.0637
9794 2 5.44369 94.2049 11.7952
3436 1 6.35502 92.6419 10.4886
3434 1 9.08186 94.216 10.5087
3433 1 7.26161 94.1936 13.0835
9479 2 8.17306 92.6304 11.7753
3119 1 11.8113 92.6419 10.4886
3084 1 9.99098 92.6187 13.0637
9481 2 10.8999 94.2049 11.7952
3121 1 14.5381 94.216 10.5087
2786 1 15.4472 92.6187 13.0637
3082 1 12.7178 94.1936 13.0835
9140 2 13.6293 92.6304 11.7753
2791 1 17.2675 92.6419 10.4886
2788 1 18.1741 94.1936 13.0835
9138 2 16.3562 94.2049 11.7952
10067 2 21.8124 94.2049 11.7952
2789 1 19.9943 94.216 10.5087
2487 1 20.9035 92.6187 13.0637
8861 2 19.0855 92.6304 11.7753
3720 1 0.896297 95.7901 10.5278
3717 1 1.80311 97.3438 13.1204
9795 2 2.71439 95.7794 11.8142
3718 1 3.62329 97.3642 10.546
3416 1 4.53232 95.7686 13.1024
9797 2 5.44142 97.3541 11.8322
3435 1 6.35254 95.7901 10.5278
3437 1 9.07953 97.3642 10.546
3414 1 7.25935 97.3438 13.1204
9456 2 8.17063 95.7794 11.8142
3088 1 11.8088 95.7901 10.5278
3083 1 9.98856 95.7686 13.1024
9454 2 10.8977 97.3541 11.8322
3086 1 14.5358 97.3642 10.546
2749 1 15.4448 95.7686 13.1024
3085 1 12.7156 97.3438 13.1204
9139 2 13.6269 95.7794 11.8142
2790 1 17.265 95.7901 10.5278
2747 1 18.1718 97.3438 13.1204
9141 2 16.3539 97.3541 11.8322
10065 2 21.8101 97.3541 11.8322
2792 1 19.992 97.3642 10.546
2486 1 20.901 95.7686 13.1024
8823 2 19.0831 95.7794 11.8142
3719 1 0.894124 98.9385 10.5632
9785 2 2.71229 98.9289 11.8493
5923 1 1.80119 100.495 13.1534
3415 1 4.53023 98.9192 13.1374
12178 2 5.43947 100.504 11.8653
5949 1 3.62127 100.513 10.5794
3417 1 6.35036 98.9385 10.5632
9455 2 8.16852 98.9289 11.8493
5712 1 7.25743 100.495 13.1534
5713 1 9.07751 100.513 10.5794
3087 1 11.8066 98.9385 10.5632
3057 1 9.98647 98.9192 13.1374
11911 2 10.8957 100.504 11.8653
2748 1 15.4427 98.9192 13.1374
9105 2 13.6248 98.9289 11.8493
5393 1 12.7137 100.495 13.1534
5416 1 14.5338 100.513 10.5794
2750 1 17.2628 98.9385 10.5632
11561 2 16.3519 100.504 11.8653
5048 1 18.1699 100.495 13.1534
2451 1 20.8989 98.9192 13.1374
8822 2 19.081 98.9289 11.8493
12385 2 21.8082 100.504 11.8653
5049 1 19.99 100.513 10.5794
9971 2 0.941176 51.6812 13.7755
3634 1 2.76213 51.6811 15.0536
3846 1 0.0329655 53.2564 15.0609
9969 2 3.66841 53.2574 13.7826
3635 1 5.4892 53.2564 15.0609
9707 2 6.39741 51.6812 13.7755
3318 1 8.21837 51.6811 15.0536
9708 2 9.12464 53.2574 13.7826
9366 2 11.8537 51.6812 13.7755
3316 1 10.9454 53.2564 15.0609
2986 1 13.6746 51.6811 15.0536
9364 2 14.5809 53.2574 13.7826
9018 2 17.3099 51.6812 13.7755
2987 1 16.4017 53.2564 15.0609
2637 1 19.1308 51.6811 15.0536
9019 2 20.0371 53.2574 13.7826
9970 2 0.939143 54.8334 13.7923
3602 1 2.75975 54.8315 15.0711
9677 2 6.39538 54.8334 13.7923
3317 1 8.21598 54.8315 15.0711
9365 2 11.8516 54.8334 13.7923
2970 1 13.6722 54.8315 15.0711
9010 2 17.3079 54.8334 13.7923
2636 1 19.1285 54.8315 15.0711
9936 2 0.936293 57.9847 13.8192
3601 1 2.75646 57.9811 15.0992
3847 1 0.0300638 56.4064 15.0839
9972 2 3.66592 56.4092 13.8046
3600 1 5.4863 56.4064 15.0839
9675 2 9.12215 56.4092 13.8046
9676 2 6.39253 57.9847 13.8192
3286 1 8.2127 57.9811 15.0992
9342 2 11.8488 57.9847 13.8192
3319 1 10.9425 56.4064 15.0839
9367 2 14.5784 56.4092 13.8046
2969 1 13.6689 57.9811 15.0992
9009 2 17.305 57.9847 13.8192
2968 1 16.3988 56.4064 15.0839
9008 2 20.0346 56.4092 13.8046
2629 1 19.1252 57.9811 15.0992
9935 2 0.932979 61.1346 13.8551
3563 1 2.75274 61.1294 15.1366
3818 1 0.0265164 59.5554 15.1168
9934 2 3.6628 59.5598 13.8362
3603 1 5.48275 59.5554 15.1168
9639 2 6.38922 61.1346 13.8551
9678 2 9.11903 59.5598 13.8362
3285 1 8.20898 61.1294 15.1366
9341 2 11.8455 61.1346 13.8551
3284 1 10.939 59.5554 15.1168
9340 2 14.5753 59.5598 13.8362
2946 1 13.6652 61.1294 15.1366
8994 2 17.3017 61.1346 13.8551
2971 1 16.3952 59.5554 15.1168
9011 2 20.0315 59.5598 13.8362
2628 1 19.1215 61.1294 15.1366
9900 2 0.929412 64.2832 13.8985
3562 1 2.74882 64.2762 15.1816
3819 1 0.0226814 62.703 15.1582
9937 2 3.65934 62.7091 13.876
3561 1 5.47892 62.703 15.1582
9637 2 9.11558 62.7091 13.876
9638 2 6.38565 64.2832 13.8985
3246 1 8.20506 64.2762 15.1816
9310 2 11.8419 64.2832 13.8985
3287 1 10.9352 62.703 15.1582
9343 2 14.5718 62.7091 13.876
2945 1 13.6613 64.2762 15.1816
8993 2 17.2981 64.2832 13.8985
2944 1 16.3914 62.703 15.1582
8992 2 20.0281 62.7091 13.876
2613 1 19.1175 64.2762 15.1816
9899 2 0.925653 67.4303 13.9475
3523 1 2.74473 67.4217 15.2323
3790 1 0.0186796 65.8491 15.2064
9898 2 3.65568 65.8569 13.9224
3564 1 5.47492 65.8491 15.2064
9594 2 6.38189 67.4303 13.9475
9640 2 9.11191 65.8569 13.9224
3245 1 8.20097 67.4217 15.2323
9309 2 11.8381 67.4303 13.9475
3244 1 10.9312 65.8491 15.2064
9308 2 14.5682 65.8569 13.9224
2914 1 13.6572 67.4217 15.2323
8970 2 17.2944 67.4303 13.9475
2947 1 16.3874 65.8491 15.2064
8995 2 20.0244 65.8569 13.9224
2612 1 19.1134 67.4217 15.2323
9864 2 0.92171 70.5763 14.0001
3522 1 2.74047 70.5662 15.2864
3791 1 0.0145016 68.994 15.2591
9901 2 3.65182 69.0034 13.9735
3521 1 5.47074 68.994 15.2591
9592 2 9.10806 69.0034 13.9735
9593 2 6.37795 70.5763 14.0001
3199 1 8.1967 70.5662 15.2864
9270 2 11.8342 70.5763 14.0001
3247 1 10.927 68.994 15.2591
9311 2 14.5643 69.0034 13.9735
2913 1 13.6529 70.5662 15.2864
8969 2 17.2904 70.5763 14.0001
2912 1 16.3832 68.994 15.2591
8968 2 20.0205 69.0034 13.9735
2589 1 19.1092 70.5662 15.2864
9863 2 0.917626 73.7218 14.0545
3484 1 2.73607 73.7103 15.342
3762 1 0.0101583 72.1383 15.3142
9862 2 3.6478 72.1491 14.0272
3524 1 5.4664 72.1383 15.3142
9548 2 6.37386 73.7218 14.0545
9595 2 9.10404 72.1491 14.0272
3198 1 8.19231 73.7103 15.342
9269 2 11.8301 73.7218 14.0545
3197 1 10.9226 72.1383 15.3142
9268 2 14.5603 72.1491 14.0272
2874 1 13.6485 73.7103 15.342
8938 2 17.2863 73.7218 14.0545
2915 1 16.3789 72.1383 15.3142
8971 2 20.0165 72.1491 14.0272
2588 1 19.1048 73.7103 15.342
3763 1 0.00574773 75.2825 15.3698
9832 2 0.91351 76.8672 14.1091
3483 1 2.73169 76.8548 15.3974
9865 2 3.64368 75.2945 14.0819
3482 1 5.46199 75.2825 15.3698
9546 2 9.09992 75.2945 14.0819
9547 2 6.36975 76.8672 14.1091
3152 1 8.18792 76.8548 15.3974
3200 1 10.9182 75.2825 15.3698
9223 2 11.826 76.8672 14.1091
9271 2 14.5562 75.2945 14.0819
2873 1 13.6442 76.8548 15.3974
2872 1 16.3745 75.2825 15.3698
8937 2 17.2822 76.8672 14.1091
8936 2 20.0124 75.2945 14.0819
2557 1 19.1004 76.8548 15.3974
3738 1 0.00142791 78.4274 15.4246
9830 2 3.6396 78.4401 14.136
3485 1 5.45767 78.4274 15.4246
9549 2 9.09584 78.4401 14.136
3150 1 10.9139 78.4274 15.4246
9221 2 14.5521 78.4401 14.136
2875 1 16.3701 78.4274 15.4246
8939 2 20.0083 78.4401 14.136
9831 2 0.9095 80.0132 14.1625
3452 1 2.72747 80.0002 15.4513
3739 1 -0.00264536 81.5734 15.4774
9833 2 3.6357 81.5865 14.1885
3450 1 5.45359 81.5734 15.4774
9506 2 9.09193 81.5865 14.1885
9508 2 6.36574 80.0132 14.1625
3151 1 8.18371 80.0002 15.4513
9222 2 11.822 80.0132 14.1625
3153 1 10.9098 81.5734 15.4774
9224 2 14.5482 81.5865 14.1885
2828 1 13.6399 80.0002 15.4513
8899 2 17.2782 80.0132 14.1625
2826 1 16.3661 81.5734 15.4774
8897 2 20.0044 81.5865 14.1885
2556 1 19.0962 80.0002 15.4513
9808 2 0.905725 83.1601 14.2138
3451 1 2.72357 83.1469 15.5028
3722 1 -0.00636021 84.7207 15.5275
9806 2 3.63207 84.7339 14.2385
3453 1 5.44988 84.7207 15.5275
9507 2 6.36196 83.1601 14.2138
9509 2 9.08831 84.7339 14.2385
3112 1 8.17981 83.1469 15.5028
9176 2 11.8182 83.1601 14.2138
3110 1 10.9061 84.7207 15.5275
9174 2 14.5446 84.7339 14.2385
2827 1 13.636 83.1469 15.5028
8898 2 17.2744 83.1601 14.2138
2829 1 16.3624 84.7207 15.5275
8900 2 20.0008 84.7339 14.2385
2521 1 19.0923 83.1469 15.5028
9807 2 0.902274 86.308 14.2625
3428 1 2.72006 86.295 15.5514
9809 2 3.62881 87.8824 14.2857
3426 1 5.44658 87.8695 15.5745
9474 2 9.08504 87.8824 14.2857
9476 2 6.35851 86.308 14.2625
3111 1 8.17629 86.295 15.5514
9175 2 11.8148 86.308 14.2625
3113 1 10.9028 87.8695 15.5745
9177 2 14.5413 87.8824 14.2857
2783 1 13.6325 86.295 15.5514
8859 2 17.271 86.308 14.2625
2781 1 16.3591 87.8695 15.5745
3723 1 21.8153 87.8695 15.5745
8857 2 19.9975 87.8824 14.2857
2520 1 19.0888 86.295 15.5514
9792 2 0.899194 89.457 14.308
3427 1 2.71697 89.4444 15.5968
9790 2 3.62592 91.0319 14.3294
3429 1 5.44371 91.0197 15.6181
9475 2 6.35543 89.457 14.308
9477 2 9.08215 91.0319 14.3294
3080 1 8.17321 89.4444 15.5968
9136 2 11.8117 89.457 14.308
3078 1 10.8999 91.0197 15.6181
9134 2 14.5384 91.0319 14.3294
2782 1 13.6294 89.4444 15.5968
8858 2 17.2679 89.457 14.308
2784 1 16.3562 91.0197 15.6181
3714 1 21.8124 91.0197 15.6181
8860 2 19.9946 91.0319 14.3294
2485 1 19.0857 89.4444 15.5968
9791 2 0.896496 92.607 14.35
3412 1 2.71431 92.5952 15.6386
9793 2 3.62341 94.1824 14.3696
3410 1 5.44125 94.171 15.6581
9450 2 9.07965 94.1824 14.3696
9452 2 6.35273 92.607 14.35
3079 1 8.17055 92.5952 15.6386
9135 2 11.809 92.607 14.35
3081 1 10.8975 94.171 15.6581
9137 2 14.5359 94.1824 14.3696
2745 1 13.6268 92.5952 15.6386
8820 2 17.2652 92.607 14.35
2743 1 16.3537 94.171 15.6581
3715 1 21.81 94.171 15.6581
8818 2 19.9921 94.1824 14.3696
2484 1 19.083 92.5952 15.6386
9784 2 0.894169 95.7579 14.3884
3411 1 2.71204 95.7471 15.6767
9782 2 3.62126 97.3337 14.4061
3413 1 5.43916 97.3234 15.6944
9451 2 6.35041 95.7579 14.3884
9453 2 9.0775 97.3337 14.4061
3056 1 8.16828 95.7471 15.6767
9104 2 11.8066 95.7579 14.3884
3054 1 10.8954 97.3234 15.6944
9102 2 14.5337 97.3337 14.4061
2744 1 13.6245 95.7471 15.6767
8819 2 17.2629 95.7579 14.3884
2746 1 16.3516 97.3234 15.6944
3713 1 21.8079 97.3234 15.6944
8821 2 19.99 97.3337 14.4061
2450 1 19.0808 95.7471 15.6767
9783 2 0.892191 98.9096 14.4229
3401 1 2.71014 98.8999 15.7111
5681 1 5.43743 100.477 15.7268
12177 2 3.61944 100.486 14.4387
9433 2 6.34843 98.9096 14.4229
3055 1 8.16637 98.8999 15.7111
11882 2 9.07568 100.486 14.4387
9103 2 11.8047 98.9096 14.4229
5392 1 10.8937 100.477 15.7268
2712 1 13.6226 98.8999 15.7111
11560 2 14.5319 100.486 14.4387
8785 2 17.2609 98.9096 14.4229
5033 1 16.3499 100.477 15.7268
5922 1 21.8061 100.477 15.7268
2449 1 19.0789 98.8999 15.7111
11193 2 19.9882 100.486 14.4387
3598 1 0.948704 51.6802 17.6157
9968 2 1.85413 53.2545 16.3459
9673 2 4.5835 51.6805 16.3383
3596 1 3.67531 53.2533 17.6236
3314 1 6.40494 51.6802 17.6157
9671 2 7.31037 53.2545 16.3459
3315 1 9.13155 53.2533 17.6236
9362 2 10.0397 51.6805 16.3383
2966 1 11.8612 51.6802 17.6157
9006 2 15.496 51.6805 16.3383
9363 2 12.7666 53.2545 16.3459
2964 1 14.5878 53.2533 17.6236
2634 1 17.3174 51.6802 17.6157
9004 2 18.2228 53.2545 16.3459
8704 2 20.9522 51.6805 16.3383
2635 1 20.044 53.2533 17.6236
3597 1 0.945281 54.8262 17.6345
9672 2 4.58065 54.8285 16.3562
3282 1 6.40152 54.8262 17.6345
9338 2 10.0369 54.8285 16.3562
2965 1 11.8578 54.8262 17.6345
9005 2 15.4931 54.8285 16.3562
2626 1 17.314 54.8262 17.6345
8703 2 20.9494 54.8285 16.3562
9932 2 1.85068 56.4022 16.3693
3559 1 0.940748 57.9717 17.6645
9635 2 4.57678 57.9758 16.3849
3599 1 3.67122 56.3991 17.6482
9674 2 7.30692 56.4022 16.3693
3280 1 9.12745 56.3991 17.6482
3281 1 6.39699 57.9717 17.6645
9337 2 10.033 57.9758 16.3849
2942 1 11.8532 57.9717 17.6645
8990 2 15.4893 57.9758 16.3849
9336 2 12.7632 56.4022 16.3693
2967 1 14.5837 56.3991 17.6482
9007 2 18.2194 56.4022 16.3693
2625 1 17.3095 57.9717 17.6645
8702 2 20.9455 57.9758 16.3849
2624 1 20.0399 56.3991 17.6482
9933 2 1.84653 59.549 16.4029
3558 1 0.935855 61.1161 17.7045
9634 2 4.57245 61.1219 16.4231
3557 1 3.66644 59.544 17.6834
9633 2 7.30276 59.549 16.4029
3242 1 6.39209 61.1161 17.7045
3283 1 9.12267 59.544 17.6834
9306 2 10.0287 61.1219 16.4231
2941 1 11.8483 61.1161 17.7045
8989 2 15.4849 61.1219 16.4231
9339 2 12.759 59.549 16.4029
2940 1 14.5789 59.544 17.6834
8988 2 18.2152 59.549 16.4029
2610 1 17.3046 61.1161 17.7045
8695 2 20.9412 61.1219 16.4231
2627 1 20.0352 59.544 17.6834
9896 2 1.8421 62.6945 16.4452
3519 1 0.930917 64.2591 17.7524
9590 2 4.56797 64.2667 16.4689
3560 1 3.66151 62.6878 17.7276
9636 2 7.29834 62.6945 16.4452
3240 1 9.11775 62.6878 17.7276
3241 1 6.38716 64.2591 17.7524
9305 2 10.0242 64.2667 16.4689
2910 1 11.8434 64.2591 17.7524
8966 2 15.4804 64.2667 16.4689
9304 2 12.7546 62.6945 16.4452
2943 1 14.574 62.6878 17.7276
8991 2 18.2108 62.6945 16.4452
2609 1 17.2996 64.2591 17.7524
8694 2 20.9367 64.2667 16.4689
2608 1 20.0302 62.6878 17.7276
9897 2 1.83758 65.8387 16.4941
3518 1 0.925928 67.401 17.8059
9589 2 4.56339 67.4104 16.5203
3517 1 3.65655 65.8302 17.7786
9588 2 7.29381 65.8387 16.4941
3195 1 6.38217 67.401 17.8059
3243 1 9.11279 65.8302 17.7786
9266 2 10.0196 67.4104 16.5203
2909 1 11.8384 67.401 17.8059
8965 2 15.4759 67.4104 16.5203
9307 2 12.7501 65.8387 16.4941
2908 1 14.569 65.8302 17.7786
8964 2 18.2063 65.8387 16.4941
2586 1 17.2946 67.401 17.8059
8679 2 20.9321 67.4104 16.5203
2611 1 20.0253 65.8302 17.7786
9860 2 1.83294 68.9819 16.5474
3480 1 0.920854 70.5423 17.8622
9544 2 4.55871 70.5534 16.575
3520 1 3.65152 68.9717 17.8339
9591 2 7.28918 68.9819 16.5474
3193 1 9.10776 68.9717 17.8339
3194 1 6.37709 70.5423 17.8622
9265 2 10.0149 70.5534 16.575
2870 1 11.8333 70.5423 17.8622
8934 2 15.4712 70.5534 16.575
9264 2 12.7454 68.9819 16.5474
2911 1 14.564 68.9717 17.8339
8967 2 18.2017 68.9819 16.5474
2585 1 17.2896 70.5423 17.8622
8678 2 20.9274 70.5534 16.575
2584 1 20.0202 68.9717 17.8339
9861 2 1.82823 72.1249 16.6028
3479 1 0.91579 73.684 17.9192
9543 2 4.554 73.6965 16.6307
3478 1 3.64643 72.1131 17.8908
9542 2 7.28447 72.1249 16.6028
3148 1 6.37203 73.684 17.9192
3196 1 9.10267 72.1131 17.8908
9219 2 10.0102 73.6965 16.6307
2869 1 11.8283 73.684 17.9192
8933 2 15.4665 73.6965 16.6307
9267 2 12.7407 72.1249 16.6028
2868 1 14.5589 72.1131 17.8908
8932 2 18.1969 72.1249 16.6028
2554 1 17.2845 73.684 17.9192
8655 2 20.9227 73.6965 16.6307
2587 1 20.0151 72.1131 17.8908
9828 2 1.82355 75.2683 16.6585
3448 1 0.910929 76.827 17.9752
3481 1 3.64144 75.2553 17.9474
9504 2 4.5494 76.8404 16.686
9545 2 7.27979 75.2683 16.6585
3146 1 9.09768 75.2553 17.9474
3147 1 6.36717 76.827 17.9752
9218 2 10.0056 76.8404 16.686
2824 1 11.8234 76.827 17.9752
9217 2 12.736 75.2683 16.6585
2871 1 14.5539 75.2553 17.9474
8895 2 15.4619 76.8404 16.686
8935 2 18.1923 75.2683 16.6585
2553 1 17.2796 76.827 17.9752
2552 1 20.0102 75.2553 17.9474
8654 2 20.9181 76.8404 16.686
9829 2 1.81908 78.4128 16.713
3446 1 3.63675 78.3991 18.0024
9502 2 7.27532 78.4128 16.713
3149 1 9.09299 78.3991 18.0024
9220 2 12.7316 78.4128 16.713
2822 1 14.5492 78.3991 18.0024
8893 2 18.1878 78.4128 16.713
2555 1 20.0055 78.3991 18.0024
9804 2 1.81497 81.5589 16.7654
3447 1 0.906456 79.9718 18.029
9503 2 4.54509 79.9857 16.7395
3449 1 3.63252 81.5449 18.0549
9505 2 7.27121 81.5589 16.7654
3106 1 9.08876 81.5449 18.0549
3108 1 6.36269 79.9718 18.029
9172 2 10.0013 79.9857 16.7395
2823 1 11.8189 79.9718 18.029
8894 2 15.4576 79.9857 16.7395
9170 2 12.7274 81.5589 16.7654
2825 1 14.545 81.5449 18.0549
8896 2 18.1837 81.5589 16.7654
2518 1 17.2752 79.9718 18.029
8627 2 20.9138 79.9857 16.7395
2516 1 20.0012 81.5449 18.0549
9805 2 1.8113 84.7067 16.815
3424 1 0.902489 83.1186 18.0801
9472 2 4.54119 83.1326 16.7906
3422 1 3.62883 84.6929 18.1044
9470 2 7.26753 84.7067 16.815
3107 1 6.35873 83.1186 18.0801
3109 1 9.08507 84.6929 18.1044
9171 2 9.99743 83.1326 16.7906
2779 1 11.815 83.1186 18.0801
8855 2 15.4537 83.1326 16.7906
9173 2 12.7238 84.7067 16.815
2777 1 14.5413 84.6929 18.1044
8853 2 18.18 84.7067 16.815
2517 1 17.2712 83.1186 18.0801
8626 2 20.9099 83.1326 16.7906
2519 1 19.9975 84.6929 18.1044
9788 2 1.8081 87.8562 16.8615
3423 1 0.899068 86.2676 18.1279
9471 2 4.53776 86.2812 16.8387
3425 1 3.62568 87.8428 18.1506
9473 2 7.26434 87.8562 16.8615
3074 1 9.08191 87.8428 18.1506
3076 1 6.35531 86.2676 18.1279
9132 2 9.99399 86.2812 16.8387
2778 1 11.8115 86.2676 18.1279
8854 2 15.4502 86.2812 16.8387
9130 2 12.7206 87.8562 16.8615
2780 1 14.5382 87.8428 18.1506
8856 2 18.1768 87.8562 16.8615
2482 1 17.2678 86.2676 18.1279
8599 2 20.9065 86.2812 16.8387
2480 1 19.9944 87.8428 18.1506
9789 2 1.80536 91.0072 16.9045
3408 1 0.896174 89.4185 18.1724
9448 2 4.53479 89.4315 16.8834
3406 1 3.62303 90.9947 18.1933
9446 2 7.2616 91.0072 16.9045
3075 1 6.35241 89.4185 18.1724
3077 1 9.07927 90.9947 18.1933
9131 2 9.99103 89.4315 16.8834
2741 1 11.8087 89.4185 18.1724
8816 2 15.4473 89.4315 16.8834
9133 2 12.7178 91.0072 16.9045
2739 1 14.5355 90.9947 18.1933
8814 2 18.1741 91.0072 16.9045
2481 1 17.2649 89.4185 18.1724
8598 2 20.9035 89.4315 16.8834
2483 1 19.9917 90.9947 18.1933
9780 2 1.80305 94.1596 16.944
3407 1 0.893758 92.5712 18.2134
9447 2 4.53227 92.5832 16.9247
3409 1 3.62083 94.148 18.2325
9449 2 7.25929 94.1596 16.944
3050 1 9.07707 94.148 18.2325
3052 1 6.35 92.5712 18.2134
9100 2 9.98851 92.5832 16.9247
2740 1 11.8062 92.5712 18.2134
8815 2 15.4447 92.5832 16.9247
9098 2 12.7155 94.1596 16.944
2742 1 14.5333 94.148 18.2325
8817 2 18.1718 94.1596 16.944
2447 1 17.2625 92.5712 18.2134
8571 2 20.901 92.5832 16.9247
2445 1 19.9895 94.148 18.2325
9781 2 1.80112 97.3131 16.9798
3400 1 0.89176 95.7252 18.2507
9432 2 4.53016 95.7362 16.9624
3398 1 3.61902 97.3027 18.268
9430 2 7.25735 97.3131 16.9798
3051 1 6.348 95.7252 18.2507
3053 1 9.07526 97.3027 18.268
9099 2 9.9864 95.7362 16.9624
2711 1 11.8042 95.7252 18.2507
8784 2 15.4426 95.7362 16.9624
9101 2 12.7136 97.3131 16.9798
2709 1 14.5315 97.3027 18.268
8782 2 18.1698 97.3131 16.9798
2446 1 17.2605 95.7252 18.2507
8570 2 20.8989 95.7362 16.9624
2448 1 19.9877 97.3027 18.268
3399 1 0.890122 98.8805 18.2843
12143 2 1.79952 100.468 17.0119
9431 2 4.5284 98.8903 16.9963
5680 1 3.61754 100.458 18.2997
3033 1 6.34636 98.8805 18.2843
11881 2 7.25576 100.468 17.0119
5361 1 9.07378 100.458 18.2997
9073 2 9.98464 98.8903 16.9963
2710 1 11.8026 98.8805 18.2843
8783 2 15.4409 98.8903 16.9963
11537 2 12.712 100.468 17.0119
5032 1 14.53 100.458 18.2997
2416 1 17.2588 98.8805 18.2843
11192 2 18.1682 100.468 17.0119
8543 2 20.8971 98.8903 16.9963
4681 1 19.9863 100.458 18.2997
9669 2 2.77059 51.6788 18.9006
9627 2 0.958926 51.6756 21.4626
3595 1 1.86232 53.2484 20.1857
9930 2 0.0406694 53.2504 18.9086
3278 1 4.59268 51.678 20.1773
9670 2 5.49691 53.2504 18.9086
9625 2 3.68439 53.2442 21.471
9334 2 8.22683 51.6788 18.9006
9330 2 6.41516 51.6756 21.4626
3276 1 7.31856 53.2484 20.1857
9331 2 9.14063 53.2442 21.471
2962 1 10.0489 51.678 20.1773
8982 2 11.8714 51.6756 21.4626
9332 2 10.9531 53.2504 18.9086
2622 1 15.5052 51.678 20.1773
9002 2 13.6831 51.6788 18.9006
2963 1 12.7748 53.2484 20.1857
8980 2 14.5969 53.2442 21.471
8698 2 17.3276 51.6756 21.4626
2620 1 18.231 53.2484 20.1857
9003 2 16.4094 53.2504 18.9086
2352 1 20.9614 51.678 20.1773
8701 2 19.1393 51.6788 18.9006
8699 2 20.0531 53.2442 21.471
9631 2 2.76652 54.822 18.9197
9626 2 0.952999 54.813 21.4827
3277 1 4.58767 54.8189 20.1973
9333 2 8.22276 54.822 18.9197
9298 2 6.40924 54.813 21.4827
2938 1 10.0439 54.8189 20.1973
8981 2 11.8655 54.813 21.4827
2621 1 15.5001 54.8189 20.1973
8986 2 13.679 54.822 18.9197
8690 2 17.3217 54.813 21.4827
2351 1 20.9564 54.8189 20.1973
8700 2 19.1352 54.822 18.9197
3555 1 1.85647 56.3894 20.2119
9630 2 2.76118 57.9648 18.9503
9931 2 0.0358194 56.3935 18.9336
9582 2 0.945583 57.9507 21.5155
3238 1 4.58136 57.9598 20.2295
9629 2 5.49206 56.3935 18.9336
9628 2 3.67748 56.3819 21.4976
3279 1 7.3127 56.3894 20.2119
9302 2 8.21741 57.9648 18.9503
9297 2 6.40182 57.9507 21.5155
9296 2 9.13372 56.3819 21.4976
2937 1 10.0376 57.9598 20.2295
9335 2 10.9483 56.3935 18.9336
8958 2 11.8581 57.9507 21.5155
2606 1 15.4938 57.9598 20.2295
2936 1 12.7689 56.3894 20.2119
8985 2 13.6737 57.9648 18.9503
8983 2 14.59 56.3819 21.4976
2623 1 18.2252 56.3894 20.2119
8984 2 16.4045 56.3935 18.9336
8689 2 17.3143 57.9507 21.5155
2350 1 20.9501 57.9598 20.2295
8693 2 19.1299 57.9648 18.9503
8688 2 20.0462 56.3819 21.4976
3556 1 1.84999 59.53 20.2498
9586 2 2.75549 61.1068 18.9912
9894 2 0.0302197 59.5359 18.9696
9581 2 0.938123 61.088 21.5596
3237 1 4.57492 61.0999 20.2726
9632 2 5.48646 59.5359 18.9696
9580 2 3.66993 59.5195 21.5363
3236 1 7.30623 59.53 20.2498
9301 2 8.21173 61.1068 18.9912
9258 2 6.39436 61.088 21.5596
9299 2 9.12617 59.5195 21.5363
2906 1 10.0312 61.0999 20.2726
9300 2 10.9427 59.5359 18.9696
8957 2 11.8506 61.088 21.5596
2605 1 15.4874 61.0999 20.2726
2939 1 12.7625 59.53 20.2498
8962 2 13.668 61.1068 18.9912
8956 2 14.5824 59.5195 21.5363
2604 1 18.2187 59.53 20.2498
8987 2 16.3989 59.5359 18.9696
8674 2 17.3068 61.088 21.5596
2343 1 20.9436 61.0999 20.2726
8692 2 19.1242 61.1068 18.9912
8691 2 20.0386 59.5195 21.5363
3515 1 1.84366 62.6695 20.2975
9585 2 2.74985 64.2476 19.0401
9895 2 0.0245411 62.6773 19.0148
9536 2 0.931054 64.2243 21.6123
3191 1 4.5687 64.2388 20.3241
9584 2 5.48078 62.6773 19.0148
9583 2 3.66266 62.6562 21.5851
3239 1 7.2999 62.6695 20.2975
9262 2 8.20609 64.2476 19.0401
9256 2 9.1189 62.6562 21.5851
9257 2 6.38729 64.2243 21.6123
2905 1 10.0249 64.2388 20.3241
9303 2 10.937 62.6773 19.0148
8926 2 11.8435 64.2243 21.6123
2582 1 15.4812 64.2388 20.3241
2904 1 12.7561 62.6695 20.2975
8961 2 13.6623 64.2476 19.0401
8959 2 14.5751 62.6562 21.5851
2607 1 18.2124 62.6695 20.2975
8960 2 16.3933 62.6773 19.0148
8673 2 17.2998 64.2243 21.6123
2342 1 20.9374 64.2388 20.3241
8677 2 19.1186 64.2476 19.0401
8672 2 20.0314 62.6562 21.5851
3516 1 1.83754 65.8078 20.3521
9540 2 2.74427 67.3875 19.0944
9858 2 0.0189384 65.8176 19.0667
9535 2 0.924267 67.3601 21.6699
3190 1 4.56262 67.3767 20.3809
9587 2 5.47518 65.8176 19.0667
9534 2 3.65575 65.7922 21.6407
3189 1 7.29377 65.8078 20.3521
9261 2 8.20051 67.3875 19.0944
9211 2 6.38051 67.3601 21.6699
9259 2 9.11199 65.7922 21.6407
2866 1 10.0189 67.3767 20.3809
9260 2 10.9314 65.8176 19.0667
8925 2 11.8367 67.3601 21.6699
2581 1 15.4751 67.3767 20.3809
2907 1 12.75 65.8078 20.3521
8930 2 13.6567 67.3875 19.0944
8924 2 14.5682 65.7922 21.6407
2580 1 18.2063 65.8078 20.3521
8963 2 16.3877 65.8176 19.0667
8650 2 17.293 67.3601 21.6699
2327 1 20.9313 67.3767 20.3809
8676 2 19.113 67.3875 19.0944
8675 2 20.0245 65.7922 21.6407
3476 1 1.83148 68.9456 20.4102
9539 2 2.73872 70.5274 19.1512
9859 2 0.0133667 68.9574 19.1226
9496 2 0.917743 70.4968 21.7292
3144 1 4.55661 70.5147 20.4397
9538 2 5.46961 68.9574 19.1226
9537 2 3.64908 68.9283 21.6996
3192 1 7.28772 68.9456 20.4102
9215 2 8.19496 70.5274 19.1512
9209 2 9.10532 68.9283 21.6996
9210 2 6.37398 70.4968 21.7292
2865 1 10.0128 70.5147 20.4397
9263 2 10.9258 68.9574 19.1226
8887 2 11.8302 70.4968 21.7292
2550 1 15.4691 70.5147 20.4397
2864 1 12.744 68.9456 20.4102
8929 2 13.6512 70.5274 19.1512
8927 2 14.5616 68.9283 21.6996
2583 1 18.2002 68.9456 20.4102
8928 2 16.3821 68.9574 19.1226
8649 2 17.2865 70.4968 21.7292
2326 1 20.9253 70.5147 20.4397
8653 2 19.1074 70.5274 19.1512
8648 2 20.0178 68.9283 21.6996
3477 1 1.82556 72.0841 20.469
9500 2 2.73333 73.6682 19.2083
9826 2 0.0078726 72.0976 19.1799
9495 2 0.911697 73.6358 21.7874
3143 1 4.55085 73.6541 20.498
9541 2 5.46411 72.0976 19.1799
9494 2 3.64276 72.066 21.7585
3142 1 7.2818 72.0841 20.469
9214 2 8.18957 73.6682 19.2083
9164 2 6.36794 73.6358 21.7874
9212 2 9.099 72.066 21.7585
2820 1 10.0071 73.6541 20.498
9213 2 10.9203 72.0976 19.1799
8886 2 11.8242 73.6358 21.7874
2549 1 15.4633 73.6541 20.498
2867 1 12.738 72.0841 20.469
8891 2 13.6458 73.6682 19.2083
8885 2 14.5552 72.066 21.7585
2548 1 18.1943 72.0841 20.469
8931 2 16.3766 72.0976 19.1799
8622 2 17.2804 73.6358 21.7874
2304 1 20.9196 73.6541 20.498
8652 2 19.102 73.6682 19.2083
8651 2 20.0115 72.066 21.7585
3444 1 1.82003 75.2246 20.5264
9827 2 0.00263751 75.2393 19.2364
9499 2 2.7283 76.8109 19.2641
9498 2 5.45888 75.2393 19.2364
3104 1 4.54559 76.7959 20.5542
3145 1 7.27626 75.2246 20.5264
9168 2 8.18454 76.8109 19.2641
9216 2 10.9151 75.2393 19.2364
2819 1 10.0018 76.7959 20.5542
2818 1 12.7325 75.2246 20.5264
2514 1 15.4581 76.7959 20.5542
8890 2 13.6408 76.8109 19.2641
2551 1 18.1887 75.2246 20.5264
8889 2 16.3714 75.2393 19.2364
2303 1 20.9143 76.7959 20.5542
8625 2 19.097 76.8109 19.2641
3445 1 1.81509 78.3679 20.5813
9802 2 -0.00213803 78.3831 19.2911
9501 2 5.4541 78.3831 19.2911
3102 1 7.27133 78.3679 20.5813
9166 2 10.9103 78.3831 19.2911
2821 1 12.7276 78.3679 20.5813
2512 1 18.1838 78.3679 20.5813
8892 2 16.3666 78.3831 19.2911
3420 1 1.81088 81.5141 20.6331
9468 2 2.72381 79.9559 19.3174
9803 2 -0.00632743 81.5293 19.343
3103 1 4.54101 79.9406 20.6076
9466 2 5.44991 81.5293 19.343
3105 1 7.26712 81.5141 20.6331
9167 2 8.18005 79.9559 19.3174
2775 1 9.99725 79.9406 20.6076
9169 2 10.9061 81.5293 19.343
2513 1 15.4535 79.9406 20.6076
2773 1 12.7234 81.5141 20.6331
8851 2 13.6363 79.9559 19.3174
2515 1 18.1796 81.5141 20.6331
8849 2 16.3624 81.5293 19.343
2280 1 20.9097 79.9406 20.6076
8624 2 19.0925 79.9559 19.3174
3421 1 1.80739 84.6632 20.6816
9467 2 2.71993 83.1033 19.3678
3072 1 4.53717 83.0883 20.6577
9469 2 5.44634 84.6779 19.3919
3070 1 7.26362 84.6632 20.6816
9128 2 8.17617 83.1033 19.3678
2774 1 9.9934 83.0883 20.6577
9126 2 10.9026 84.6779 19.3919
2478 1 15.4496 83.0883 20.6577
2776 1 12.7199 84.6632 20.6816
8850 2 13.6324 83.1033 19.3678
2476 1 18.1761 84.6632 20.6816
8852 2 16.3588 84.6779 19.3919
9786 2 21.8151 84.6779 19.3919
2279 1 20.9059 83.0883 20.6577
8597 2 19.0886 83.1033 19.3678
3404 1 1.80455 87.8149 20.7267
9444 2 2.71667 86.2531 19.4151
3071 1 4.53401 86.2387 20.7046
9442 2 5.44337 87.8289 19.4374
3073 1 7.26078 87.8149 20.7267
9127 2 8.1729 86.2531 19.4151
2737 1 9.99025 86.2387 20.7046
9129 2 10.8996 87.8289 19.4374
2477 1 15.4465 86.2387 20.7046
2735 1 12.717 87.8149 20.7267
8812 2 13.6291 86.2531 19.4151
2479 1 18.1733 87.8149 20.7267
8810 2 16.3558 87.8289 19.4374
9787 2 21.8121 87.8289 19.4374
2256 1 20.9027 86.2387 20.7046
8596 2 19.0854 86.2531 19.4151
3405 1 1.80226 90.9688 20.7683
9443 2 2.71396 89.4051 19.4589
3048 1 4.53146 89.3916 20.7479
9445 2 5.44092 90.9818 19.4795
3046 1 7.2585 90.9688 20.7683
9096 2 8.1702 89.4051 19.4589
2736 1 9.9877 89.3916 20.7479
9094 2 10.8972 90.9818 19.4795
2443 1 15.4439 89.3916 20.7479
2738 1 12.7147 90.9688 20.7683
8811 2 13.6264 89.4051 19.4589
2441 1 18.171 90.9688 20.7683
8813 2 16.3534 90.9818 19.4795
9778 2 21.8096 90.9818 19.4795
2255 1 20.9002 89.3916 20.7479
8569 2 19.0827 89.4051 19.4589
3396 1 1.80044 94.1245 20.8065
9428 2 2.71175 92.5589 19.4993
3047 1 4.52942 92.5464 20.7879
9426 2 5.43892 94.1364 19.5181
3049 1 7.25668 94.1245 20.8065
9095 2 8.16799 92.5589 19.4993
2707 1 9.98566 92.5464 20.7879
9097 2 10.8952 94.1364 19.5181
2442 1 15.4419 92.5464 20.7879
2705 1 12.7129 94.1245 20.8065
8780 2 13.6242 92.5589 19.4993
2444 1 18.1692 94.1245 20.8065
8778 2 16.3514 94.1364 19.5181
9779 2 21.8076 94.1364 19.5181
2232 1 20.8981 92.5464 20.7879
8568 2 19.0805 92.5589 19.4993
3397 1 1.79899 97.2817 20.8411
9427 2 2.70994 95.7142 19.5361
3032 1 4.52779 95.7029 20.8243
9429 2 5.43729 97.2923 19.5531
3030 1 7.25523 97.2817 20.8411
9072 2 8.16618 95.7142 19.5361
2706 1 9.98403 95.7029 20.8243
9070 2 10.8935 97.2923 19.5531
2415 1 15.4403 95.7029 20.8243
2708 1 12.7115 97.2817 20.8411
8779 2 13.6224 95.7142 19.5361
2413 1 18.1677 97.2817 20.8411
8781 2 16.3498 97.2923 19.5531
9777 2 21.806 97.2923 19.5531
2231 1 20.8965 95.7029 20.8243
8542 2 19.0787 95.7142 19.5361
9417 2 2.70848 98.8707 19.5693
5642 1 1.79784 100.44 20.8721
3031 1 4.5265 98.8608 20.8571
11844 2 5.43599 100.449 19.5845
9071 2 8.16472 98.8707 19.5693
5360 1 7.25408 100.44 20.8721
2682 1 9.98274 98.8608 20.8571
11536 2 10.8922 100.449 19.5845
2414 1 15.439 98.8608 20.8571
8753 2 13.621 98.8707 19.5693
5009 1 12.7103 100.44 20.8721
4680 1 18.1666 100.44 20.8721
11177 2 16.3485 100.449 19.5845
12142 2 21.8047 100.449 19.5845
2208 1 20.8952 98.8608 20.8571
8541 2 19.0772 98.8707 19.5693
3274 1 2.78184 51.6738 22.7388
9294 2 4.60498 51.67 24.0249
2934 1 8.23808 51.6738 22.7388
8978 2 10.0612 51.67 24.0249
2618 1 13.6943 51.6738 22.7388
8686 2 15.5175 51.67 24.0249
2349 1 19.1506 51.6738 22.7388
8480 2 20.9737 51.67 24.0249
3234 1 2.77443 54.8086 22.7597
3553 1 0.0503594 53.241 22.7475
9624 2 1.87291 53.2349 24.0334
3275 1 5.5066 53.241 22.7475
9293 2 4.59626 54.8003 24.0455
2933 1 8.23067 54.8086 22.7597
9292 2 7.32915 53.2349 24.0334
2932 1 10.9628 53.241 22.7475
8954 2 10.0525 54.8003 24.0455
2602 1 13.6869 54.8086 22.7597
8685 2 15.5087 54.8003 24.0455
8979 2 12.7854 53.2349 24.0334
2619 1 16.4191 53.241 22.7475
8684 2 18.2416 53.2349 24.0334
2348 1 19.1431 54.8086 22.7597
8479 2 20.965 54.8003 24.0455
3233 1 2.76561 57.9442 22.7942
3554 1 0.0419245 56.3764 22.7752
9578 2 1.86301 56.3661 24.0612
3232 1 5.49816 56.3764 22.7752
9254 2 4.58597 57.9321 24.0804
2902 1 8.22185 57.9442 22.7942
9295 2 7.31925 56.3661 24.0612
2935 1 10.9544 56.3764 22.7752
8953 2 10.0422 57.9321 24.0804
2601 1 13.6781 57.9442 22.7942
8670 2 15.4984 57.9321 24.0804
8952 2 12.7755 56.3661 24.0612
2600 1 16.4106 56.3764 22.7752
8687 2 18.2317 56.3661 24.0612
2341 1 19.1343 57.9442 22.7942
8478 2 20.9547 57.9321 24.0804
3187 1 2.75717 61.0795 22.8411
3513 1 0.0331776 59.512 22.8162
9579 2 1.85286 59.4981 24.103
3235 1 5.48942 59.512 22.8162
9253 2 4.57625 61.0639 24.1285
2901 1 8.21341 61.0795 22.8411
9252 2 7.3091 59.4981 24.103
2900 1 10.9457 59.512 22.8162
8922 2 10.0325 61.0639 24.1285
2578 1 13.6696 61.0795 22.8411
8669 2 15.4887 61.0639 24.1285
8955 2 12.7653 59.4981 24.103
2603 1 16.4019 59.512 22.8162
8668 2 18.2216 59.4981 24.103
2340 1 19.1259 61.0795 22.8411
8471 2 20.945 61.0639 24.1285
3186 1 2.74941 64.2135 22.8972
3514 1 0.0251065 62.6467 22.8683
9532 2 1.84364 62.6295 24.1563
3185 1 5.48134 62.6467 22.8683
9207 2 4.56745 64.1949 24.1859
2862 1 8.20565 64.2135 22.8972
9255 2 7.29988 62.6295 24.1563
2903 1 10.9376 62.6467 22.8683
8921 2 10.0237 64.1949 24.1859
2577 1 13.6619 64.2135 22.8972
8646 2 15.4799 64.1949 24.1859
8920 2 12.7561 62.6295 24.1563
2576 1 16.3938 62.6467 22.8683
8671 2 18.2124 62.6295 24.1563
2325 1 19.1181 64.2135 22.8972
8470 2 20.9362 64.1949 24.1859
3140 1 2.74202 67.3469 22.9579
3474 1 0.0175609 65.7802 22.9272
9533 2 1.83517 65.7604 24.2165
3188 1 5.4738 65.7802 22.9272
9206 2 4.55927 67.3263 24.2475
2861 1 8.19826 67.3469 22.9579
9205 2 7.29141 65.7604 24.2165
2860 1 10.93 65.7802 22.9272
8883 2 10.0155 67.3263 24.2475
2546 1 13.6545 67.3469 22.9579
8645 2 15.4717 67.3263 24.2475
8923 2 12.7477 65.7604 24.2165
2579 1 16.3863 65.7802 22.9272
8644 2 18.2039 65.7604 24.2165
2324 1 19.1107 67.3469 22.9579
8456 2 20.928 67.3263 24.2475
3139 1 2.73499 70.4816 23.0191
3475 1 0.0103267 68.914 22.9886
9492 2 1.82728 68.8928 24.2784
3138 1 5.46657 68.914 22.9886
9160 2 4.55174 70.4601 24.3089
2816 1 8.19123 70.4816 23.0191
9208 2 7.28352 68.8928 24.2784
2863 1 10.9228 68.914 22.9886
8882 2 10.008 70.4601 24.3089
2545 1 13.6475 70.4816 23.0191
8618 2 15.4642 70.4601 24.3089
8881 2 12.7398 68.8928 24.2784
2544 1 16.379 68.914 22.9886
8647 2 18.196 68.8928 24.2784
2302 1 19.1037 70.4816 23.0191
8455 2 20.9205 70.4601 24.3089
3100 1 2.72861 73.6192 23.0782
3442 1 0.00357651 72.0499 23.049
9493 2 1.82021 72.0285 24.3387
3141 1 5.45981 72.0499 23.049
9159 2 4.5452 73.598 24.3677
2815 1 8.18485 73.6192 23.0782
9158 2 7.27645 72.0285 24.3387
2814 1 10.9161 72.0499 23.049
8843 2 10.0014 73.598 24.3677
2510 1 13.6411 73.6192 23.0782
8617 2 15.4577 73.598 24.3677
8884 2 12.7327 72.0285 24.3387
2547 1 16.3723 72.0499 23.049
8616 2 18.1889 72.0285 24.3387
2301 1 19.0973 73.6192 23.0782
8440 2 20.9139 73.598 24.3677
9464 2 0.906375 76.7778 21.8432
3443 1 -0.00236388 75.1894 23.1066
9460 2 1.81426 75.1686 24.3958
3099 1 2.72315 76.7607 23.1341
9497 2 3.63705 75.2064 21.8156
3098 1 5.45387 75.1894 23.1066
9120 2 4.53986 76.7403 24.4229
9162 2 9.09329 75.2064 21.8156
9163 2 6.36261 76.7778 21.8432
9161 2 7.2705 75.1686 24.3958
2771 1 8.17939 76.7607 23.1341
8847 2 11.8189 76.7778 21.8432
2817 1 10.9101 75.1894 23.1066
8842 2 9.9961 76.7403 24.4229
8888 2 14.5495 75.2064 21.8156
8841 2 12.7267 75.1686 24.3958
2509 1 13.6356 76.7607 23.1341
8590 2 15.4523 76.7403 24.4229
8621 2 17.2751 76.7778 21.8432
2508 1 16.3664 75.1894 23.1066
8619 2 18.183 75.1686 24.3958
8620 2 20.0058 75.2064 21.8156
2278 1 19.0919 76.7607 23.1341
8439 2 20.9086 76.7403 24.4229
9463 2 0.901896 79.9232 21.8959
3418 1 -0.00730971 78.333 23.1608
9461 2 1.80952 78.3132 24.4492
3068 1 2.71871 79.9062 23.1865
9462 2 3.63215 78.3501 21.8699
3101 1 5.44893 78.333 23.1608
9119 2 4.53569 79.8871 24.4746
9165 2 9.08839 78.3501 21.8699
9124 2 6.35813 79.9232 21.8959
9118 2 7.26576 78.3132 24.4492
2770 1 8.17495 79.9062 23.1865
8846 2 11.8144 79.9232 21.8959
2769 1 10.9052 78.333 23.1608
8804 2 9.99193 79.8871 24.4746
8845 2 14.5446 78.3501 21.8699
8844 2 12.722 78.3132 24.4492
2474 1 13.6312 79.9062 23.1865
8589 2 15.4482 79.8871 24.4746
8594 2 17.2706 79.9232 21.8959
2511 1 16.3614 78.333 23.1608
8588 2 18.1782 78.3132 24.4492
8623 2 20.0009 78.3501 21.8699
2277 1 19.0874 79.9062 23.1865
8424 2 20.9044 79.8871 24.4746
9436 2 1.80587 81.462 24.4991
9465 2 3.62809 81.4971 21.921
3066 1 5.44498 81.4804 23.2114
9122 2 9.08433 81.4971 21.921
9121 2 7.26211 81.462 24.4991
2772 1 10.9012 81.4804 23.2114
8848 2 14.5406 81.4971 21.921
8802 2 12.7184 81.462 24.4991
2472 1 16.3575 81.4804 23.2114
8591 2 18.1746 81.462 24.4991
8592 2 19.9968 81.4971 21.921
3419 1 21.8137 81.4804 23.2114
9440 2 0.898247 83.0718 21.9454
3067 1 2.71522 83.0555 23.2355
9437 2 1.80314 84.6144 24.5455
9438 2 3.62483 84.6473 21.9688
3069 1 5.4419 84.6314 23.2586
9088 2 4.53253 83.0378 24.5227
9123 2 6.35449 83.0718 21.9454
9125 2 9.08107 84.6473 21.9688
2733 1 8.17146 83.0555 23.2355
9086 2 7.25938 84.6144 24.5455
8808 2 11.8107 83.0718 21.9454
2731 1 10.8981 84.6314 23.2586
8803 2 9.98876 83.0378 24.5227
8806 2 14.5373 84.6473 21.9688
2473 1 13.6277 83.0555 23.2355
8562 2 15.445 83.0378 24.5227
8805 2 12.7156 84.6144 24.5455
8593 2 17.267 83.0718 21.9454
2475 1 16.3544 84.6314 23.2586
8560 2 18.1719 84.6144 24.5455
3402 1 21.8106 84.6314 23.2586
8595 2 19.9935 84.6473 21.9688
2254 1 19.0839 83.0555 23.2355
8423 2 20.9012 83.0378 24.5227
9439 2 0.895339 86.2234 21.9914
3044 1 2.71253 86.2081 23.2809
9420 2 1.80112 87.77 24.5885
9441 2 3.62224 87.8002 22.0132
3042 1 5.43956 87.7854 23.3024
9087 2 4.53017 86.1919 24.5674
9090 2 9.07848 87.8002 22.0132
9092 2 6.35158 86.2234 21.9914
2732 1 8.16877 86.2081 23.2809
9089 2 7.25736 87.77 24.5885
8807 2 11.8078 86.2234 21.9914
2734 1 10.8958 87.7854 23.3024
8772 2 9.98641 86.1919 24.5674
8809 2 14.5347 87.8002 22.0132
2439 1 13.625 86.2081 23.2809
8561 2 15.4426 86.1919 24.5674
8770 2 12.7136 87.77 24.5885
8566 2 17.2641 86.2234 21.9914
2437 1 16.352 87.7854 23.3024
8563 2 18.1698 87.77 24.5885
3403 1 21.8083 87.7854 23.3024
8564 2 19.991 87.8002 22.0132
2253 1 19.0812 86.2081 23.2809
8408 2 20.8989 86.1919 24.5674
9424 2 0.893049 89.3775 22.0341
3043 1 2.71048 89.3633 23.323
9422 2 3.62022 90.9554 22.0542
3045 1 5.43778 90.9418 23.3428
9064 2 4.52845 89.3487 24.6088
9091 2 6.34929 89.3775 22.0341
9093 2 9.07646 90.9554 22.0542
2703 1 8.16672 89.3633 23.323
8776 2 11.8055 89.3775 22.0341
2701 1 10.894 90.9418 23.3428
8771 2 9.98468 89.3487 24.6088
8774 2 14.5327 90.9554 22.0542
2438 1 13.623 89.3633 23.323
8535 2 15.4409 89.3487 24.6088
8565 2 17.2618 89.3775 22.0341
2440 1 16.3503 90.9418 23.3428
3394 1 21.8065 90.9418 23.3428
8567 2 19.9889 90.9554 22.0542
2230 1 19.0792 89.3633 23.323
8407 2 20.8972 89.3487 24.6088
9423 2 0.891259 92.5337 22.0735
3028 1 2.70894 92.5208 23.3618
3026 1 5.43643 94.1003 23.3799
9425 2 3.61864 94.1125 22.0918
9068 2 6.3475 92.5337 22.0735
2702 1 8.16518 92.5208 23.3618
9066 2 9.07487 94.1125 22.0918
8775 2 11.8037 92.5337 22.0735
2704 1 10.8927 94.1003 23.3799
2411 1 13.6214 92.5208 23.3618
8777 2 14.5311 94.1125 22.0918
8539 2 17.26 92.5337 22.0735
2409 1 16.3489 94.1003 23.3799
3395 1 21.8051 94.1003 23.3799
2229 1 19.0777 92.5208 23.3618
8537 2 19.9874 94.1125 22.0918
3027 1 2.70777 95.6801 23.3972
9416 2 0.889862 95.6916 22.1093
3029 1 5.43542 97.2603 23.4136
9414 2 3.6174 97.2711 22.1259
2681 1 8.16401 95.6801 23.3972
9067 2 6.3461 95.6916 22.1093
9069 2 9.07364 97.2711 22.1259
2679 1 10.8917 97.2603 23.4136
8752 2 11.8023 95.6916 22.1093
2410 1 13.6202 95.6801 23.3972
8750 2 14.5299 97.2711 22.1259
2412 1 16.3479 97.2603 23.4136
8538 2 17.2586 95.6916 22.1093
3393 1 21.8041 97.2603 23.4136
2207 1 19.0765 95.6801 23.3972
8540 2 19.9861 97.2711 22.1259
3017 1 2.70689 98.8408 23.4292
9415 2 0.888774 98.8509 22.1417
5321 1 5.43465 100.422 23.4438
11843 2 3.61644 100.431 22.1565
2680 1 8.16312 98.8408 23.4292
9049 2 6.34501 98.8509 22.1417
11505 2 9.07268 100.431 22.1565
8751 2 11.8013 98.8509 22.1417
5008 1 10.8909 100.422 23.4438
2388 1 13.6194 98.8408 23.4292
11176 2 14.5289 100.431 22.1565
8516 2 17.2575 98.8509 22.1417
4665 1 16.3471 100.422 23.4438
5641 1 21.8034 100.422 23.4438
2206 1 19.0756 98.8408 23.4292
10873 2 19.9852 100.431 22.1565
3230 1 0.972789 51.6666 25.3015
9290 2 2.79652 51.6611 26.5886
2930 1 6.42903 51.6666 25.3015
8950 2 8.25276 51.6611 26.5886
2598 1 11.8853 51.6666 25.3015
8682 2 13.709 51.6611 26.5886
2346 1 17.3415 51.6666 25.3015
8477 2 19.1652 51.6611 26.5886
3229 1 0.961753 54.7937 25.3219
9250 2 2.78366 54.7825 26.608
9576 2 0.0625026 53.2213 26.5962
3228 1 3.6958 53.2297 25.3098
9291 2 5.51874 53.2213 26.5962
2898 1 6.41799 54.7937 25.3219
2931 1 9.15204 53.2297 25.3098
8949 2 8.23989 54.7825 26.608
2597 1 11.8742 54.7937 25.3219
8948 2 10.975 53.2213 26.5962
2596 1 14.6083 53.2297 25.3098
8666 2 13.6961 54.7825 26.608
2338 1 17.3305 54.7937 25.3219
8683 2 16.4312 53.2213 26.5962
2347 1 20.0645 53.2297 25.3098
8476 2 19.1524 54.7825 26.608
3183 1 0.949419 57.9235 25.3585
9249 2 2.76939 57.9073 26.6448
9577 2 0.0483057 56.3447 26.6241
3231 1 3.6836 56.3585 25.3381
9248 2 5.50454 56.3447 26.6241
2896 1 9.13984 56.3585 25.3381
2897 1 6.40566 57.9235 25.3585
8918 2 8.22563 57.9073 26.6448
2574 1 11.8619 57.9235 25.3585
8951 2 10.9608 56.3447 26.6241
2599 1 14.5961 56.3585 25.3381
8665 2 13.6819 57.9073 26.6448
2337 1 17.3181 57.9235 25.3585
8664 2 16.417 56.3447 26.6241
2336 1 20.0523 56.3585 25.3381
8469 2 19.1381 57.9073 26.6448
3182 1 0.938442 61.0531 25.4104
9203 2 2.75686 61.0323 26.6981
9530 2 0.034747 59.4699 26.6697
3181 1 3.67183 59.4885 25.3828
9251 2 5.49099 59.4699 26.6697
2858 1 6.39468 61.0531 25.4104
2899 1 9.12806 59.4885 25.3828
8917 2 8.2131 61.0323 26.6981
2573 1 11.8509 61.0531 25.4104
8916 2 10.9472 59.4699 26.6697
2572 1 14.5843 59.4885 25.3828
8642 2 13.6693 61.0323 26.6981
2322 1 17.3072 61.0531 25.4104
8667 2 16.4035 59.4699 26.6697
2339 1 20.0405 59.4885 25.3828
8468 2 19.1256 61.0323 26.6981
3136 1 0.928818 64.1812 25.4724
9202 2 2.74603 64.1568 26.7616
9531 2 0.0231644 62.5945 26.7291
3184 1 3.66162 62.6173 25.4406
9201 2 5.4794 62.5945 26.7291
2856 1 9.11786 62.6173 25.4406
2857 1 6.38506 64.1812 25.4724
8879 2 8.20226 64.1568 26.7616
2542 1 11.8413 64.1812 25.4724
8919 2 10.9356 62.5945 26.7291
2575 1 14.5741 62.6173 25.4406
8641 2 13.6585 64.1568 26.7616
2321 1 17.2975 64.1812 25.4724
8640 2 16.3919 62.5945 26.7291
2320 1 20.0303 62.6173 25.4406
8454 2 19.1147 64.1568 26.7616
3135 1 0.919949 67.3095 25.5374
9156 2 2.7363 67.2837 26.8274
9490 2 0.0129001 65.7198 26.7947
3134 1 3.65242 65.7451 25.5049
9204 2 5.46914 65.7198 26.7947
2812 1 6.37619 67.3095 25.5374
2859 1 9.10866 65.7451 25.5049
8878 2 8.19254 67.2837 26.8274
2541 1 11.8324 67.3095 25.5374
8877 2 10.9254 65.7198 26.7947
2540 1 14.5649 65.7451 25.5049
8614 2 13.6488 67.2837 26.8274
2299 1 17.2887 67.3095 25.5374
8643 2 16.3816 65.7198 26.7947
2323 1 20.0211 65.7451 25.5049
8453 2 19.105 67.2837 26.8274
3096 1 0.911929 70.4412 25.6005
9155 2 2.72795 70.4156 26.8903
9491 2 0.00380226 68.8489 26.8594
3137 1 3.64392 68.8748 25.5694
9154 2 5.46004 68.8489 26.8594
2810 1 9.10016 68.8748 25.5694
2811 1 6.36817 70.4412 25.6005
8839 2 8.18419 70.4156 26.8903
2506 1 11.8244 70.4412 25.6005
8880 2 10.9163 68.8489 26.8594
2543 1 14.5564 68.8748 25.5694
8613 2 13.6404 70.4156 26.8903
2298 1 17.2806 70.4412 25.6005
8612 2 16.3725 68.8489 26.8594
2297 1 20.0126 68.8748 25.5694
8438 2 19.0967 70.4156 26.8903
3095 1 0.905188 73.5782 25.6596
9116 2 2.72135 73.5537 26.9488
9458 2 -0.00369163 71.9838 26.9201
3094 1 3.6365 72.009 25.6306
9157 2 5.45255 71.9838 26.9201
2767 1 6.36143 73.5782 25.6596
2813 1 9.09274 72.009 25.6306
8838 2 8.17758 73.5537 26.9488
2505 1 11.8177 73.5782 25.6596
8837 2 10.9088 71.9838 26.9201
2504 1 14.549 72.009 25.6306
8586 2 13.6338 73.5537 26.9488
2275 1 17.2739 73.5782 25.6596
8615 2 16.365 71.9838 26.9201
2300 1 20.0052 72.009 25.6306
8437 2 19.0901 73.5537 26.9488
9459 2 -0.00942782 75.125 26.9763
3064 1 0.899897 76.7206 25.7145
9115 2 2.71643 76.6978 27.0028
3097 1 3.63048 75.1487 25.6876
9114 2 5.44681 75.125 26.9763
2765 1 9.08672 75.1487 25.6876
2766 1 6.35614 76.7206 25.7145
8800 2 8.17267 76.6978 27.0028
8840 2 10.903 75.125 26.9763
2470 1 11.8124 76.7206 25.7145
2507 1 14.543 75.1487 25.6876
8585 2 13.6289 76.6978 27.0028
8584 2 16.3593 75.125 26.9763
2274 1 17.2686 76.7206 25.7145
2273 1 19.9992 75.1487 25.6876
8422 2 19.0851 76.6978 27.0028
9434 2 -0.0135944 78.2719 27.0283
3063 1 0.895942 79.8682 25.7654
9084 2 2.71293 79.8473 27.0528
3062 1 3.62589 78.2938 25.7405
9117 2 5.44264 78.2719 27.0283
2768 1 9.08212 78.2938 25.7405
2729 1 6.35218 79.8682 25.7654
8799 2 8.16917 79.8473 27.0528
8798 2 10.8989 78.2719 27.0283
2469 1 11.8084 79.8682 25.7654
2468 1 14.5384 78.2938 25.7405
8558 2 13.6254 79.8473 27.0528
8587 2 16.3551 78.2719 27.0283
2251 1 17.2647 79.8682 25.7654
2276 1 19.9946 78.2938 25.7405
8421 2 19.0816 79.8473 27.0528
3065 1 3.62251 81.4436 25.7895
9082 2 5.43973 81.4237 27.0765
2727 1 9.07875 81.4436 25.7895
8801 2 10.896 81.4237 27.0765
2471 1 14.535 81.4436 25.7895
8556 2 16.3522 81.4237 27.0765
9435 2 21.8084 81.4237 27.0765
2249 1 19.9912 81.4436 25.7895
3040 1 0.893082 83.0201 25.8127
9083 2 2.71052 83.0011 27.0993
3038 1 3.6201 84.5974 25.8351
9085 2 5.43775 84.5794 27.1213
2728 1 6.34932 83.0201 25.8127
2730 1 9.07634 84.5974 25.8351
8768 2 8.16676 83.0011 27.0993
2435 1 11.8056 83.0201 25.8127
8766 2 10.894 84.5794 27.1213
2433 1 14.5326 84.5974 25.8351
8557 2 13.623 83.0011 27.0993
2250 1 17.2618 83.0201 25.8127
8559 2 16.3502 84.5794 27.1213
9418 2 21.8065 84.5794 27.1213
2252 1 19.9888 84.5974 25.8351
8406 2 19.0792 83.0011 27.0993
3039 1 0.891064 86.1755 25.8567
9060 2 2.70891 86.1584 27.1425
3041 1 3.61842 87.7544 25.8774
9058 2 5.43645 87.7382 27.1629
2697 1 9.07466 87.7544 25.8774
2699 1 6.3473 86.1755 25.8567
8767 2 8.16515 86.1584 27.1425
2434 1 11.8035 86.1755 25.8567
8769 2 10.8927 87.7382 27.1629
2436 1 14.5309 87.7544 25.8774
8531 2 13.6214 86.1584 27.1425
2227 1 17.2598 86.1755 25.8567
8529 2 16.3489 87.7382 27.1629
9419 2 21.8052 87.7382 27.1629
2225 1 19.9871 87.7544 25.8774
8405 2 19.0776 86.1584 27.1425
9421 2 1.79965 90.9279 24.6283
3024 1 0.889664 89.3338 25.8974
9059 2 2.70787 89.3185 27.1825
3022 1 3.61726 90.9138 25.9166
9061 2 5.43562 90.8994 27.2014
9062 2 7.25588 90.9279 24.6283
2698 1 6.3459 89.3338 25.8974
2700 1 9.0735 90.9138 25.9166
8744 2 8.1641 89.3185 27.1825
2407 1 11.8021 89.3338 25.8974
8742 2 10.8919 90.8994 27.2014
8773 2 12.7121 90.9279 24.6283
2405 1 14.5297 90.9138 25.9166
8530 2 13.6203 89.3185 27.1825
8533 2 18.1684 90.9279 24.6283
2226 1 17.2584 89.3338 25.8974
8532 2 16.3481 90.8994 27.2014
9410 2 21.8043 90.8994 27.2014
2228 1 19.986 90.9138 25.9166
8390 2 19.0766 89.3185 27.1825
9412 2 1.79857 94.0879 24.6648
3023 1 0.888706 92.4944 25.935
9044 2 2.70721 92.4808 27.2195
9063 2 4.52718 92.5077 24.647
3025 1 3.61647 94.0754 25.9525
9042 2 5.43511 94.0626 27.2369
9065 2 7.25481 94.0879 24.6648
2675 1 9.07271 94.0754 25.9525
2677 1 6.34494 92.4944 25.935
8743 2 8.16345 92.4808 27.2195
8748 2 9.98342 92.5077 24.647
2406 1 11.8012 92.4944 25.935
8745 2 10.8913 94.0626 27.2369
8534 2 15.4397 92.5077 24.647
8746 2 12.711 94.0879 24.6648
2408 1 14.5289 94.0754 25.9525
8511 2 13.6197 92.4808 27.2195
8536 2 18.1673 94.0879 24.6648
2204 1 17.2574 92.4944 25.935
8509 2 16.3476 94.0626 27.2369
8392 2 20.8959 92.5077 24.647
9411 2 21.8038 94.0626 27.2369
2202 1 19.9852 94.0754 25.9525
8389 2 19.0759 92.4808 27.2195
9413 2 1.79779 97.2495 24.698
3016 1 0.888057 95.6567 25.9693
9043 2 2.70682 95.6448 27.2534
9048 2 4.52627 95.6685 24.6818
3014 1 3.61594 97.2384 25.9853
9045 2 5.43481 97.2274 27.2692
9046 2 7.25403 97.2495 24.698
2676 1 6.3443 95.6567 25.9693
2678 1 9.07218 97.2384 25.9853
8728 2 8.16305 95.6448 27.2534
8747 2 9.98251 95.6685 24.6818
2387 1 11.8005 95.6567 25.9693
8726 2 10.891 97.2274 27.2692
8515 2 15.4387 95.6685 24.6818
8749 2 12.7103 97.2495 24.698
2385 1 14.5284 97.2384 25.9853
8510 2 13.6193 95.6448 27.2534
8513 2 18.1665 97.2495 24.698
2203 1 17.2568 95.6567 25.9693
8512 2 16.3473 97.2274 27.2692
8391 2 20.895 95.6685 24.6818
9409 2 21.8035 97.2274 27.2692
2205 1 19.9847 97.2384 25.9853
8375 2 19.0755 95.6448 27.2534
11799 2 1.79722 100.412 24.7278
3015 1 0.887622 98.8205 26.0004
9033 2 2.70659 98.8102 27.2841
9047 2 4.5256 98.8307 24.7133
5320 1 3.61558 100.403 26.0147
11465 2 5.43465 100.393 27.2983
11504 2 7.25346 100.412 24.7278
2660 1 6.34386 98.8205 26.0004
8727 2 8.16283 98.8102 27.2841
4977 1 9.07182 100.403 26.0147
8729 2 9.98184 98.8307 24.7133
2386 1 11.8001 98.8205 26.0004
11152 2 10.8909 100.393 27.2983
8514 2 15.4381 98.8307 24.7133
11153 2 12.7097 100.412 24.7278
8496 2 13.6191 98.8102 27.2841
4664 1 14.5281 100.403 26.0147
10872 2 18.1659 100.412 24.7278
2185 1 17.2563 98.8205 26.0004
10857 2 16.3471 100.393 27.2983
8376 2 20.8943 98.8307 24.7133
11798 2 21.8034 100.393 27.2983
8374 2 19.0753 98.8102 27.2841
4393 1 19.9843 100.403 26.0147
9246 2 0.990126 51.6487 29.1548
2894 1 4.62224 51.655 27.8669
8946 2 6.44636 51.6487 29.1548
2594 1 10.0785 51.655 27.8669
8662 2 11.9026 51.6487 29.1548
2334 1 15.5347 51.655 27.8669
8474 2 17.3588 51.6487 29.1548
2160 1 20.991 51.655 27.8669
3227 1 1.88643 53.2131 27.8734
9245 2 0.971052 54.7584 29.1695
2893 1 4.60581 54.7729 27.8841
9244 2 3.70948 53.2025 29.1595
2892 1 7.34267 53.2131 27.8734
8914 2 6.42729 54.7584 29.1695
8947 2 9.16572 53.2025 29.1595
2570 1 10.0621 54.7729 27.8841
8661 2 11.8835 54.7584 29.1695
2333 1 15.5183 54.7729 27.8841
2595 1 12.7989 53.2131 27.8734
8660 2 14.622 53.2025 29.1595
2332 1 18.2551 53.2131 27.8734
8466 2 17.3398 54.7584 29.1695
2159 1 20.9745 54.7729 27.8841
8475 2 20.0782 53.2025 29.1595
3179 1 1.86865 56.334 27.9007
9199 2 0.951255 57.8738 29.208
2854 1 4.58841 57.8958 27.9228
9247 2 3.68896 56.3158 29.1855
2895 1 7.32489 56.334 27.9007
8912 2 9.14519 56.3158 29.1855
8913 2 6.40749 57.8738 29.208
2569 1 10.0446 57.8958 27.9228
8638 2 11.8637 57.8738 29.208
2318 1 15.5009 57.8958 27.9228
2568 1 12.7811 56.334 27.9007
8663 2 14.6014 56.3158 29.1855
2335 1 18.2374 56.334 27.9007
8465 2 17.32 57.8738 29.208
2158 1 20.9571 57.8958 27.9228
8464 2 20.0577 56.3158 29.1855
3180 1 1.85281 59.4572 27.9503
9198 2 0.935298 60.9894 29.2691
2853 1 4.57424 61.018 27.9817
9197 2 3.67096 59.4317 29.2364
2852 1 7.30905 59.4572 27.9503
8875 2 6.39154 60.9894 29.2691
8915 2 9.1272 59.4317 29.2364
2538 1 10.0305 61.018 27.9817
8637 2 11.8478 60.9894 29.2691
2317 1 15.4867 61.018 27.9817
2571 1 12.7653 59.4572 27.9503
8636 2 14.5834 59.4317 29.2364
2316 1 18.2215 59.4572 27.9503
8451 2 17.304 60.9894 29.2691
2151 1 20.943 61.018 27.9817
8467 2 20.0397 59.4317 29.2364
3132 1 1.84006 62.5782 28.0159
9152 2 0.922134 64.1062 29.3404
2808 1 4.56252 64.1383 28.0512
9200 2 3.6566 62.5474 29.3045
2855 1 7.2963 62.5782 28.0159
8873 2 9.11284 62.5474 29.3045
8874 2 6.37837 64.1062 29.3404
2537 1 10.0188 64.1383 28.0512
8610 2 11.8346 64.1062 29.3404
2295 1 15.475 64.1383 28.0512
2536 1 12.7525 62.5782 28.0159
8639 2 14.5691 62.5474 29.3045
2319 1 18.2088 62.5782 28.0159
8450 2 17.2908 64.1062 29.3404
2150 1 20.9312 64.1383 28.0512
8449 2 20.0253 62.5474 29.3045
3133 1 1.82901 65.6992 28.0861
9151 2 0.911046 67.2294 29.4097
2807 1 4.5521 67.2615 28.12
9150 2 3.64442 65.6668 29.3757
2806 1 7.28525 65.6992 28.0861
8835 2 6.36728 67.2294 29.4097
8876 2 9.10066 65.6668 29.3757
2502 1 10.0083 67.2615 28.12
8609 2 11.8235 67.2294 29.4097
2294 1 15.4646 67.2615 28.12
2539 1 12.7415 65.6992 28.0861
8608 2 14.5569 65.6668 29.3757
2293 1 18.1977 65.6992 28.0861
8435 2 17.2798 67.2294 29.4097
2139 1 20.9208 67.2615 28.12
8452 2 20.0131 65.6668 29.3757
3092 1 1.81939 68.8257 28.1526
9112 2 0.902542 70.3615 29.4728
2763 1 4.54343 70.3918 28.1837
9153 2 3.63458 68.7943 29.4421
2809 1 7.27563 68.8257 28.1526
8833 2 9.09081 68.7943 29.4421
8834 2 6.35878 70.3615 29.4728
2501 1 9.99967 70.3918 28.1837
8582 2 11.815 70.3615 29.4728
2271 1 15.4559 70.3918 28.1837
2500 1 12.7319 68.8257 28.1526
8611 2 14.5471 68.7943 29.4421
2296 1 18.1881 68.8257 28.1526
8434 2 17.2713 70.3615 29.4728
2138 1 20.9121 70.3918 28.1837
8433 2 20.0033 68.7943 29.4421
3093 1 1.81177 71.9599 28.2133
9111 2 0.896582 73.5022 29.5298
2762 1 4.53688 73.53 28.2416
9110 2 3.62739 71.9308 29.502
2761 1 7.26801 71.9599 28.2133
8796 2 6.35282 73.5022 29.5298
8836 2 9.08363 71.9308 29.502
2466 1 9.99312 73.53 28.2416
8581 2 11.8091 73.5022 29.5298
2270 1 15.4494 73.53 28.2416
2503 1 12.7242 71.9599 28.2133
8580 2 14.5399 71.9308 29.502
2269 1 18.1805 71.9599 28.2133
8419 2 17.2653 73.5022 29.5298
2127 1 20.9056 73.53 28.2416
8436 2 19.9961 71.9308 29.502
3060 1 1.80624 75.1018 28.2687
9080 2 0.89266 76.6501 29.5819
9113 2 3.62252 75.0754 29.5564
2725 1 4.53228 76.6753 28.2946
2764 1 7.26248 75.1018 28.2687
8794 2 9.07876 75.0754 29.5564
8795 2 6.3489 76.6501 29.5819
2465 1 9.98852 76.6753 28.2946
8554 2 11.8051 76.6501 29.5819
2464 1 12.7187 75.1018 28.2687
8583 2 14.535 75.0754 29.5564
2247 1 15.4448 76.6753 28.2946
2272 1 18.175 75.1018 28.2687
8418 2 17.2614 76.6501 29.5819
8417 2 19.9912 75.0754 29.5564
2126 1 20.901 76.6753 28.2946
3061 1 1.80247 78.2502 28.3196
9079 2 0.890219 79.8037 29.6299
9078 2 3.61941 78.2263 29.6063
2724 1 4.52922 79.8263 28.3436
2723 1 7.2587 78.2502 28.3196
8797 2 9.07564 78.2263 29.6063
8764 2 6.34646 79.8037 29.6299
2431 1 9.98546 79.8263 28.3436
8553 2 11.8027 79.8037 29.6299
2467 1 12.7149 78.2502 28.3196
8552 2 14.5319 78.2263 29.6063
2246 1 15.4417 79.8263 28.3436
2245 1 18.1712 78.2502 28.3196
8403 2 17.2589 79.8037 29.6299
8420 2 19.9881 78.2263 29.6063
2115 1 20.8979 79.8263 28.3436
3036 1 1.80001 81.4036 28.3667
9081 2 3.61752 81.3823 29.6526
2726 1 7.25625 81.4036 28.3667
8762 2 9.07376 81.3823 29.6526
2429 1 12.7125 81.4036 28.3667
8555 2 14.53 81.3823 29.6526
2248 1 18.1687 81.4036 28.3667
8401 2 19.9862 81.3823 29.6526
3037 1 1.79849 84.5611 28.4105
9056 2 0.8888 82.9618 29.6746
2695 1 4.52727 82.9819 28.389
9054 2 3.61648 84.5421 29.6958
2693 1 7.25473 84.5611 28.4105
8763 2 6.34504 82.9618 29.6746
8765 2 9.07272 84.5421 29.6958
2430 1 9.98351 82.9819 28.389
8527 2 11.8013 82.9618 29.6746
2223 1 15.4397 82.9819 28.389
2432 1 12.711 84.5611 28.4105
8525 2 14.529 84.5421 29.6958
2221 1 18.1672 84.5611 28.4105
8402 2 17.2575 82.9618 29.6746
2114 1 20.896 82.9819 28.389
8404 2 19.9852 84.5421 29.6958
3020 1 1.7976 87.7217 28.4513
9055 2 0.888064 86.1231 29.7162
2694 1 4.5261 86.1411 28.4313
9057 2 3.61599 87.7048 29.7359
2696 1 7.25384 87.7217 28.4513
8738 2 9.07223 87.7048 29.7359
8740 2 6.3443 86.1231 29.7162
2403 1 9.98234 86.1411 28.4313
8526 2 11.8005 86.1231 29.7162
2222 1 15.4386 86.1411 28.4313
2401 1 12.7101 87.7217 28.4513
8528 2 14.5285 87.7048 29.7359
2224 1 18.1663 87.7217 28.4513
8387 2 17.2568 86.1231 29.7162
2103 1 20.8948 86.1411 28.4313
8385 2 19.9847 87.7048 29.7359
3021 1 1.79714 90.8848 28.4892
9040 2 0.887769 89.2871 29.755
2673 1 4.52545 89.303 28.4706
9038 2 3.61585 90.8699 29.7733
2671 1 7.25338 90.8848 28.4892
8739 2 6.34401 89.2871 29.755
8741 2 9.07209 90.8699 29.7733
2402 1 9.98169 89.303 28.4706
8507 2 11.8002 89.2871 29.755
2200 1 15.4379 89.303 28.4706
2404 1 12.7096 90.8848 28.4892
8505 2 14.5283 90.8699 29.7733
2198 1 18.1659 90.8848 28.4892
8386 2 17.2565 89.2871 29.755
2102 1 20.8942 89.303 28.4706
8388 2 19.9846 90.8699 29.7733
3012 1 1.79695 94.0497 28.5241
9039 2 0.887747 92.4531 29.7909
2672 1 4.52514 92.467 28.507
9041 2 3.61592 94.0367 29.8077
2674 1 7.25318 94.0497 28.5241
8722 2 9.07216 94.0367 29.8077
8724 2 6.34399 92.4531 29.7909
2383 1 9.98137 92.467 28.507
8506 2 11.8002 92.4531 29.7909
2199 1 15.4376 92.467 28.507
2381 1 12.7094 94.0497 28.5241
8508 2 14.5284 94.0367 29.8077
2201 1 18.1657 94.0497 28.5241
8372 2 17.2565 92.4531 29.7909
2091 1 20.8939 92.467 28.507
8370 2 19.9846 94.0367 29.8077
3013 1 1.79692 97.2161 28.5559
9032 2 0.887885 95.6206 29.8239
2659 1 4.52503 95.6328 28.5404
9030 2 3.61611 97.2048 29.8392
2657 1 7.25315 97.2161 28.5559
8723 2 6.34412 95.6206 29.8239
8725 2 9.07235 97.2048 29.8392
2382 1 9.98127 95.6328 28.5404
8495 2 11.8004 95.6206 29.8239
2184 1 15.4375 95.6328 28.5404
2384 1 12.7094 97.2161 28.5559
8493 2 14.5286 97.2048 29.8392
2182 1 18.1656 97.2161 28.5559
8371 2 17.2566 95.6206 29.8239
2090 1 20.8937 95.6328 28.5404
8373 2 19.9848 97.2048 29.8392
9031 2 0.888105 98.7893 29.8538
5274 1 1.79698 100.384 28.5847
2658 1 4.52506 98.7998 28.5707
11464 2 3.61635 100.374 29.8677
8713 2 6.34434 98.7893 29.8538
4976 1 7.25322 100.384 28.5847
11121 2 9.07259 100.374 29.8677
2368 1 9.9813 98.7998 28.5707
8494 2 11.8006 98.7893 29.8538
2183 1 15.4375 98.7998 28.5707
4641 1 12.7095 100.384 28.5847
10856 2 14.5288 100.374 29.8677
8361 2 17.2568 98.7893 29.8538
4392 1 18.1657 100.384 28.5847
2079 1 20.8938 98.7998 28.5707
10649 2 19.9851 100.374 29.8677
2890 1 2.81907 51.639 30.4391
2846 1 1.02318 51.6277 33.0281
8910 2 4.64324 51.6353 31.7266
2566 1 8.2753 51.639 30.4391
2562 1 6.47942 51.6277 33.0281
8658 2 10.0995 51.6353 31.7266
2310 1 11.9357 51.6277 33.0281
2330 1 13.7315 51.639 30.4391
8462 2 15.5557 51.6353 31.7266
2154 1 17.3919 51.6277 33.0281
2157 1 19.1878 51.639 30.4391
8352 2 21.012 51.6353 31.7266
2850 1 2.79425 54.7444 30.4477
9243 2 1.90149 53.1795 31.7225
3177 1 0.0783448 53.1897 30.4402
2845 1 0.979807 54.7043 33.0138
2891 1 5.53458 53.1897 30.4402
8909 2 4.61408 54.7273 31.7284
2844 1 3.72976 53.1618 33.02
2565 1 8.25049 54.7444 30.4477
8908 2 7.35773 53.1795 31.7225
2530 1 6.43605 54.7043 33.0138
2563 1 9.186 53.1618 33.02
2564 1 10.9908 53.1897 30.4402
8634 2 10.0703 54.7273 31.7284
2309 1 11.8923 54.7043 33.0138
2314 1 13.7067 54.7444 30.4477
8461 2 15.5266 54.7273 31.7284
8659 2 12.814 53.1795 31.7225
2308 1 14.6422 53.1618 33.02
2331 1 16.4471 53.1897 30.4402
8460 2 18.2702 53.1795 31.7225
2146 1 17.3485 54.7043 33.0138
2156 1 19.163 54.7444 30.4477
8351 2 20.9828 54.7273 31.7284
2155 1 20.0985 53.1618 33.02
2849 1 2.76896 57.8582 30.4886
3178 1 0.0521805 56.301 30.4636
9195 2 1.87089 56.2772 31.7426
2800 1 0.943025 57.8042 33.0619
2848 1 5.50842 56.301 30.4636
8871 2 4.58647 57.8276 31.7687
2847 1 3.68684 56.2555 33.033
2534 1 8.2252 57.8582 30.4886
8911 2 7.32712 56.2772 31.7426
2529 1 6.39926 57.8042 33.0619
2528 1 9.14308 56.2555 33.033
2567 1 10.9647 56.301 30.4636
8633 2 10.0427 57.8276 31.7687
2287 1 11.8555 57.8042 33.0619
2313 1 13.6814 57.8582 30.4886
8447 2 15.4989 57.8276 31.7687
8632 2 12.7834 56.2772 31.7426
2311 1 14.5993 56.2555 33.033
2312 1 16.4209 56.301 30.4636
8463 2 18.2396 56.2772 31.7426
2145 1 17.3117 57.8042 33.0619
2149 1 19.1377 57.8582 30.4886
8350 2 20.9552 57.8276 31.7687
2144 1 20.0556 56.2555 33.033
2804 1 2.75103 60.9693 30.5582
3130 1 0.0308724 59.4144 30.5209
9196 2 1.84727 59.3783 31.8026
2799 1 0.923654 60.894 33.1476
2851 1 5.48711 59.4144 30.5209
8870 2 4.5663 60.929 31.8427
2798 1 3.66019 59.35 33.1031
2533 1 8.20727 60.9693 30.5582
8869 2 7.30351 59.3783 31.8026
2494 1 6.37989 60.894 33.1476
2531 1 9.11643 59.35 33.1031
2532 1 10.9433 59.4144 30.5209
8606 2 10.0225 60.929 31.8427
2286 1 11.8361 60.894 33.1476
2291 1 13.6635 60.9693 30.5582
8446 2 15.4788 60.929 31.8427
8635 2 12.7598 59.3783 31.8026
2285 1 14.5727 59.35 33.1031
2315 1 16.3996 59.4144 30.5209
8445 2 18.216 59.3783 31.8026
2134 1 17.2924 60.894 33.1476
2148 1 19.1197 60.9693 30.5582
8347 2 20.935 60.929 31.8427
2147 1 20.0289 59.35 33.1031
2803 1 2.73709 64.0794 30.6355
3131 1 0.0157303 62.5236 30.5974
9148 2 1.82994 62.4819 31.8834
2755 1 0.907604 63.9961 33.2267
2802 1 5.47197 62.5236 30.5974
8831 2 4.55088 64.0379 31.9226
2801 1 3.64312 62.4425 33.1885
2498 1 8.19333 64.0794 30.6355
8872 2 7.28618 62.4819 31.8834
2492 1 9.09936 62.4425 33.1885
2493 1 6.36384 63.9961 33.2267
2535 1 10.9282 62.5236 30.5974
8605 2 10.0071 64.0379 31.9226
2263 1 11.8201 63.9961 33.2267
2290 1 13.6496 64.0794 30.6355
8431 2 15.4634 64.0379 31.9226
8604 2 12.7424 62.4819 31.8834
2288 1 14.5556 62.4425 33.1885
2289 1 16.3844 62.5236 30.5974
8448 2 18.1987 62.4819 31.8834
2133 1 17.2763 63.9961 33.2267
2137 1 19.1058 64.0794 30.6355
8346 2 20.9196 64.0379 31.9226
2132 1 20.0118 62.4425 33.1885
2759 1 2.72549 67.1994 30.7058
3090 1 0.00282545 65.6378 30.6718
9149 2 1.81655 65.5976 31.9593
2805 1 5.45906 65.6378 30.6718
8830 2 4.53953 67.1608 31.9934
2753 1 3.6294 65.5556 33.2611
2497 1 8.18173 67.1994 30.7058
8829 2 7.27279 65.5976 31.9593
2495 1 9.08564 65.5556 33.2611
2496 1 10.9153 65.6378 30.6718
8578 2 9.99577 67.1608 31.9934
2267 1 13.638 67.1994 30.7058
8430 2 15.452 67.1608 31.9934
8607 2 12.729 65.5976 31.9593
2261 1 14.5419 65.5556 33.2611
2292 1 16.3715 65.6378 30.6718
8429 2 18.1853 65.5976 31.9593
2136 1 19.0942 67.1994 30.7058
8343 2 20.9082 67.1608 31.9934
2135 1 19.9981 65.5556 33.2611
2758 1 2.71704 70.3316 30.7677
3091 1 -0.00726146 68.7641 30.7377
9108 2 1.80727 68.7274 32.0251
2757 1 5.44898 68.7641 30.7377
8792 2 4.53213 70.2969 32.0548
2462 1 8.17328 70.3316 30.7677
8832 2 7.2635 68.7274 32.0251
2499 1 10.9052 68.7641 30.7377
8577 2 9.98837 70.2969 32.0548
2266 1 13.6295 70.3316 30.7677
8415 2 15.4446 70.2969 32.0548
8576 2 12.7197 68.7274 32.0251
2265 1 16.3615 68.7641 30.7377
8432 2 18.176 68.7274 32.0251
2125 1 19.0858 70.3316 30.7677
8342 2 20.9008 70.2969 32.0548
2721 1 2.71156 73.4742 30.823
3058 1 -0.0141474 71.9018 30.796
9109 2 1.80151 71.8691 32.0828
2760 1 5.44209 71.9018 30.796
8791 2 4.52774 73.4434 32.1093
2461 1 8.1678 73.4742 30.823
8790 2 7.25775 71.8691 32.0828
2460 1 10.8983 71.9018 30.796
8550 2 9.98398 73.4434 32.1093
2243 1 13.624 73.4742 30.823
8579 2 12.714 71.8691 32.0828
8414 2 15.4402 73.4434 32.1093
2268 1 16.3546 71.9018 30.796
8413 2 18.1702 71.8691 32.0828
2124 1 19.0803 73.4742 30.823
8339 2 20.8965 73.4434 32.1093
3059 1 -0.0184259 75.0486 30.8487
9076 2 1.79824 75.0196 32.1347
2720 1 2.70828 76.6246 30.8734
2719 1 5.43781 75.0486 30.8487
8760 2 4.52537 76.5974 32.159
8793 2 7.25447 75.0196 32.1347
2427 1 8.16452 76.6246 30.8734
2463 1 10.8941 75.0486 30.8487
8549 2 9.98161 76.5974 32.159
8548 2 12.7107 75.0196 32.1347
2242 1 13.6208 76.6246 30.8734
8399 2 15.4378 76.5974 32.159
2241 1 16.3503 75.0486 30.8487
8416 2 18.167 75.0196 32.1347
2113 1 19.077 76.6246 30.8734
8338 2 20.8941 76.5974 32.159
9077 2 1.79658 78.1766 32.1823
2691 1 2.7065 79.7808 30.9201
2722 1 5.43536 78.2021 30.8972
8759 2 4.52428 79.7568 32.2049
8758 2 7.25281 78.1766 32.1823
2426 1 8.16274 79.7808 30.9201
2425 1 10.8916 78.2021 30.8972
8523 2 9.98051 79.7568 32.2049
8551 2 12.7091 78.1766 32.1823
2219 1 13.619 79.7808 30.9201
8398 2 15.4368 79.7568 32.2049
2244 1 16.3478 78.2021 30.8972
8397 2 18.1653 78.1766 32.1823
3034 1 21.8041 78.2021 30.8972
2112 1 19.0752 79.7808 30.9201
8335 2 20.893 79.7568 32.2049
9052 2 1.79593 81.3381 32.2267
2690 1 2.70568 82.9413 30.9636
2689 1 5.43411 81.3606 30.9422
8736 2 4.52398 82.9201 32.2479
8761 2 7.25217 81.3381 32.2267
2399 1 8.16192 82.9413 30.9636
2428 1 10.8904 81.3606 30.9422
8522 2 9.98022 82.9201 32.2479
8521 2 12.7084 81.3381 32.2267
2218 1 13.6182 82.9413 30.9636
8383 2 15.4365 82.9201 32.2479
2217 1 16.3466 81.3606 30.9422
8400 2 18.1646 81.3381 32.2267
3035 1 21.8028 81.3606 30.9422
2101 1 19.0744 82.9413 30.9636
8334 2 20.8927 82.9201 32.2479
9053 2 1.79591 84.5029 32.2683
2692 1 5.43363 84.5228 30.9843
8734 2 7.25215 84.5029 32.2683
2397 1 10.8899 84.5228 30.9843
8524 2 12.7084 84.5029 32.2683
2220 1 16.3461 84.5228 30.9843
8381 2 18.1646 84.5029 32.2683
3018 1 21.8023 84.5228 30.9843
2669 1 2.70545 86.1049 31.0043
9036 2 1.79625 87.6702 32.3073
2667 1 5.43361 87.6877 31.0237
8735 2 4.52416 86.0863 32.2881
2398 1 8.16169 86.1049 31.0043
8737 2 7.25249 87.6702 32.3073
2400 1 10.8898 87.6877 31.0237
8503 2 9.9804 86.0863 32.2881
2196 1 13.6179 86.1049 31.0043
8382 2 15.4366 86.0863 32.2881
8501 2 12.7087 87.6702 32.3073
2194 1 16.3461 87.6877 31.0237
8384 2 18.165 87.6702 32.3073
3019 1 21.8023 87.6877 31.0237
2100 1 19.0742 86.1049 31.0043
8331 2 20.8929 86.0863 32.2881
2668 1 2.70559 89.271 31.0424
9037 2 1.79679 90.8394 32.3436
2670 1 5.43386 90.8548 31.0604
8720 2 4.52462 89.2546 32.3258
2379 1 8.16183 89.271 31.0424
8718 2 7.25302 90.8394 32.3436
2377 1 10.8901 90.8548 31.0604
8502 2 9.98086 89.2546 32.3258
2195 1 13.6181 89.271 31.0424
8368 2 15.4371 89.2546 32.3258
8504 2 12.7093 90.8394 32.3436
2197 1 16.3463 90.8548 31.0604
8366 2 18.1655 90.8394 32.3436
3010 1 21.8026 90.8548 31.0604
2089 1 19.0743 89.271 31.0424
8330 2 20.8933 89.2546 32.3258
2655 1 2.70593 92.4389 31.0777
9028 2 1.79741 94.0101 32.3772
2653 1 5.43426 94.0234 31.0943
8719 2 4.52521 92.4246 32.3608
2378 1 8.16217 92.4389 31.0777
8721 2 7.25365 94.0101 32.3772
2380 1 10.8905 94.0234 31.0943
8491 2 9.98145 92.4246 32.3608
2180 1 13.6184 92.4389 31.0777
8367 2 15.4377 92.4246 32.3608
8489 2 12.7099 94.0101 32.3772
2178 1 16.3467 94.0234 31.0943
8369 2 18.1661 94.0101 32.3772
3011 1 21.803 94.0234 31.0943
2088 1 19.0746 92.4389 31.0777
8327 2 20.8939 92.4246 32.3608
2654 1 2.70637 95.6083 31.1103
9029 2 1.79804 97.1818 32.4081
2656 1 5.43472 97.1934 31.1254
8712 2 4.52585 95.5958 32.393
2367 1 8.1626 95.6083 31.1103
8710 2 7.25428 97.1818 32.4081
2365 1 10.891 97.1934 31.1254
8490 2 9.98208 95.5958 32.393
2179 1 13.6188 95.6083 31.1103
8360 2 15.4383 95.5958 32.393
8492 2 12.7105 97.1818 32.4081
2181 1 16.3472 97.1934 31.1254
8358 2 18.1668 97.1818 32.4081
3009 1 21.8034 97.1934 31.1254
2078 1 19.0751 95.6083 31.1103
8326 2 20.8946 95.5958 32.393
2646 1 2.70683 98.7787 31.1399
11418 2 1.79865 100.355 32.4359
8711 2 4.52647 98.7681 32.4224
4937 1 5.43518 100.364 31.1535
2366 1 8.16307 98.7787 31.1399
11120 2 7.25489 100.355 32.4359
8484 2 9.98271 98.7681 32.4224
4640 1 10.8914 100.364 31.1535
2169 1 13.6193 98.7787 31.1399
8359 2 15.439 98.7681 32.4224
10833 2 12.7111 100.355 32.4359
4377 1 16.3477 100.364 31.1535
10648 2 18.1674 100.355 32.4359
2077 1 19.0755 98.7787 31.1399
8323 2 20.8952 98.7681 32.4224
5273 1 21.8039 100.364 31.1535
8906 2 2.84536 51.6284 34.3076
2526 1 4.68168 51.6274 35.6305
8630 2 8.30159 51.6284 34.3076
2306 1 10.1379 51.6274 35.6305
8458 2 13.7578 51.6284 34.3076
2142 1 15.5942 51.6274 35.6305
8349 2 19.2141 51.6284 34.3076
2064 1 21.0504 51.6274 35.6305
8867 2 2.79632 54.6909 34.2778
2843 1 1.93195 53.166 35.6465
9193 2 0.0958337 53.163 34.2912
8907 2 5.55207 53.163 34.2912
2525 1 4.62808 54.6671 35.6142
8629 2 8.25256 54.6909 34.2778
2524 1 7.38819 53.166 35.6465
8628 2 11.0083 53.163 34.2912
2283 1 10.0843 54.6671 35.6142
8443 2 13.7088 54.6909 34.2778
2307 1 12.8444 53.166 35.6465
2141 1 15.5406 54.6671 35.6142
8459 2 16.4645 53.163 34.2912
2140 1 18.3007 53.166 35.6465
8348 2 19.165 54.6909 34.2778
2063 1 20.9968 54.6671 35.6142
8866 2 2.75702 57.7612 34.3213
2796 1 1.8383 56.1624 35.6257
9194 2 0.0492068 56.2251 34.2913
8865 2 5.50545 56.2251 34.2913
2490 1 4.55672 57.702 35.6675
8602 2 8.21326 57.7612 34.3213
2527 1 7.29454 56.1624 35.6257
8631 2 10.9617 56.2252 34.2913
2282 1 10.013 57.702 35.6675
8442 2 13.6695 57.7612 34.3213
2281 1 12.7508 56.1624 35.6257
2130 1 15.4692 57.702 35.6675
8441 2 16.4179 56.2251 34.2913
2143 1 18.207 56.1624 35.6257
8345 2 19.1257 57.7612 34.3213
2062 1 20.9254 57.702 35.6675
8827 2 2.73468 60.8406 34.4196
9146 2 0.0177116 59.2981 34.3699
2797 1 1.82186 59.2199 35.7161
8868 2 5.47395 59.2981 34.3699
2489 1 4.53988 60.7645 35.7532
8601 2 8.19092 60.8406 34.4196
2488 1 7.2781 59.2199 35.7161
8600 2 10.9302 59.2981 34.3699
2259 1 9.99612 60.7645 35.7532
8427 2 13.6472 60.8406 34.4196
2284 1 12.7343 59.2199 35.7161
2129 1 15.4524 60.7645 35.7532
8444 2 16.3864 59.2981 34.3699
2128 1 18.1906 59.2199 35.7161
8344 2 19.1034 60.8406 34.4196
2061 1 20.9086 60.7645 35.7532
8826 2 2.71939 63.9465 34.5063
9147 2 -0.00191899 62.39 34.4655
2751 1 1.80564 62.3157 35.7896
8825 2 5.45432 62.39 34.4655
2454 1 4.52837 63.8789 35.8209
8574 2 8.17563 63.9465 34.5063
2491 1 7.26188 62.3157 35.7896
8603 2 10.9106 62.39 34.4655
2258 1 9.98461 63.8789 35.8209
8426 2 13.6319 63.9465 34.5063
2257 1 12.7181 62.3157 35.7896
2118 1 15.4408 63.8789 35.8209
8425 2 16.3668 62.39 34.4655
2131 1 18.1744 62.3157 35.7896
8341 2 19.0881 63.9465 34.5063
2060 1 20.8971 63.8789 35.8209
2754 1 0.896267 67.12 33.2929
8788 2 2.71014 67.0763 34.5756
9106 2 -0.0140391 65.5089 34.5427
2752 1 1.79615 65.4479 35.8499
8828 2 5.4422 65.5089 34.5427
2453 1 4.52146 67.022 35.8772
2458 1 6.35251 67.12 33.2929
8573 2 8.16638 67.0763 34.5756
2452 1 7.25239 65.4479 35.8499
2262 1 11.8087 67.12 33.2929
8572 2 10.8984 65.5089 34.5427
2235 1 9.9777 67.022 35.8772
8411 2 13.6226 67.0763 34.5756
2260 1 12.7086 65.4479 35.8499
2117 1 15.4339 67.022 35.8772
2122 1 17.265 67.12 33.2929
8428 2 16.3547 65.5089 34.5427
2116 1 18.1649 65.4479 35.8499
8340 2 19.0789 67.0763 34.5756
2059 1 20.8902 67.022 35.8772
2717 1 0.889618 70.2603 33.3503
8787 2 2.7054 70.2221 34.6339
9107 2 -0.020784 68.6476 34.6058
2713 1 1.79163 68.599 35.9034
2756 1 3.62055 68.6885 33.3225
8786 2 5.43545 68.6476 34.6058
2419 1 4.51878 70.1785 35.9286
2456 1 9.07679 68.6885 33.3225
2457 1 6.34586 70.2603 33.3503
8546 2 8.16164 70.2221 34.6339
2455 1 7.24787 68.599 35.9034
2239 1 11.8021 70.2603 33.3503
8575 2 10.8917 68.6476 34.6058
2234 1 9.97501 70.1785 35.9286
2264 1 14.533 68.6885 33.3225
8410 2 13.6179 70.2221 34.6339
2233 1 12.7041 68.599 35.9034
2106 1 15.4313 70.1785 35.9286
2121 1 17.2583 70.2603 33.3503
8409 2 16.3479 68.6476 34.6058
2119 1 18.1603 68.599 35.9034
2120 1 19.9893 68.6885 33.3225
8337 2 19.0741 70.2221 34.6339
2058 1 20.8875 70.1785 35.9286
2716 1 0.886239 73.4112 33.402
8756 2 2.70335 73.3781 34.6855
2714 1 1.79025 71.7596 35.9529
2715 1 3.61573 71.8347 33.3768
8789 2 5.43224 71.7991 34.6603
2418 1 4.51834 73.3422 35.9765
2423 1 6.34248 73.4112 33.402
2459 1 9.07197 71.8347 33.3768
8545 2 8.15959 73.3781 34.6855
2417 1 7.24649 71.7596 35.9529
2238 1 11.7987 73.4112 33.402
8544 2 10.8885 71.7991 34.6603
2211 1 9.97458 73.3422 35.9765
2237 1 14.5282 71.8347 33.3768
8395 2 13.6158 73.3781 34.6855
2236 1 12.7027 71.7596 35.9529
2105 1 15.4308 73.3422 35.9765
2110 1 17.255 73.4112 33.402
8412 2 16.3447 71.7991 34.6603
2104 1 18.159 71.7596 35.9529
2123 1 19.9844 71.8347 33.3768
9074 2 21.801 71.7991 34.6603
8336 2 19.0721 73.3781 34.6855
2057 1 20.8871 73.3422 35.9765
2687 1 0.884835 76.5693 33.4495
2683 1 1.79046 74.9258 35.9994
8755 2 2.70284 76.5405 34.7328
2718 1 3.61347 74.9895 33.4262
8754 2 5.43107 74.9587 34.7096
2391 1 4.51902 76.5103 36.0217
2421 1 9.06971 74.9895 33.4262
2422 1 6.34107 76.5693 33.4495
2420 1 7.2467 74.9258 35.9994
8519 2 8.15907 76.5405 34.7328
2215 1 11.7973 76.5693 33.4495
8547 2 10.8873 74.9587 34.7096
2210 1 9.97526 76.5103 36.0217
2240 1 14.5259 74.9895 33.4262
2209 1 12.7029 74.9258 35.9994
8394 2 13.6153 76.5405 34.7328
2094 1 15.4315 76.5103 36.0217
2109 1 17.2536 76.5693 33.4495
8393 2 16.3435 74.9587 34.7096
2107 1 18.1592 74.9258 35.9994
2108 1 19.9822 74.9895 33.4262
9075 2 21.7998 74.9587 34.7096
8333 2 19.0716 76.5405 34.7328
2056 1 20.8877 76.5103 36.0217
2686 1 0.88457 79.7322 33.494
2684 1 1.79147 78.0954 36.0434
8732 2 2.70318 79.7072 34.777
2685 1 3.61272 78.1503 33.4721
8757 2 5.43105 78.1234 34.7552
2424 1 9.06895 78.1503 33.4721
2395 1 6.34081 79.7322 33.494
2389 1 7.24771 78.0954 36.0434
8518 2 8.15941 79.7072 34.777
2214 1 11.797 79.7322 33.494
8517 2 10.8873 78.1234 34.7552
2213 1 14.5252 78.1503 33.4721
2212 1 12.7039 78.0954 36.0434
8379 2 13.6157 79.7072 34.777
2098 1 17.2533 79.7322 33.494
8396 2 16.3435 78.1234 34.7552
2092 1 18.1602 78.0954 36.0434
9050 2 21.7998 78.1234 34.7552
2111 1 19.9814 78.1503 33.4721
8332 2 19.0719 79.7072 34.777
2665 1 0.884949 82.8986 33.5358
8731 2 2.70398 82.8766 34.8186
2688 1 3.61282 81.315 33.5152
8730 2 5.43166 81.2916 34.7981
2393 1 9.06906 81.315 33.5152
2394 1 6.34119 82.8986 33.5358
8499 2 8.16022 82.8766 34.8186
8520 2 10.8879 81.2916 34.7981
2192 1 11.7974 82.8986 33.5358
2216 1 14.5253 81.315 33.5152
8378 2 13.6165 82.8766 34.8186
8377 2 16.3441 81.2916 34.7981
2097 1 17.2537 82.8986 33.5358
2096 1 19.9815 81.315 33.5152
9051 2 21.8004 81.2916 34.7981
8329 2 19.0727 82.8766 34.8186
2663 1 3.6134 84.4827 33.5559
8733 2 5.4326 84.4622 34.8385
2396 1 9.06964 84.4827 33.5559
8497 2 10.8888 84.4622 34.8385
2190 1 14.5259 84.4827 33.5559
8380 2 16.3451 84.4622 34.8385
2099 1 19.9821 84.4827 33.5559
9034 2 21.8013 84.4622 34.8385
2664 1 0.885675 86.0674 33.5753
8716 2 2.70502 86.0482 34.8578
2666 1 3.61423 87.6525 33.5941
8714 2 5.4337 87.6346 34.8765
2373 1 9.07046 87.6525 33.5941
2375 1 6.34191 86.0674 33.5753
8498 2 8.16126 86.0482 34.8578
2191 1 11.7982 86.0674 33.5753
8500 2 10.8899 87.6346 34.8765
2193 1 14.5267 87.6525 33.5941
8364 2 13.6175 86.0482 34.8578
2086 1 17.2544 86.0674 33.5753
8362 2 16.3462 87.6346 34.8765
9035 2 21.8024 87.6346 34.8765
2084 1 19.9829 87.6525 33.5941
8328 2 19.0737 86.0482 34.8578
8715 2 2.70615 89.2213 34.8946
2651 1 0.886564 89.238 33.6123
8717 2 5.43484 90.8082 34.9121
2649 1 3.61515 90.8239 33.6299
8487 2 8.16239 89.2213 34.8946
2376 1 9.07139 90.8239 33.6299
2374 1 6.3428 89.238 33.6123
8485 2 10.8911 90.8082 34.9121
2176 1 11.799 89.238 33.6123
8363 2 13.6186 89.2213 34.8946
2174 1 14.5276 90.8239 33.6299
8365 2 16.3473 90.8082 34.9121
2085 1 17.2553 89.238 33.6123
9026 2 21.8036 90.8082 34.9121
8325 2 19.0749 89.2213 34.8946
2087 1 19.9839 90.8239 33.6299
8708 2 2.70728 92.3955 34.929
2650 1 0.887502 92.4101 33.6468
8706 2 5.43594 93.983 34.9452
2652 1 3.61609 93.9966 33.6631
8486 2 8.16351 92.3955 34.929
2363 1 6.34374 92.4101 33.6468
2361 1 9.07232 93.9966 33.6631
2175 1 11.8 92.4101 33.6468
8488 2 10.8922 93.983 34.9452
2177 1 14.5286 93.9966 33.6631
8356 2 13.6198 92.3955 34.929
2075 1 17.2562 92.4101 33.6468
8354 2 16.3484 93.983 34.9452
9027 2 21.8047 93.983 34.9452
2073 1 19.9848 93.9966 33.6631
8324 2 19.076 92.3955 34.929
2645 1 0.888418 95.5833 33.6787
8707 2 2.70834 95.5706 34.9607
8709 2 5.43696 97.1585 34.9755
2643 1 3.61697 97.1702 33.6936
8483 2 8.16458 95.5706 34.9607
2364 1 9.07321 97.1702 33.6936
2362 1 6.34466 95.5833 33.6787
8481 2 10.8932 97.1585 34.9755
2168 1 11.8009 95.5833 33.6787
8355 2 13.6208 95.5706 34.9607
2166 1 14.5295 97.1702 33.6936
8357 2 16.3494 97.1585 34.9755
2074 1 17.2571 95.5833 33.6787
8322 2 19.0771 95.5706 34.9607
2076 1 19.9857 97.1702 33.6936
9025 2 21.8057 97.1585 34.9755
8705 2 2.70931 98.7465 34.9896
2644 1 0.88927 98.7574 33.7078
4936 1 3.61778 100.345 33.7212
11081 2 5.43788 100.335 35.003
8482 2 8.16555 98.7465 34.9896
2356 1 6.34551 98.7574 33.7078
4609 1 9.07402 100.345 33.7212
2167 1 11.8017 98.7574 33.7078
10832 2 10.8941 100.335 35.003
8353 2 13.6218 98.7465 34.9896
4376 1 14.5303 100.345 33.7212
2068 1 17.258 98.7574 33.7078
10633 2 16.3504 100.335 35.003
8321 2 19.078 98.7465 34.9896
11417 2 21.8066 100.335 35.003
4201 1 19.9865 100.345 33.7212
10494 2 1.08833 51.6426 36.8855
16495 1 2.18179 53.5123 38.3004
16494 1 4.90684 51.8098 38.2324
10463 2 6.54458 51.6427 36.8854
16398 1 7.63803 53.5123 38.3004
10430 2 12.0008 51.6427 36.8854
16400 1 10.3631 51.8098 38.2324
16207 1 13.0943 53.5123 38.3004
10399 2 17.457 51.6426 36.8855
16206 1 15.8193 51.8098 38.2324
15920 1 18.5505 53.5123 38.3004
16512 1 21.2756 51.8098 38.2324
10493 2 0.950957 54.6716 36.8535
10492 2 3.76513 53.1844 36.8578
16496 1 4.89799 55.3614 38.3736
10460 2 6.40719 54.6716 36.8535
10464 2 9.22138 53.1844 36.8578
10429 2 11.8634 54.6716 36.8535
16396 1 10.3542 55.3614 38.3736
10428 2 14.6776 53.1844 36.8578
10396 2 17.3197 54.6716 36.8535
16208 1 15.8105 55.3614 38.3736
16510 1 21.2667 55.3614 38.3736
10400 2 20.1338 53.1844 36.8578
16491 1 2.43714 57.0905 38.4203
10490 2 0.923295 57.644 36.8716
10495 2 3.64069 56.1529 36.8091
16489 1 5.36035 58.8967 38.323
16397 1 7.89338 57.0905 38.4203
10458 2 9.09693 56.1529 36.8091
10459 2 6.37953 57.644 36.8716
10426 2 11.8358 57.644 36.8716
16399 1 10.8166 58.8967 38.323
16203 1 13.3496 57.0905 38.4203
10431 2 14.5532 56.1529 36.8091
15919 1 18.8059 57.0905 38.4203
10395 2 17.292 57.644 36.8716
16201 1 16.2728 58.8967 38.323
16511 1 21.7291 58.8967 38.323
10394 2 20.0094 56.1529 36.8091
16490 1 2.6593 60.5024 38.3545
10489 2 0.897207 60.7079 36.9957
10488 2 3.63767 59.1715 36.9325
16492 1 5.40213 62.1165 38.3815
16390 1 8.11554 60.5024 38.3545
10456 2 6.35345 60.7079 36.9957
10461 2 9.09391 59.1715 36.9325
10425 2 11.8097 60.7079 36.9957
16388 1 10.8584 62.1165 38.3815
16202 1 13.5718 60.5024 38.3545
10424 2 14.5502 59.1715 36.9325
15914 1 19.028 60.5024 38.3545
10392 2 17.2659 60.7079 36.9957
16204 1 16.3146 62.1165 38.3815
16508 1 21.7708 62.1165 38.3815
10397 2 20.0064 59.1715 36.9325
16480 1 2.68196 63.7158 38.4034
10486 2 0.886529 63.8284 37.0845
10491 2 3.6197 62.264 37.0436
16478 1 5.41553 65.3131 38.427
16389 1 8.1382 63.7158 38.4034
10454 2 9.07594 62.264 37.0436
10455 2 6.34277 63.8284 37.0845
10422 2 11.799 63.8284 37.0845
16391 1 10.8718 65.3131 38.427
16191 1 13.5944 63.7158 38.4034
10427 2 14.5322 62.264 37.0436
15913 1 19.0507 63.7158 38.4034
10391 2 17.2552 63.8284 37.0845
16189 1 16.328 65.3131 38.427
16509 1 21.7842 65.3131 38.427
10390 2 19.9884 62.264 37.0436
10485 2 0.881703 66.9768 37.1512
16479 1 2.69045 66.9062 38.4511
10484 2 3.61162 65.4003 37.1197
10452 2 6.33794 66.9768 37.1512
10457 2 9.06786 65.4003 37.1197
16374 1 8.14669 66.9062 38.4511
10421 2 11.7942 66.9768 37.1512
10420 2 14.5241 65.4003 37.1197
16190 1 13.6029 66.9062 38.4511
10388 2 17.2504 66.9768 37.1512
15900 1 19.0592 66.9062 38.4511
10393 2 19.9803 65.4003 37.1197
10482 2 0.880458 70.139 37.2068
16468 1 2.69407 70.0888 38.4986
16481 1 5.42065 68.4981 38.475
10487 2 3.6089 68.5567 37.18
10450 2 9.06514 68.5567 37.18
10451 2 6.3367 70.139 37.2068
16373 1 8.15031 70.0888 38.4986
16372 1 10.8769 68.4981 38.475
10418 2 11.7929 70.139 37.2068
10423 2 14.5214 68.5567 37.18
16171 1 13.6065 70.0888 38.4986
16192 1 16.3331 68.4981 38.475
10387 2 17.2492 70.139 37.2068
16506 1 21.7894 68.4981 38.475
15899 1 19.0628 70.0888 38.4986
10386 2 19.9776 68.5567 37.18
10481 2 0.880889 73.308 37.2563
16467 1 2.6967 73.269 38.5446
16466 1 5.42355 71.6791 38.5218
10480 2 3.60866 71.7229 37.2321
10448 2 6.33713 73.308 37.2563
10453 2 9.06489 71.7229 37.2321
16351 1 8.15293 73.269 38.5446
16375 1 10.8798 71.6791 38.5218
10417 2 11.7934 73.308 37.2563
10416 2 14.5211 71.7229 37.2321
16170 1 13.6092 73.269 38.5446
16169 1 16.336 71.6791 38.5218
10384 2 17.2496 73.308 37.2563
16507 1 21.7923 71.6791 38.5218
15878 1 19.0654 73.269 38.5446
10389 2 19.9774 71.7229 37.2321
16456 1 2.69916 76.4488 38.5887
10478 2 0.882104 76.4807 37.3022
16469 1 5.42606 74.859 38.5669
10483 2 3.60955 74.894 37.2796
10446 2 9.06579 74.894 37.2796
16350 1 8.1554 76.4488 38.5887
10447 2 6.33834 76.4807 37.3022
16349 1 10.8823 74.859 38.5669
10414 2 11.7946 76.4807 37.3022
10419 2 14.522 74.894 37.2796
16143 1 13.6116 76.4488 38.5887
16172 1 16.3385 74.859 38.5669
10383 2 17.2508 76.4807 37.3022
16504 1 21.7948 74.859 38.5669
15877 1 19.0679 76.4488 38.5887
10382 2 19.9783 74.894 37.2796
16455 1 2.70155 79.6287 38.6309
10477 2 0.88368 79.6556 37.3453
10476 2 3.61098 78.0679 37.3241
16454 1 5.42849 78.0388 38.6101
2390 1 4.52025 79.6812 36.0645
10449 2 9.06722 78.0679 37.3241
16327 1 8.15779 79.6287 38.6309
10444 2 6.33992 79.6556 37.3453
16352 1 10.8847 78.0388 38.6101
10413 2 11.7962 79.6556 37.3453
2188 1 9.97649 79.6812 36.0645
10412 2 14.5235 78.0679 37.3241
16142 1 13.614 79.6287 38.6309
2093 1 15.4327 79.6812 36.0645
16141 1 16.341 78.0388 38.6101
10380 2 17.2524 79.6556 37.3453
15848 1 19.0703 79.6287 38.6309
16505 1 21.7972 78.0388 38.6101
10385 2 19.9797 78.0679 37.3241
2055 1 20.889 79.6812 36.0645
16444 1 2.70384 82.8089 38.6713
10474 2 0.885393 82.8319 37.3862
2661 1 1.79285 81.2675 36.0851
10479 2 3.61265 81.2436 37.3661
16457 1 5.43083 81.2188 38.6513
2371 1 4.52173 82.8542 36.1052
10442 2 9.06889 81.2436 37.3661
16326 1 8.16008 82.8089 38.6713
10443 2 6.34163 82.8319 37.3862
2392 1 7.24909 81.2675 36.0851
16325 1 10.8871 81.2188 38.6513
10410 2 11.7979 82.8319 37.3862
2187 1 9.97796 82.8542 36.1052
10415 2 14.5251 81.2436 37.3661
16108 1 13.6163 82.8089 38.6713
2186 1 12.7053 81.2675 36.0851
2082 1 15.4342 82.8542 36.1052
16144 1 16.3433 81.2188 38.6513
10379 2 17.2541 82.8319 37.3862
2095 1 18.1616 81.2675 36.0851
15847 1 19.0726 82.8089 38.6713
16502 1 21.7995 81.2188 38.6513
10378 2 19.9814 81.2436 37.3661
2054 1 20.8904 82.8542 36.1052
2662 1 1.79438 84.4413 36.1248
10472 2 3.61438 84.4204 37.4058
16442 1 5.43306 84.399 38.6907
10445 2 9.07062 84.4204 37.4058
2369 1 7.25062 84.4413 36.1248
16328 1 10.8893 84.399 38.6907
10408 2 14.5269 84.4204 37.4058
2189 1 12.7069 84.4413 36.1248
16106 1 16.3455 84.399 38.6907
2080 1 18.1631 84.4413 36.1248
16503 1 21.8018 84.399 38.6907
10381 2 19.9831 84.4204 37.4058
16443 1 2.70599 85.9893 38.7096
10473 2 0.887116 86.0092 37.4249
2647 1 1.79593 87.6164 36.1622
10475 2 3.61607 87.5981 37.4434
16445 1 5.43512 87.5796 38.7279
2370 1 4.52328 86.0287 36.1438
16303 1 8.16223 85.9893 38.7096
10438 2 9.07231 87.5981 37.4434
10440 2 6.34335 86.0092 37.4249
2372 1 7.25216 87.6164 36.1622
10409 2 11.7996 86.0092 37.4249
16301 1 10.8914 87.5796 38.7279
2172 1 9.97951 86.0287 36.1438
16107 1 13.6185 85.9893 38.7096
10411 2 14.5286 87.5981 37.4434
2170 1 12.7084 87.6164 36.1622
2081 1 15.4358 86.0287 36.1438
10376 2 17.2558 86.0092 37.4249
16109 1 16.3476 87.5796 38.7279
2083 1 18.1646 87.6164 36.1622
15810 1 19.0747 85.9893 38.7096
16500 1 21.8038 87.5796 38.7279
10374 2 19.9848 87.5981 37.4434
2053 1 20.892 86.0287 36.1438
16432 1 2.70796 89.17 38.7457
10470 2 0.888769 89.1872 37.4613
2648 1 1.79741 90.7924 36.1975
10468 2 3.61767 90.7765 37.4786
16430 1 5.437 90.7605 38.763
2359 1 4.5248 89.2043 36.1801
16302 1 8.1642 89.17 38.7457
10439 2 6.34501 89.1872 37.4613
10441 2 9.07391 90.7765 37.4786
2357 1 7.25365 90.7924 36.1975
10406 2 11.8012 89.1872 37.4613
16304 1 10.8932 90.7605 38.763
2171 1 9.98104 89.2043 36.1801
16072 1 13.6204 89.17 38.7457
10404 2 14.5301 90.7765 37.4786
2173 1 12.7099 90.7924 36.1975
2071 1 15.4373 89.2043 36.1801
10375 2 17.2575 89.1872 37.4613
16070 1 16.3495 90.7605 38.763
2069 1 18.1661 90.7924 36.1975
15809 1 19.0767 89.17 38.7457
16501 1 21.8057 90.7605 38.763
10377 2 19.9864 90.7765 37.4786
2052 1 20.8935 89.2043 36.1801
16431 1 2.70974 92.351 38.7796
10469 2 0.890305 92.3659 37.4953
2641 1 1.79878 93.9693 36.2302
10471 2 3.61914 93.9554 37.5114
16433 1 5.43868 93.9416 38.7956
2358 1 4.52623 92.3808 36.2142
16279 1 8.16598 92.351 38.7796
10434 2 9.07538 93.9554 37.5114
10436 2 6.34654 92.3659 37.4953
2360 1 7.25502 93.9693 36.2302
10405 2 11.8028 92.3659 37.4953
16277 1 10.8949 93.9416 38.7956
2164 1 9.98247 92.3808 36.2142
16071 1 13.6222 92.351 38.7796
10407 2 14.5316 93.9554 37.5114
2162 1 12.7113 93.9693 36.2302
2070 1 15.4387 92.3808 36.2142
10372 2 17.259 92.3659 37.4953
16073 1 16.3512 93.9416 38.7956
2072 1 18.1675 93.9693 36.2302
15765 1 19.0785 92.351 38.7796
16498 1 21.8074 93.9416 38.7956
10370 2 19.9879 93.9554 37.5114
2051 1 20.8949 92.3808 36.2142
10467 2 0.891697 95.5451 37.5268
16420 1 2.71133 95.5323 38.8109
2642 1 1.80002 97.1467 36.2603
10465 2 3.62045 97.1349 37.5415
16418 1 5.44016 97.123 38.8255
2355 1 4.52754 95.5579 36.2456
10435 2 6.34794 95.5451 37.5268
10437 2 9.07669 97.1349 37.5415
16278 1 8.16756 95.5323 38.8109
2353 1 7.25626 97.1467 36.2603
10403 2 11.8042 95.5451 37.5268
16280 1 10.8964 97.123 38.8255
2163 1 9.98378 95.5579 36.2456
10401 2 14.5329 97.1349 37.5415
16036 1 13.6238 95.5323 38.8109
2067 1 15.44 95.5579 36.2456
2165 1 12.7125 97.1467 36.2603
10371 2 17.2604 95.5451 37.5268
16034 1 16.3526 97.123 38.8255
2065 1 18.1687 97.1467 36.2603
16499 1 21.8089 97.123 38.8255
10373 2 19.9892 97.1349 37.5415
15764 1 19.08 95.5323 38.8109
2050 1 20.8963 95.5579 36.2456
4890 1 1.80111 100.325 36.2876
10466 2 0.892933 98.7247 37.5554
16419 1 2.71271 98.7138 38.8395
12672 2 3.62161 100.315 37.5687
2354 1 4.5287 98.7357 36.2743
16421 1 5.44145 100.305 38.8527
4608 1 7.25735 100.325 36.2876
12638 2 9.07785 100.315 37.5687
10433 2 6.34917 98.7247 37.5554
16256 1 8.16895 98.7138 38.8395
10402 2 11.8054 98.7247 37.5554
16254 1 10.8977 100.305 38.8527
2161 1 9.98494 98.7357 36.2743
4353 1 12.7136 100.325 36.2876
12608 2 14.5341 100.315 37.5687
16035 1 13.6252 98.7138 38.8395
2066 1 15.4412 98.7357 36.2743
4200 1 18.1698 100.325 36.2876
10369 2 17.2616 98.7247 37.5554
16037 1 16.3539 100.305 38.8527
12574 2 19.9903 100.315 37.5687
16497 1 21.8102 100.305 38.8527
15719 1 19.0814 98.7138 38.8395
2049 1 20.8974 98.7357 36.2743
16487 1 0.76174 53.657 40.6175
22151 2 1.53683 51.8558 39.4429
16493 1 3.41784 51.9607 40.7081
22118 2 4.30752 53.5563 39.4023
16394 1 6.21798 53.657 40.6175
16393 1 8.87407 51.9607 40.7081
22120 2 6.99306 51.8558 39.4429
16199 1 11.6742 53.657 40.6175
21991 2 9.76376 53.5563 39.4023
21990 2 12.4493 51.8558 39.4429
16205 1 14.3303 51.9607 40.7081
21766 2 15.22 53.5563 39.4023
15917 1 17.1305 53.657 40.6175
21768 2 17.9055 51.8558 39.4429
15916 1 19.7865 51.9607 40.7081
21448 2 20.6762 53.5563 39.4023
22152 2 1.63519 55.3565 39.3712
16485 1 3.5593 55.3734 40.5588
16395 1 9.01553 55.3734 40.5588
22116 2 7.09143 55.3565 39.3712
21992 2 12.5477 55.3565 39.3712
16197 1 14.4718 55.3734 40.5588
21764 2 18.0039 55.3565 39.3712
15918 1 19.928 55.3734 40.5588
16486 1 0.824865 56.9669 40.6951
22148 2 1.77538 58.8595 39.5056
22117 2 4.47132 57.2253 39.4304
16386 1 6.2811 56.9669 40.6951
16488 1 3.53337 58.6335 40.8497
16384 1 8.98961 58.6335 40.8497
22119 2 7.23162 58.8595 39.5056
16198 1 11.7373 56.9669 40.6951
21987 2 9.92756 57.2253 39.4304
21985 2 12.6879 58.8595 39.5056
21765 2 15.3838 57.2253 39.4304
16200 1 14.4458 58.6335 40.8497
15911 1 17.1936 56.9669 40.6951
21767 2 18.1441 58.8595 39.5056
21447 2 20.84 57.2253 39.4304
15909 1 19.9021 58.6335 40.8497
16476 1 0.82273 60.2873 40.8901
22149 2 1.78424 62.0829 39.6074
16385 1 6.27897 60.2873 40.8901
22110 2 4.50794 60.4801 39.5639
16474 1 3.57095 61.9342 40.9205
16387 1 9.02719 61.9342 40.9205
22108 2 7.24047 62.0829 39.6074
16187 1 11.7352 60.2873 40.8901
21986 2 9.96418 60.4801 39.5639
21988 2 12.6967 62.0829 39.6074
21758 2 15.4204 60.4801 39.5639
16185 1 14.4834 61.9342 40.9205
15910 1 17.1914 60.2873 40.8901
21756 2 18.153 62.0829 39.6074
21446 2 20.8767 60.4801 39.5639
15912 1 19.9397 61.9342 40.9205
16475 1 0.854956 63.5599 40.952
22144 2 1.78555 65.2744 39.683
22109 2 4.51291 63.681 39.6482
16477 1 3.59032 65.179 40.9809
16370 1 6.31119 63.5599 40.952
16368 1 9.04656 65.179 40.9809
22111 2 7.24179 65.2744 39.683
21975 2 9.96914 63.681 39.6482
16186 1 11.7674 63.5599 40.952
21973 2 12.698 65.2744 39.683
21757 2 15.4254 63.681 39.6482
16188 1 14.5028 65.179 40.9809
15897 1 17.2237 63.5599 40.952
21759 2 18.1543 65.2744 39.683
21439 2 20.8816 63.681 39.6482
15895 1 19.959 65.179 40.9809
16464 1 0.867481 66.7894 41.0072
22095 2 4.51408 66.8671 39.7147
16369 1 6.32372 66.7894 41.0072
16167 1 11.78 66.7894 41.0072
21974 2 9.97031 66.8671 39.7147
21742 2 15.4266 66.8671 39.7147
15896 1 17.2362 66.7894 41.0072
21438 2 20.8828 66.8671 39.7147
22145 2 1.78663 68.4593 39.7436
16463 1 0.874236 69.9975 41.0576
16462 1 3.59945 68.3955 41.0329
22094 2 4.51559 70.0514 39.7706
16371 1 9.05569 68.3955 41.0329
22093 2 7.24287 68.4593 39.7436
16347 1 6.33047 69.9975 41.0576
16166 1 11.7867 69.9975 41.0576
21955 2 9.97183 70.0514 39.7706
21976 2 12.6991 68.4593 39.7436
16165 1 14.5119 68.3955 41.0329
21741 2 15.4281 70.0514 39.7706
21740 2 18.1553 68.4593 39.7436
15875 1 17.243 69.9975 41.0576
15898 1 19.9682 68.3955 41.0329
21423 2 20.8843 70.0514 39.7706
22140 2 1.78847 71.6435 39.796
16452 1 0.878568 73.1948 41.1051
16465 1 3.60469 71.5971 41.0817
22079 2 4.51769 73.2355 39.8203
16345 1 9.06093 71.5971 41.0817
22096 2 7.24471 71.6435 39.796
16346 1 6.33481 73.1948 41.1051
16139 1 11.791 73.1948 41.1051
21954 2 9.97393 73.2355 39.8203
21953 2 12.7009 71.6435 39.796
16168 1 14.5172 71.5971 41.0817
21718 2 15.4302 73.2355 39.8203
21743 2 18.1572 71.6435 39.796
15874 1 17.2473 73.1948 41.1051
15873 1 19.9734 71.5971 41.0817
21422 2 20.8864 73.2355 39.8203
22141 2 1.79072 74.8275 39.8436
16451 1 0.882 76.3866 41.1501
16450 1 3.60847 74.7912 41.1279
22078 2 4.52003 76.4194 39.8662
16348 1 9.06471 74.7912 41.1279
22077 2 7.24696 74.8275 39.8436
16323 1 6.33824 76.3866 41.1501
16138 1 11.7945 76.3866 41.1501
21928 2 9.97626 76.4194 39.8662
21956 2 12.7032 74.8275 39.8436
16137 1 14.5209 74.7912 41.1279
21717 2 15.4325 76.4194 39.8662
21716 2 18.1594 74.8275 39.8436
15845 1 17.2507 76.3866 41.1501
15876 1 19.9772 74.7912 41.1279
21399 2 20.8887 76.4194 39.8662
16440 1 0.885007 79.5757 41.193
22136 2 1.7931 78.0113 39.8882
16453 1 3.61166 77.9814 41.1718
22063 2 4.52239 79.603 39.9095
16322 1 6.34124 79.5757 41.193
16321 1 9.0679 77.9814 41.1718
22080 2 7.24933 78.0113 39.8882
16104 1 11.7975 79.5757 41.193
21927 2 9.97863 79.603 39.9095
21926 2 12.7056 78.0113 39.8882
16140 1 14.5241 77.9814 41.1718
21686 2 15.4349 79.603 39.9095
15844 1 17.2537 79.5757 41.193
21719 2 18.1618 78.0113 39.8882
15843 1 19.9804 77.9814 41.1718
21398 2 20.8911 79.603 39.9095
16439 1 0.887718 82.7631 41.2338
22137 2 1.79543 81.1947 39.9303
16438 1 3.61452 81.1695 41.2137
22062 2 4.52468 82.7864 39.9505
16299 1 6.34396 82.7631 41.2338
16324 1 9.07075 81.1695 41.2137
22061 2 7.25167 81.1947 39.9303
16103 1 11.8002 82.7631 41.2338
21900 2 9.98092 82.7864 39.9505
21929 2 12.7079 81.1947 39.9303
16102 1 14.527 81.1695 41.2137
21685 2 15.4372 82.7864 39.9505
15807 1 17.2564 82.7631 41.2338
21684 2 18.1641 81.1947 39.9303
15846 1 19.9832 81.1695 41.2137
21367 2 20.8934 82.7864 39.9505
16428 1 0.890171 85.9495 41.2725
22132 2 1.79766 84.378 39.9701
16441 1 3.6171 84.3564 41.2534
22047 2 4.52684 85.9696 39.9892
16297 1 9.07333 84.3564 41.2534
16298 1 6.34641 85.9495 41.2725
22064 2 7.2539 84.378 39.9701
16068 1 11.8026 85.9495 41.2725
21899 2 9.98308 85.9696 39.9892
16105 1 14.5296 84.3564 41.2534
21647 2 15.4393 85.9696 39.9892
21898 2 12.7101 84.378 39.9701
15806 1 17.2589 85.9495 41.2725
21687 2 18.1664 84.378 39.9701
15805 1 19.9858 84.3564 41.2534
21366 2 20.8956 85.9696 39.9892
22133 2 1.79973 87.5612 40.0078
16426 1 3.61942 87.5425 41.2911
16300 1 9.07566 87.5425 41.2911
22045 2 7.25597 87.5612 40.0078
16066 1 14.5319 87.5425 41.2911
21901 2 12.7122 87.5612 40.0078
21645 2 18.1684 87.5612 40.0078
15808 1 19.9881 87.5425 41.2911
16427 1 0.892374 89.1354 41.309
22128 2 1.80162 90.7444 40.043
22046 2 4.52882 89.1528 40.0257
16429 1 3.6215 90.7282 41.3263
16275 1 6.34861 89.1354 41.309
16273 1 9.07774 90.7282 41.3263
22048 2 7.25786 90.7444 40.043
16067 1 11.8049 89.1354 41.309
21872 2 9.98506 89.1528 40.0257
21646 2 15.4413 89.1528 40.0257
16069 1 14.534 90.7282 41.3263
21870 2 12.7141 90.7444 40.043
15762 1 17.2611 89.1354 41.309
21648 2 18.1703 90.7444 40.043
21327 2 20.8975 89.1528 40.0257
15760 1 19.9902 90.7282 41.3263
16416 1 0.894334 92.3209 41.343
22129 2 1.80332 93.9276 40.0758
22031 2 4.53062 92.336 40.0597
16414 1 3.62335 93.9136 41.3591
16274 1 6.35057 92.3209 41.343
16276 1 9.07958 93.9136 41.3591
22029 2 7.25956 93.9276 40.0758
16032 1 11.8068 92.3209 41.343
21871 2 9.98685 92.336 40.0597
21607 2 15.4431 92.336 40.0597
16030 1 14.5358 93.9136 41.3591
21873 2 12.7158 93.9276 40.0758
15761 1 17.263 92.3209 41.343
21605 2 18.172 93.9276 40.0758
21326 2 20.8993 92.336 40.0597
15763 1 19.9921 93.9136 41.3591
16415 1 0.896061 95.5063 41.3745
22124 2 1.80482 97.111 40.1059
16417 1 3.62496 97.099 41.3892
22030 2 4.53221 95.5193 40.0912
16250 1 9.0812 97.099 41.3892
16252 1 6.3523 95.5063 41.3745
22032 2 7.26106 97.111 40.1059
16031 1 11.8085 95.5063 41.3745
21844 2 9.98845 95.5193 40.0912
16033 1 14.5374 97.099 41.3892
21606 2 15.4447 95.5193 40.0912
21842 2 12.7173 97.111 40.1059
15716 1 17.2648 95.5063 41.3745
21608 2 18.1735 97.111 40.1059
15714 1 19.9937 97.099 41.3892
21280 2 20.9009 95.5193 40.0912
16408 1 0.897564 98.6917 41.4032
22125 2 1.80613 100.294 40.1331
16406 1 3.62635 100.284 41.4164
22016 2 4.53362 98.7027 40.1199
16251 1 6.3538 98.6917 41.4032
16253 1 9.08259 100.284 41.4164
22014 2 7.26236 100.294 40.1331
16000 1 11.81 98.6917 41.4032
21843 2 9.98985 98.7027 40.1199
15998 1 14.5388 100.284 41.4164
21568 2 15.4461 98.7027 40.1199
21845 2 12.7186 100.294 40.1331
15715 1 17.2663 98.6917 41.4032
21566 2 18.1748 100.294 40.1331
15717 1 19.9951 100.284 41.4164
21279 2 20.9023 98.7027 40.1199
16483 1 1.6775 51.9493 43.1961
22114 2 2.56727 53.6101 41.9313
16382 1 4.41776 53.6065 43.1856
22113 2 5.26676 51.9259 41.9609
22112 2 3.50477 51.9184 44.4931
16392 1 7.13374 51.9493 43.1961
21983 2 8.02351 53.6101 41.9313
21978 2 8.96101 51.9184 44.4931
16195 1 9.874 53.6065 43.1856
21989 2 10.723 51.9259 41.9609
15907 1 15.3302 53.6065 43.1855
16194 1 12.59 51.9493 43.1961
21762 2 13.4797 53.6101 41.9313
21760 2 14.4173 51.9184 44.4931
15915 1 18.0462 51.9493 43.1961
21761 2 16.1792 51.9259 41.9609
22150 2 21.6355 51.9259 41.9609
15552 1 20.7865 53.6065 43.1855
21445 2 18.936 53.6101 41.9313
21441 2 19.8735 51.9184 44.4931
16484 1 1.71037 55.2333 43.2117
22115 2 5.3328 55.2854 41.9311
16380 1 7.16661 55.2333 43.2117
21981 2 10.789 55.2854 41.9311
16196 1 12.6228 55.2333 43.2117
15905 1 18.0791 55.2333 43.2117
21763 2 16.2453 55.2854 41.9311
22146 2 21.7015 55.2854 41.9311
22106 2 2.6377 56.9511 41.9655
16472 1 1.75776 58.5102 43.3013
16381 1 4.46283 56.8691 43.2483
22104 2 5.39104 58.6298 42.0386
21982 2 8.09394 56.9511 41.9655
16383 1 7.214 58.5102 43.3013
16183 1 9.91907 56.8691 43.2483
21984 2 10.8473 58.6298 42.0386
15906 1 15.3753 56.8691 43.2483
21754 2 13.5502 56.9511 41.9655
16181 1 12.6702 58.5102 43.3013
15908 1 18.1265 58.5102 43.3013
21752 2 16.3035 58.6298 42.0386
15551 1 20.8315 56.8691 43.2483
21444 2 19.0064 56.9511 41.9655
22147 2 21.7598 58.6298 42.0386
22105 2 2.67853 60.292 42.0983
16473 1 1.76519 61.8021 43.4381
16366 1 4.49173 60.1586 43.3792
22107 2 5.415 61.9219 42.1493
21971 2 8.13477 60.292 42.0983
16364 1 7.22143 61.8021 43.4381
16182 1 9.94796 60.1586 43.3792
21969 2 10.8712 61.9219 42.1493
15893 1 15.4042 60.1586 43.3792
21753 2 13.591 60.292 42.0983
16184 1 12.6777 61.8021 43.4381
15891 1 18.1339 61.8021 43.4381
21755 2 16.3275 61.9219 42.1493
15550 1 20.8604 60.1586 43.3792
21437 2 19.0472 60.292 42.0983
22142 2 21.7837 61.9219 42.1493
16460 1 1.77699 65.065 43.5156
22091 2 2.69135 63.5409 42.1926
16365 1 4.4993 63.4375 43.4794
22089 2 5.42226 65.1525 42.2308
16367 1 7.23323 65.065 43.5156
21970 2 8.14759 63.5409 42.1926
16163 1 9.95554 63.4375 43.4794
21972 2 10.8785 65.1525 42.2308
15892 1 15.4118 63.4375 43.4794
16161 1 12.6895 65.065 43.5156
21738 2 13.6038 63.5409 42.1926
15894 1 18.1457 65.065 43.5156
21736 2 16.3347 65.1525 42.2308
22143 2 21.791 65.1525 42.2308
15543 1 20.868 63.4375 43.4794
21436 2 19.0601 63.5409 42.1926
16461 1 1.785 68.3006 43.5783
22090 2 2.69594 66.7595 42.265
16343 1 4.50967 66.6856 43.5483
22092 2 5.4256 68.3632 42.296
16341 1 7.24123 68.3006 43.5783
21951 2 8.15218 66.7595 42.265
16162 1 9.96591 66.6856 43.5483
21949 2 10.8818 68.3632 42.296
15871 1 15.4221 66.6856 43.5483
16164 1 12.6975 68.3006 43.5783
21737 2 13.6084 66.7595 42.265
15869 1 18.1537 68.3006 43.5783
21739 2 16.3381 68.3632 42.296
22138 2 21.7943 68.3632 42.296
15542 1 20.8784 66.6856 43.5483
21421 2 19.0647 66.7595 42.265
22075 2 2.69887 69.9647 42.3247
16342 1 4.51594 69.9111 43.6063
21950 2 8.15511 69.9647 42.3247
16135 1 9.97218 69.9111 43.6063
15870 1 15.4284 69.9111 43.6063
21714 2 13.6113 69.9647 42.3247
15527 1 20.8847 69.9111 43.6063
21420 2 19.0676 69.9647 42.3247
16448 1 1.79017 71.5182 43.6328
22074 2 2.70161 73.1635 42.3771
22073 2 5.42836 71.5647 42.3516
16319 1 4.52033 73.1225 43.6581
16344 1 7.24641 71.5182 43.6328
21924 2 8.15785 73.1635 42.3771
21952 2 10.8846 71.5647 42.3516
16134 1 9.97657 73.1225 43.6581
16133 1 12.7026 71.5182 43.6328
15841 1 15.4328 73.1225 43.6581
21713 2 13.6141 73.1635 42.3771
15872 1 18.1589 71.5182 43.6328
21712 2 16.3408 71.5647 42.3516
22139 2 21.7971 71.5647 42.3516
15526 1 20.889 73.1225 43.6581
21397 2 19.0703 73.1635 42.3771
16449 1 1.79403 74.7247 43.6825
22059 2 2.70434 76.3583 42.4249
22076 2 5.4311 74.7613 42.4014
16318 1 4.52383 76.3253 43.7059
16317 1 7.25027 74.7247 43.6825
21923 2 8.16057 76.3583 42.4249
21922 2 10.8873 74.7613 42.4014
16100 1 9.98007 76.3253 43.7059
16136 1 12.7065 74.7247 43.6825
15840 1 15.4363 76.3253 43.7059
21682 2 13.6168 76.3583 42.4249
15839 1 18.1627 74.7247 43.6825
21715 2 16.3436 74.7613 42.4014
22134 2 21.7998 74.7613 42.4014
15503 1 20.8925 76.3253 43.7059
21396 2 19.0731 76.3583 42.4249
16436 1 1.79727 77.9247 43.7287
22058 2 2.70697 79.5505 42.4694
16295 1 4.52687 79.523 43.7508
22057 2 5.43379 77.9547 42.4475
16320 1 7.25351 77.9247 43.7287
21896 2 8.16321 79.5505 42.4694
16099 1 9.98311 79.523 43.7508
21925 2 10.89 77.9547 42.4475
15803 1 15.4393 79.523 43.7508
16098 1 12.7097 77.9247 43.7287
21681 2 13.6195 79.5505 42.4694
15842 1 18.166 77.9247 43.7287
21680 2 16.3463 77.9547 42.4475
22135 2 21.8025 77.9547 42.4475
15502 1 20.8956 79.523 43.7508
21365 2 19.0757 79.5505 42.4694
16437 1 1.80015 81.1205 43.7722
22043 2 2.70946 82.7408 42.5113
16294 1 4.5296 82.7174 43.793
22060 2 5.43636 81.1458 42.4907
16293 1 7.25639 81.1205 43.7722
21895 2 8.1657 82.7408 42.5113
16064 1 9.98584 82.7174 43.793
21894 2 10.8926 81.1458 42.4907
15802 1 15.4421 82.7174 43.793
16101 1 12.7126 81.1205 43.7722
21643 2 13.6219 82.7408 42.5113
15801 1 18.1689 81.1205 43.7722
21683 2 16.3488 81.1458 42.4907
22130 2 21.8051 81.1458 42.4907
15471 1 20.8983 82.7174 43.793
21364 2 19.0782 82.7408 42.5113
16424 1 1.80274 84.3138 43.8131
22042 2 2.71177 85.9299 42.5508
16271 1 4.53206 85.9097 43.8327
22041 2 5.43876 84.3355 42.5314
16296 1 7.25898 84.3138 43.8131
21868 2 8.16801 85.9299 42.5508
16063 1 9.9883 85.9097 43.8327
21897 2 10.895 84.3355 42.5314
15758 1 15.4445 85.9097 43.8327
16062 1 12.7152 84.3138 43.8131
21642 2 13.6242 85.9299 42.5508
15804 1 18.1715 84.3138 43.8131
21641 2 16.3512 84.3355 42.5314
22131 2 21.8075 84.3355 42.5314
15470 1 20.9008 85.9097 43.8327
21325 2 19.0805 85.9299 42.5508
16425 1 1.80508 87.5054 43.8517
22044 2 5.44096 87.5241 42.5696
16269 1 7.26132 87.5054 43.8517
21866 2 10.8972 87.5241 42.5696
16065 1 12.7176 87.5054 43.8517
15756 1 18.1738 87.5054 43.8517
21644 2 16.3534 87.5241 42.5696
22126 2 21.8097 87.5241 42.5696
22027 2 2.71387 89.1181 42.5878
16412 1 1.80717 90.6958 43.8876
16270 1 4.53428 89.1007 43.87
22025 2 5.44296 90.712 42.6053
21867 2 8.17011 89.1181 42.5878
16272 1 7.26341 90.6958 43.8876
16028 1 9.99051 89.1007 43.87
21869 2 10.8992 90.712 42.6053
15757 1 15.4468 89.1007 43.87
21603 2 13.6263 89.1181 42.5878
16026 1 12.7196 90.6958 43.8876
15759 1 18.1759 90.6958 43.8876
21601 2 16.3554 90.712 42.6053
15431 1 20.903 89.1007 43.87
21324 2 19.0826 89.1181 42.5878
22127 2 21.8117 90.712 42.6053
22026 2 2.71576 92.3059 42.6222
16413 1 1.80903 93.8855 43.9209
16248 1 4.53625 92.2907 43.9046
22028 2 5.44474 93.8996 42.6384
21840 2 8.172 92.3059 42.6222
16246 1 7.26526 93.8855 43.9209
16027 1 9.99249 92.2907 43.9046
21838 2 10.901 93.8996 42.6384
15712 1 15.4487 92.2907 43.9046
21602 2 13.6282 92.3059 42.6222
16029 1 12.7215 93.8855 43.9209
15710 1 18.1777 93.8855 43.9209
21604 2 16.3572 93.8996 42.6384
15430 1 20.905 92.2907 43.9046
21278 2 19.0845 92.3059 42.6222
22122 2 21.8135 93.8996 42.6384
16404 1 1.81065 97.0748 43.9513
22012 2 2.71743 95.4932 42.654
16247 1 4.53799 95.4802 43.9365
22010 2 5.44631 97.0869 42.6688
16249 1 7.26689 97.0748 43.9513
21839 2 8.17367 95.4932 42.654
15996 1 9.99423 95.4802 43.9365
21841 2 10.9026 97.0869 42.6688
15711 1 15.4505 95.4802 43.9365
15994 1 12.7231 97.0748 43.9513
21564 2 13.6299 95.4932 42.654
15713 1 18.1794 97.0748 43.9513
21562 2 16.3588 97.0869 42.6688
22123 2 21.815 97.0869 42.6688
15385 1 20.9067 95.4802 43.9365
21277 2 19.0861 95.4932 42.654
16405 1 1.81207 100.264 43.9788
22011 2 2.7189 98.6805 42.6828
16232 1 4.53951 98.6694 43.9654
22013 2 5.44768 100.274 42.6961
16230 1 7.26831 100.264 43.9788
21816 2 8.17514 98.6805 42.6828
15995 1 9.99574 98.6694 43.9654
21814 2 10.9039 100.274 42.6961
15672 1 15.452 98.6694 43.9654
15997 1 12.7245 100.264 43.9788
21563 2 13.6314 98.6805 42.6828
15670 1 18.1808 100.264 43.9788
21565 2 16.3602 100.274 42.6961
22121 2 21.8164 100.274 42.6961
15384 1 20.9082 98.6694 43.9654
21231 2 19.0876 98.6805 42.6828
22102 2 0.792708 53.572 44.4914
16378 1 2.631 53.5431 45.7621
22098 2 1.72651 51.8915 47.0415
16377 1 5.35027 51.9021 45.7515
21963 2 4.4638 53.5336 47.0508
21979 2 6.24895 53.572 44.4914
16179 1 8.08723 53.5431 45.7621
21977 2 7.18274 51.8915 47.0415
21750 2 11.7052 53.572 44.4914
16193 1 10.8065 51.9021 45.7515
21746 2 9.92004 53.5336 47.0508
15903 1 13.5435 53.5431 45.7621
21430 2 15.3763 53.5336 47.0508
21745 2 12.639 51.8915 47.0415
21442 2 17.1614 53.572 44.4914
15902 1 16.2627 51.9021 45.7515
21440 2 18.0952 51.8915 47.0415
16482 1 21.719 51.9021 45.7515
15549 1 18.9997 53.5431 45.7621
21064 2 20.8325 53.5336 47.0508
22099 2 1.74668 55.171 47.0684
22100 2 3.5408 55.2209 44.5042
16379 1 5.37232 55.1791 45.7802
21980 2 8.99704 55.2209 44.5042
21961 2 7.20291 55.171 47.0684
16177 1 10.8286 55.1791 45.7802
21748 2 14.4533 55.2209 44.5042
21747 2 12.6592 55.171 47.0684
15904 1 16.2848 55.1791 45.7802
21428 2 18.1154 55.171 47.0684
21443 2 19.9095 55.2209 44.5042
16470 1 21.741 55.1791 45.7802
22101 2 0.832786 56.8661 44.5328
16362 1 2.6586 56.8116 45.8105
22083 2 1.76955 58.4383 47.1316
21962 2 4.48661 56.8052 47.0954
21967 2 6.28902 56.8661 44.5328
22103 2 3.57609 58.5102 44.5775
16360 1 5.40147 58.4431 45.8501
16178 1 8.11483 56.8116 45.8105
21965 2 9.03233 58.5102 44.5775
21964 2 7.22579 58.4383 47.1316
21749 2 11.7453 56.8661 44.5328
21730 2 9.94285 56.8052 47.0954
16180 1 10.8577 58.4431 45.8501
15889 1 13.5711 56.8116 45.8105
21429 2 15.3991 56.8052 47.0954
21751 2 14.4886 58.5102 44.5775
21728 2 12.682 58.4383 47.1316
21434 2 17.2015 56.8661 44.5328
15887 1 16.3139 58.4431 45.8501
21431 2 18.1383 58.4383 47.1316
15548 1 19.0273 56.8116 45.8105
21063 2 20.8553 56.8052 47.0954
21432 2 19.9448 58.5102 44.5775
16471 1 21.7702 58.4431 45.8501
22087 2 0.862061 60.1547 44.6304
16361 1 2.68443 60.0766 45.8995
22084 2 1.78709 61.7032 47.2186
21943 2 4.50729 60.0711 47.1735
22085 2 3.59883 61.7939 44.6819
16363 1 5.41942 61.712 45.9527
21966 2 6.3183 60.1547 44.6304
16159 1 8.14067 60.0766 45.8995
21968 2 9.05507 61.7939 44.6819
21941 2 7.24332 61.7032 47.2186
21734 2 11.7745 60.1547 44.6304
21729 2 9.96353 60.0711 47.1735
16157 1 10.8757 61.712 45.9527
15888 1 13.5969 60.0766 45.8995
21414 2 15.4198 60.0711 47.1735
21732 2 14.5113 61.7939 44.6819
21731 2 12.6996 61.7032 47.2186
21433 2 17.2308 60.1547 44.6304
15890 1 16.3319 61.712 45.9527
21412 2 18.1558 61.7032 47.2186
15541 1 19.0531 60.0766 45.8995
21062 2 20.876 60.0711 47.1735
21435 2 19.9675 61.7939 44.6819
16458 1 21.7881 61.712 45.9527
22086 2 0.876163 63.4238 44.7278
16339 1 2.6951 63.3452 46.0017
22067 2 1.79675 64.9577 47.3049
22088 2 3.60788 65.0456 44.769
16337 1 5.42616 64.9741 46.0442
21942 2 4.52097 63.3326 47.263
21947 2 6.3324 63.4238 44.7278
21945 2 9.06412 65.0456 44.769
16158 1 8.15134 63.3452 46.0017
21944 2 7.25298 64.9577 47.3049
21733 2 11.7886 63.4238 44.7278
16160 1 10.8824 64.9741 46.0442
21706 2 9.97721 63.3326 47.263
21735 2 14.5204 65.0456 44.769
15867 1 13.6076 63.3452 46.0017
21413 2 15.4334 63.3326 47.263
21704 2 12.7092 64.9577 47.3049
21418 2 17.2449 63.4238 44.7278
15865 1 16.3386 64.9741 46.0442
21415 2 18.1655 64.9577 47.3049
21416 2 19.9766 65.0456 44.769
16459 1 21.7949 64.9741 46.0442
15540 1 19.0638 63.3452 46.0017
21055 2 20.8897 63.3326 47.263
22071 2 0.882267 66.662 44.8062
16338 1 2.70085 66.5981 46.0819
22068 2 1.80149 68.1956 47.3796
22069 2 3.61227 68.2742 44.84
16340 1 5.4314 68.2177 46.1163
21916 2 4.52759 66.5785 47.3437
21946 2 6.33851 66.662 44.8062
21948 2 9.06851 68.2742 44.84
16131 1 8.15708 66.5981 46.0819
21914 2 7.25773 68.1956 47.3796
21710 2 11.7947 66.662 44.8062
16129 1 10.8876 68.2177 46.1163
21705 2 9.98383 66.5785 47.3437
21708 2 14.5247 68.2742 44.84
15866 1 13.6133 66.5981 46.0819
21390 2 15.4401 66.5785 47.3437
21707 2 12.714 68.1956 47.3796
21417 2 17.251 66.662 44.8062
15868 1 16.3439 68.2177 46.1163
21388 2 18.1702 68.1956 47.3796
21419 2 19.981 68.2742 44.84
16446 1 21.8001 68.2177 46.1163
15525 1 19.0696 66.5981 46.0819
21054 2 20.8963 66.5785 47.3437
22070 2 0.885716 69.8832 44.8712
16315 1 2.70538 69.8333 46.1479
21915 2 4.53119 69.8094 47.4131
21920 2 6.34195 69.8832 44.8712
16130 1 8.16162 69.8333 46.1479
21709 2 11.7982 69.8832 44.8712
21674 2 9.98743 69.8094 47.4131
15837 1 13.6179 69.8333 46.1479
21389 2 15.4437 69.8094 47.4131
21394 2 17.2544 69.8832 44.8712
15524 1 19.0741 69.8333 46.1479
21039 2 20.8999 69.8094 47.4131
22051 2 1.8044 71.4206 47.4443
22055 2 0.888468 73.0942 44.9277
16314 1 2.70886 73.0546 46.2053
22072 2 3.61525 71.4897 44.9003
16313 1 5.43533 71.4454 46.1775
21888 2 4.53371 73.0295 47.4738
21918 2 9.07149 71.4897 44.9003
21917 2 7.26064 71.4206 47.4443
21919 2 6.34471 73.0942 44.9277
16096 1 8.1651 73.0546 46.2053
16132 1 10.8916 71.4454 46.1775
21678 2 11.8009 73.0942 44.9277
21673 2 9.98995 73.0295 47.4738
21711 2 14.5277 71.4897 44.9003
21672 2 12.7169 71.4206 47.4443
15836 1 13.6213 73.0546 46.2053
21358 2 15.4462 73.0295 47.4738
15835 1 16.3478 71.4454 46.1775
21391 2 18.1731 71.4206 47.4443
21393 2 17.2572 73.0942 44.9277
21392 2 19.984 71.4897 44.9003
16447 1 21.804 71.4454 46.1775
15501 1 19.0776 73.0546 46.2053
21038 2 20.9024 73.0295 47.4738
22052 2 1.80671 74.6365 47.5016
22054 2 0.891048 76.2987 44.9785
16291 1 2.7118 76.2664 46.257
22053 2 3.61789 74.6972 44.9536
16316 1 5.4385 74.6615 46.2317
21887 2 4.5359 76.2419 47.5282
21921 2 9.07413 74.6972 44.9536
21886 2 7.26295 74.6365 47.5016
21892 2 6.34729 76.2987 44.9785
16095 1 8.16804 76.2664 46.257
16094 1 10.8947 74.6615 46.2317
21677 2 11.8035 76.2987 44.9785
21635 2 9.99214 76.2419 47.5282
21676 2 14.5304 74.6972 44.9536
21675 2 12.7192 74.6365 47.5016
15799 1 13.6243 76.2664 46.257
21357 2 15.4484 76.2419 47.5282
15838 1 16.351 74.6615 46.2317
21356 2 18.1754 74.6365 47.5016
21362 2 17.2598 76.2987 44.9785
21395 2 19.9866 74.6972 44.9536
16434 1 21.8072 74.6615 46.2317
15500 1 19.0805 76.2664 46.257
21015 2 20.9046 76.2419 47.5282
22039 2 0.893532 79.4988 45.0253
16290 1 2.71444 79.4716 46.3047
22056 2 3.62042 77.8992 45.0023
16289 1 5.44127 77.8696 46.2813
21891 2 6.34977 79.4988 45.0253
21890 2 9.07666 77.8992 45.0023
16060 1 8.17068 79.4716 46.3047
21639 2 11.806 79.4988 45.0253
16097 1 10.8975 77.8696 46.2813
21679 2 14.5329 77.8992 45.0023
15798 1 13.6269 79.4716 46.3047
21361 2 17.2622 79.4988 45.0253
15797 1 16.3537 77.8696 46.2813
21360 2 19.9891 77.8992 45.0023
16435 1 21.81 77.8696 46.2813
15469 1 19.0832 79.4716 46.3047
22038 2 0.895893 82.6957 45.0689
16267 1 2.71687 82.6724 46.349
22037 2 3.62285 81.0975 45.0475
16292 1 5.4438 81.0725 46.3272
21864 2 6.35213 82.6957 45.0689
21893 2 9.07909 81.0975 45.0475
16059 1 8.1731 82.6724 46.349
21638 2 11.8084 82.6957 45.0689
16058 1 10.9 81.0725 46.3272
21637 2 14.5353 81.0975 45.0475
15754 1 13.6293 82.6724 46.349
21322 2 17.2646 82.6957 45.0689
15800 1 16.3563 81.0725 46.3272
21363 2 19.9916 81.0975 45.0475
16422 1 21.8125 81.0725 46.3272
15468 1 19.0856 82.6724 46.349
22023 2 0.898096 85.8904 45.1097
16266 1 2.7191 85.8703 46.3903
22040 2 3.62513 84.2932 45.0897
16265 1 5.44612 84.2717 46.37
21862 2 9.08137 84.2932 45.0897
21863 2 6.35433 85.8904 45.1097
16024 1 8.17533 85.8703 46.3903
21599 2 11.8106 85.8904 45.1097
16061 1 10.9024 84.2717 46.37
21640 2 14.5376 84.2932 45.0897
15753 1 13.6316 85.8703 46.3903
21321 2 17.2668 85.8904 45.1097
15752 1 16.3586 84.2717 46.37
21320 2 19.9938 84.2932 45.0897
16423 1 21.8148 84.2717 46.37
15429 1 19.0878 85.8703 46.3903
22021 2 3.62725 87.4871 45.129
16268 1 5.44826 87.4684 46.4099
21865 2 9.08349 87.4871 45.129
16022 1 10.9045 87.4684 46.4099
21597 2 14.5397 87.4871 45.129
15755 1 16.3607 87.4684 46.4099
21323 2 19.996 87.4871 45.129
16410 1 21.817 87.4684 46.4099
16244 1 2.72113 89.0661 46.4287
22022 2 0.900118 89.0835 45.1477
22024 2 3.62918 90.6797 45.1656
16242 1 5.45019 90.6634 46.4469
16023 1 8.17737 89.0661 46.4287
21836 2 6.35636 89.0835 45.1477
21834 2 9.08542 90.6797 45.1656
21598 2 11.8126 89.0835 45.1477
16025 1 10.9064 90.6634 46.4469
15708 1 13.6336 89.0661 46.4287
21600 2 14.5417 90.6797 45.1656
21275 2 17.2688 89.0835 45.1477
15706 1 16.3627 90.6634 46.4469
15428 1 19.0898 89.0661 46.4287
21273 2 19.9979 90.6797 45.1656
16411 1 21.8189 90.6634 46.4469
22008 2 0.901949 92.2756 45.1828
16243 1 2.72296 92.2605 46.4643
22006 2 3.63091 93.8714 45.1993
16245 1 5.45192 93.8573 46.4809
21835 2 6.35819 92.2756 45.1828
21837 2 9.08715 93.8714 45.1993
15992 1 8.1792 92.2605 46.4643
21560 2 11.8144 92.2756 45.1828
15990 1 10.9082 93.8573 46.4809
21558 2 14.5434 93.8714 45.1993
15707 1 13.6354 92.2605 46.4643
21274 2 17.2707 92.2756 45.1828
15709 1 16.3644 93.8573 46.4809
21276 2 19.9996 93.8714 45.1993
15383 1 19.0917 92.2605 46.4643
16402 1 21.8206 93.8573 46.4809
22007 2 0.903585 95.4671 45.2151
16228 1 2.7246 95.454 46.4968
22009 2 3.63245 97.0626 45.2301
16226 1 5.45346 97.0505 46.5119
21810 2 9.08869 97.0626 45.2301
21812 2 6.35982 95.4671 45.2151
15991 1 8.18083 95.454 46.4968
21559 2 11.8161 95.4671 45.2151
15993 1 10.9097 97.0505 46.5119
21561 2 14.5449 97.0626 45.2301
15668 1 13.6371 95.454 46.4968
21228 2 17.2723 95.4671 45.2151
15666 1 16.3659 97.0505 46.5119
21226 2 20.0012 97.0626 45.2301
16403 1 21.8222 97.0505 46.5119
15382 1 19.0933 95.454 46.4968
22000 2 0.905028 98.6581 45.2443
16227 1 2.72604 98.6469 46.5263
21998 2 3.6338 100.253 45.2578
16229 1 5.45481 100.243 46.5398
21811 2 6.36127 98.6581 45.2443
21813 2 9.09004 100.253 45.2578
15968 1 8.18228 98.6469 46.5263
21528 2 11.8175 98.6581 45.2443
15966 1 10.911 100.243 46.5398
21526 2 14.5463 100.253 45.2578
15667 1 13.6385 98.6469 46.5263
21227 2 17.2737 98.6581 45.2443
15669 1 16.3673 100.243 46.5398
21229 2 20.0025 100.253 45.2578
16401 1 21.8235 100.243 46.5398
15338 1 19.0948 98.6469 46.5263
16358 1 0.841213 53.5066 48.3226
21959 2 2.67104 53.5016 49.6101
16376 1 3.56429 51.872 48.3081
21958 2 5.39375 51.8686 49.5969
16174 1 9.02053 51.872 48.3081
16175 1 6.29745 53.5066 48.3226
21726 2 8.12728 53.5016 49.6101
15885 1 11.7537 53.5066 48.3226
21744 2 10.85 51.8686 49.5969
15901 1 14.4768 51.872 48.3081
21426 2 13.5835 53.5016 49.6101
15546 1 17.2099 53.5066 48.3226
21425 2 16.3062 51.8686 49.5969
22097 2 21.7625 51.8686 49.5969
15545 1 19.933 51.872 48.3081
21061 2 19.0398 53.5016 49.6101
16356 1 3.57687 55.1378 48.3433
21960 2 5.40591 55.1318 49.6296
16176 1 9.03311 55.1378 48.3433
21724 2 10.8622 55.1318 49.6296
15883 1 14.4893 55.1378 48.3433
21427 2 16.3184 55.1318 49.6296
22081 2 21.7746 55.1318 49.6296
15547 1 19.9456 55.1378 48.3433
16357 1 0.857875 56.7664 48.3707
21939 2 2.68531 56.7599 49.6554
16359 1 3.59583 58.3939 48.4045
21937 2 5.42098 58.3869 49.687
16155 1 6.31411 56.7664 48.3707
21725 2 8.14154 56.7599 49.6554
16153 1 9.05207 58.3939 48.4045
15884 1 11.7704 56.7664 48.3707
21727 2 10.8772 58.3869 49.687
21410 2 13.5978 56.7599 49.6554
15886 1 14.5083 58.3939 48.4045
15538 1 17.2266 56.7664 48.3707
21408 2 16.3335 58.3869 49.687
21060 2 19.054 56.7599 49.6554
22082 2 21.7897 58.3869 49.687
15536 1 19.9645 58.3939 48.4045
16335 1 0.876401 60.0212 48.444
21938 2 2.7 60.0134 49.7232
16333 1 3.61153 61.6489 48.4873
21940 2 5.43432 61.6396 49.7624
16154 1 6.33264 60.0212 48.444
16156 1 9.06776 61.6489 48.4873
21702 2 8.15624 60.0134 49.7232
15863 1 11.7889 60.0212 48.444
21700 2 10.8906 61.6396 49.7624
15861 1 14.524 61.6489 48.4873
21409 2 13.6125 60.0134 49.7232
15537 1 17.2451 60.0212 48.444
21411 2 16.3468 61.6396 49.7624
22065 2 21.803 61.6396 49.7624
15539 1 19.9802 61.6489 48.4873
21053 2 19.0687 60.0134 49.7232
16334 1 0.888243 63.2766 48.532
21912 2 2.71131 63.2649 49.8028
16336 1 3.61951 64.9029 48.575
21910 2 5.44333 64.8886 49.843
16125 1 9.07575 64.9029 48.575
16127 1 6.34448 63.2766 48.532
21701 2 8.16755 63.2649 49.8028
15862 1 11.8007 63.2766 48.532
21703 2 10.8996 64.8886 49.843
15864 1 14.532 64.9029 48.575
21386 2 13.6238 63.2649 49.8028
15522 1 17.257 63.2766 48.532
21384 2 16.3558 64.8886 49.843
22066 2 21.812 64.8886 49.843
15520 1 19.9882 64.9029 48.575
21052 2 19.08 63.2649 49.8028
16311 1 0.893618 66.5267 48.6149
21911 2 2.71808 66.5099 49.8816
16309 1 3.6235 68.1475 48.6519
21913 2 5.44829 68.1286 49.9184
16126 1 6.34986 66.5267 48.6149
16128 1 9.07974 68.1475 48.6519
21670 2 8.17431 66.5099 49.8816
15833 1 11.8061 66.5267 48.6149
21668 2 10.9045 68.1286 49.9184
15831 1 14.536 68.1475 48.6519
21385 2 13.6306 66.5099 49.8816
15521 1 17.2623 66.5267 48.6149
21387 2 16.3608 68.1286 49.9184
22049 2 21.817 68.1286 49.9184
15523 1 19.9922 68.1475 48.6519
21037 2 19.0868 66.5099 49.8816
16310 1 0.89688 69.7653 48.6863
21884 2 2.72176 69.7448 49.9532
16092 1 6.35312 69.7653 48.6863
21669 2 8.178 69.7448 49.9532
15832 1 11.8094 69.7653 48.6863
21354 2 13.6342 69.7448 49.9532
15498 1 17.2656 69.7653 48.6863
21036 2 19.0905 69.7448 49.9532
16287 1 0.89938 72.9926 48.7487
21883 2 2.72406 72.9704 50.0173
16312 1 3.62631 71.3803 48.7184
21882 2 5.45113 71.3587 49.9862
16090 1 9.08255 71.3803 48.7184
16091 1 6.35562 72.9926 48.7487
21631 2 8.1803 72.9704 50.0173
21671 2 10.9074 71.3587 49.9862
15795 1 11.8119 72.9926 48.7487
15834 1 14.5388 71.3803 48.7184
21353 2 13.6365 72.9704 50.0173
21352 2 16.3636 71.3587 49.9862
15497 1 17.2681 72.9926 48.7487
22050 2 21.8198 71.3587 49.9862
15496 1 19.995 71.3803 48.7184
21013 2 19.0928 72.9704 50.0173
16286 1 0.901554 76.2108 48.8045
21856 2 2.72586 76.1885 50.0752
16285 1 3.62861 74.6027 48.7773
21885 2 5.45311 74.5803 50.047
16093 1 9.08485 74.6027 48.7773
16056 1 6.35779 76.2108 48.8045
21630 2 8.1821 76.1885 50.0752
21629 2 10.9094 74.5803 50.047
15794 1 11.814 76.2108 48.8045
15793 1 14.5411 74.6027 48.7773
21314 2 13.6383 76.1885 50.0752
21355 2 16.3656 74.5803 50.047
15466 1 17.2703 76.2108 48.8045
22033 2 21.8218 74.5803 50.047
15499 1 19.9973 74.6027 48.7773
21012 2 19.0946 76.1885 50.0752
22035 2 1.80884 77.8458 47.5535
16263 1 0.903578 79.4222 48.8555
21855 2 2.72748 79.4006 50.1278
21860 2 4.538 79.4486 47.5778
16288 1 3.6307 77.8172 48.8305
21854 2 5.4548 77.7952 50.1021
21889 2 7.26508 77.8458 47.5535
16054 1 9.08694 77.8172 48.8305
16055 1 6.35982 79.4222 48.8555
21591 2 8.18372 79.4006 50.1278
21634 2 9.99423 79.4486 47.5778
15750 1 11.8161 79.4222 48.8555
21632 2 10.911 77.7952 50.1021
21318 2 15.4505 79.4486 47.5778
21633 2 12.7213 77.8458 47.5535
15796 1 14.5432 77.8172 48.8305
21313 2 13.64 79.4006 50.1278
21359 2 18.1776 77.8458 47.5535
15465 1 17.2723 79.4222 48.8555
21312 2 16.3673 77.7952 50.1021
21014 2 20.9067 79.4486 47.5778
22034 2 21.8235 77.7952 50.1021
15464 1 19.9994 77.8172 48.8305
20981 2 19.0962 79.4006 50.1278
22036 2 1.81089 81.0504 47.6012
16262 1 0.905505 82.6286 48.9023
21828 2 2.72905 82.6084 50.1762
22017 2 0.000154959 81.005 50.1525
21859 2 4.54001 82.6514 47.6237
16261 1 3.63267 81.0259 48.8794
21857 2 5.45639 81.005 50.1525
21858 2 7.26713 81.0504 47.6012
16020 1 6.36174 82.6286 48.9023
16057 1 9.08891 81.0259 48.8794
21590 2 8.18529 82.6084 50.1762
21595 2 9.99625 82.6514 47.6237
15749 1 11.818 82.6286 48.9023
21589 2 10.9126 81.005 50.1525
21317 2 15.4525 82.6514 47.6237
21636 2 12.7234 81.0504 47.6012
15748 1 14.5451 81.0259 48.8794
21267 2 13.6415 82.6084 50.1762
21316 2 18.1796 81.0504 47.6012
15426 1 17.2742 82.6286 48.9023
21315 2 16.3689 81.005 50.1525
20983 2 20.9087 82.6514 47.6237
15467 1 20.0014 81.0259 48.8794
20980 2 19.0978 82.6084 50.1762
22019 2 1.81286 84.2516 47.6454
16240 1 0.907333 85.8314 48.9456
21827 2 2.73058 85.8129 50.2207
22018 2 0.00170254 84.211 50.1989
21832 2 4.54192 85.8513 47.6662
16264 1 3.63455 84.2303 48.9244
21826 2 5.45794 84.211 50.1989
21861 2 7.2691 84.2516 47.6454
16018 1 9.09079 84.2303 48.9244
16019 1 6.36357 85.8314 48.9456
21552 2 8.18682 85.8129 50.2207
21594 2 9.99816 85.8513 47.6662
15704 1 11.8198 85.8314 48.9456
21592 2 10.9142 84.211 50.1989
21271 2 15.4544 85.8513 47.6662
21593 2 12.7253 84.2516 47.6454
15751 1 14.547 84.2303 48.9244
21266 2 13.6431 85.8129 50.2207
21319 2 18.1816 84.2516 47.6454
15425 1 17.276 85.8314 48.9456
21265 2 16.3704 84.211 50.1989
20982 2 20.9106 85.8513 47.6662
15424 1 20.0033 84.2303 48.9244
20941 2 19.0993 85.8129 50.2207
22020 2 1.81472 87.4504 47.6862
22002 2 0.00319769 87.4142 50.2415
16238 1 3.63632 87.4318 48.966
21829 2 5.45944 87.4142 50.2415
21830 2 7.27096 87.4504 47.6862
16021 1 9.09256 87.4318 48.966
21550 2 10.9157 87.4142 50.2415
21596 2 12.7272 87.4504 47.6862
15702 1 14.5488 87.4318 48.966
21269 2 18.1834 87.4504 47.6862
21268 2 16.3719 87.4142 50.2415
15427 1 20.005 87.4318 48.966
16239 1 0.909044 89.0317 48.9856
21804 2 2.73204 89.015 50.2615
22004 2 1.81644 90.6474 47.724
22003 2 0.00462106 90.6154 50.2807
21831 2 4.54371 89.0491 47.7055
16241 1 3.63797 90.6312 49.0043
21802 2 5.46086 90.6154 50.2807
15988 1 6.36528 89.0317 48.9856
21551 2 8.18828 89.015 50.2615
21833 2 7.27268 90.6474 47.724
15986 1 9.09421 90.6312 49.0043
21556 2 9.99995 89.0491 47.7055
15703 1 11.8215 89.0317 48.9856
21553 2 10.9171 90.6154 50.2807
21270 2 15.4562 89.0491 47.7055
21220 2 13.6445 89.015 50.2615
21554 2 12.7289 90.6474 47.724
15705 1 14.5504 90.6312 49.0043
15380 1 17.2778 89.0317 48.9856
21272 2 18.1852 90.6474 47.724
21218 2 16.3733 90.6154 50.2807
20943 2 20.9124 89.0491 47.7055
20940 2 19.1008 89.015 50.2615
15378 1 20.0067 90.6312 49.0043
22005 2 1.81801 93.8433 47.7586
21803 2 2.73342 92.2154 50.2989
16224 1 0.910625 92.2303 49.0223
21994 2 0.00595492 93.8151 50.3163
21808 2 4.54536 92.2455 47.7417
16222 1 3.63948 93.8292 49.0394
21805 2 5.46219 93.8151 50.3163
21806 2 7.27425 93.8433 47.7586
21520 2 8.18966 92.2154 50.2989
15987 1 6.36686 92.2303 49.0223
15989 1 9.09572 93.8292 49.0394
21555 2 10.0016 92.2455 47.7417
15664 1 11.8231 92.2303 49.0223
21518 2 10.9184 93.8151 50.3163
21224 2 15.4578 92.2455 47.7417
21557 2 12.7305 93.8433 47.7586
21219 2 13.6459 92.2154 50.2989
15662 1 14.552 93.8292 49.0394
21222 2 18.1867 93.8433 47.7586
15379 1 17.2793 92.2303 49.0223
21221 2 16.3747 93.8151 50.3163
20942 2 20.9141 92.2455 47.7417
20897 2 19.1021 92.2154 50.2989
15381 1 20.0082 93.8292 49.0394
21996 2 1.81943 97.0383 47.79
16223 1 0.912066 95.4278 49.0557
21807 2 4.54686 95.4408 47.7747
16225 1 3.64085 97.0261 49.0711
21809 2 7.27567 97.0383 47.79
15962 1 9.09709 97.0261 49.0711
15964 1 6.3683 95.4278 49.0557
21524 2 10.0031 95.4408 47.7747
15663 1 11.8245 95.4278 49.0557
21223 2 15.4593 95.4408 47.7747
21522 2 12.7319 97.0383 47.79
15665 1 14.5533 97.0261 49.0711
21225 2 18.1881 97.0383 47.79
15335 1 17.2808 95.4278 49.0557
20899 2 20.9156 95.4408 47.7747
15333 1 20.0096 97.0261 49.0711
21997 2 1.82069 100.233 47.8182
16216 1 0.913362 98.6244 49.0858
21792 2 4.5482 98.6356 47.8045
16214 1 3.64208 100.222 49.0995
21790 2 7.27693 100.233 47.8182
15963 1 6.3696 98.6244 49.0858
15965 1 9.09831 100.222 49.0995
21523 2 10.0044 98.6356 47.8045
15632 1 11.8258 98.6244 49.0858
21184 2 15.4607 98.6356 47.8045
21525 2 12.7332 100.233 47.8182
15630 1 14.5546 100.222 49.0995
21182 2 18.1894 100.233 47.8182
15334 1 17.2821 98.6244 49.0858
20898 2 20.9169 98.6356 47.8045
15336 1 20.0108 100.222 49.0995
16354 1 1.77049 51.8539 50.8679
21935 2 0.873505 53.4781 52.1708
16151 1 4.50207 53.4812 50.8833
21957 2 3.5981 51.8524 52.1568
16173 1 7.22672 51.8539 50.8679
21721 2 9.05434 51.8524 52.1568
21722 2 6.32974 53.4781 52.1708
15881 1 9.95831 53.4812 50.8833
21406 2 11.786 53.4781 52.1708
15534 1 15.4145 53.4812 50.8833
15880 1 12.683 51.8539 50.8679
21424 2 14.5106 51.8524 52.1568
15544 1 18.1392 51.8539 50.8679
21058 2 17.2422 53.4781 52.1708
15184 1 20.8708 53.4812 50.8833
21057 2 19.9668 51.8524 52.1568
16355 1 1.77886 55.107 50.9039
21933 2 3.60609 55.1025 52.1901
16149 1 7.23509 55.107 50.9039
21723 2 9.06233 55.1025 52.1901
15882 1 12.6913 55.107 50.9039
21404 2 14.5186 55.1025 52.1901
15532 1 18.1476 55.107 50.9039
21059 2 19.9748 55.1025 52.1901
21934 2 0.883078 56.7257 52.2143
16331 1 1.79144 58.3551 50.9601
16150 1 4.51297 56.7314 50.9297
21936 2 3.61657 58.3483 52.243
21698 2 6.33932 56.7257 52.2143
16152 1 7.24768 58.3551 50.9601
21696 2 9.0728 58.3483 52.243
15859 1 9.96921 56.7314 50.9297
21405 2 11.7956 56.7257 52.2143
15533 1 15.4254 56.7314 50.9297
15857 1 12.7039 58.3551 50.9601
21407 2 14.529 58.3483 52.243
21050 2 17.2518 56.7257 52.2143
15535 1 18.1602 58.3551 50.9601
15183 1 20.8817 56.7314 50.9297
21048 2 19.9853 58.3483 52.243
16332 1 1.80359 61.6015 51.0324
21908 2 0.893738 59.9704 52.2754
16123 1 4.52599 59.9783 50.9947
21906 2 3.62674 61.5923 52.3105
16121 1 7.25983 61.6015 51.0324
21697 2 6.34998 59.9704 52.2754
21699 2 9.08298 61.5923 52.3105
15858 1 9.98223 59.9783 50.9947
21382 2 11.8062 59.9704 52.2754
15518 1 15.4385 59.9783 50.9947
15860 1 12.7161 61.6015 51.0324
21380 2 14.5392 61.5923 52.3105
15516 1 18.1723 61.6015 51.0324
21049 2 17.2625 59.9704 52.2754
15182 1 20.8947 59.9783 50.9947
21051 2 19.9955 61.5923 52.3105
16307 1 1.81165 64.8474 51.1121
21907 2 0.902888 63.2139 52.3474
16122 1 4.53633 63.2247 51.072
21909 2 3.63454 64.8347 52.3849
16124 1 7.26789 64.8474 51.1121
21664 2 9.09077 64.8347 52.3849
21666 2 6.35913 63.2139 52.3474
15829 1 9.99257 63.2247 51.072
21381 2 11.8154 63.2139 52.3474
15517 1 15.4488 63.2247 51.072
15827 1 12.7241 64.8474 51.1121
21383 2 14.547 64.8347 52.3849
15519 1 18.1804 64.8474 51.1121
21034 2 17.2716 63.2139 52.3474
15175 1 20.905 63.2247 51.072
21032 2 20.0033 64.8347 52.3849
16308 1 1.8158 68.0891 51.1889
21880 2 0.9092 66.4545 52.4222
16088 1 4.54219 66.469 51.1513
21878 2 3.63944 68.0728 52.4587
16086 1 7.27204 68.0891 51.1889
21665 2 6.36544 66.4545 52.4222
21667 2 9.09568 68.0728 52.4587
15828 1 9.99843 66.469 51.1513
21350 2 11.8217 66.4545 52.4222
15494 1 15.4547 66.469 51.1513
15830 1 12.7283 68.0891 51.1889
21348 2 14.5519 68.0728 52.4587
15492 1 18.1845 68.0891 51.1889
21033 2 17.2779 66.4545 52.4222
15174 1 20.9109 66.469 51.1513
21035 2 20.0082 68.0728 52.4587
21879 2 0.91293 69.6894 52.4939
16087 1 4.54522 69.7071 51.2246
21881 2 3.64228 71.3043 52.5278
21625 2 9.09852 71.3043 52.5278
21627 2 6.36917 69.6894 52.4939
15791 1 10.0015 69.7071 51.2246
21349 2 11.8254 69.6894 52.4939
15493 1 15.4577 69.7071 51.2246
21351 2 14.5548 71.3043 52.5278
21010 2 17.2816 69.6894 52.4939
15159 1 20.9139 69.7071 51.2246
21008 2 20.011 71.3043 52.5278
16283 1 1.81814 71.3232 51.2584
21852 2 0.915129 72.9174 52.5602
16052 1 4.54714 72.9371 51.2905
16089 1 7.27438 71.3232 51.2584
21626 2 6.37137 72.9174 52.5602
15790 1 10.0034 72.9371 51.2905
21310 2 11.8276 72.9174 52.5602
15789 1 12.7306 71.3232 51.2584
15462 1 15.4596 72.9371 51.2905
15495 1 18.1869 71.3232 51.2584
21009 2 17.2838 72.9174 52.5602
15158 1 20.9159 72.9371 51.2905
16284 1 1.81981 74.5491 51.321
21851 2 0.916617 76.139 52.6207
21850 2 3.64405 74.5289 52.5911
16051 1 4.54866 76.1594 51.35
16050 1 7.27605 74.5491 51.321
21628 2 9.10028 74.5289 52.5911
21587 2 6.37286 76.139 52.6207
15746 1 10.0049 76.1594 51.35
21309 2 11.8291 76.139 52.6207
15792 1 12.7323 74.5491 51.321
21308 2 14.5565 74.5289 52.5911
15461 1 15.4611 76.1594 51.35
15460 1 18.1885 74.5491 51.321
20978 2 17.2853 76.139 52.6207
21011 2 20.0128 74.5289 52.5911
15135 1 20.9174 76.1594 51.35
16259 1 1.82125 77.768 51.3776
21824 2 0.917831 79.3551 52.6762
16016 1 4.55006 79.3753 51.4041
21853 2 3.64536 77.7477 52.6491
16053 1 7.27749 77.768 51.3776
21585 2 9.1016 77.7477 52.6491
21586 2 6.37407 79.3551 52.6762
15745 1 10.0063 79.3753 51.4041
21263 2 11.8303 79.3551 52.6762
15422 1 15.4625 79.3753 51.4041
15744 1 12.7337 77.768 51.3776
21311 2 14.5578 77.7477 52.6491
15463 1 18.19 77.768 51.3776
20977 2 17.2865 79.3551 52.6762
15134 1 20.9188 79.3753 51.4041
20976 2 20.0141 77.7477 52.6491
16260 1 1.82263 80.9813 51.4294
21823 2 0.91896 82.567 52.727
16015 1 4.55144 82.5862 51.4536
21822 2 3.64652 80.9615 52.7021
16014 1 7.27887 80.9813 51.4294
21548 2 6.3752 82.567 52.727
21588 2 9.10276 80.9615 52.7021
15700 1 10.0077 82.5862 51.4536
21262 2 11.8314 82.567 52.727
15421 1 15.4639 82.5862 51.4536
15747 1 12.7351 80.9813 51.4294
21261 2 14.559 80.9615 52.7021
15420 1 18.1913 80.9813 51.4294
20938 2 17.2877 82.567 52.727
15103 1 20.9202 82.5862 51.4536
20979 2 20.0152 80.9615 52.7021
16236 1 1.82399 84.1902 51.4768
21800 2 0.920067 85.7755 52.7735
15984 1 4.55279 85.7934 51.4991
21825 2 3.64763 84.1716 52.7508
16017 1 7.28023 84.1902 51.4768
21546 2 9.10387 84.1716 52.7508
21547 2 6.37631 85.7755 52.7735
15699 1 10.009 85.7934 51.4991
21216 2 11.8325 85.7755 52.7735
15376 1 15.4653 85.7934 51.4991
15698 1 12.7365 84.1902 51.4768
21264 2 14.5601 84.1716 52.7508
15423 1 18.1927 84.1902 51.4768
20937 2 17.2888 85.7755 52.7735
15102 1 20.9215 85.7934 51.4991
20936 2 20.0163 84.1716 52.7508
16237 1 1.82533 87.3959 51.5204
21799 2 0.921162 88.9814 52.8161
15983 1 4.5541 88.9978 51.5408
21798 2 3.64874 87.3787 52.7953
15982 1 7.28157 87.3959 51.5204
21516 2 6.3774 88.9814 52.8161
21549 2 9.10497 87.3787 52.7953
15660 1 10.0103 88.9978 51.5408
21215 2 11.8336 88.9814 52.8161
15375 1 15.4666 88.9978 51.5408
15701 1 12.7378 87.3959 51.5204
21214 2 14.5612 87.3787 52.7953
15374 1 18.194 87.3959 51.5204
20894 2 17.2899 88.9814 52.8161
15067 1 20.9228 88.9978 51.5408
20939 2 20.0175 87.3787 52.7953
16220 1 1.82662 90.5993 51.5602
21801 2 3.64982 90.5837 52.8359
15985 1 7.28286 90.5993 51.5602
21514 2 9.10606 90.5837 52.8359
15658 1 12.7391 90.5993 51.5602
21217 2 14.5623 90.5837 52.8359
15377 1 18.1953 90.5993 51.5602
20892 2 20.0185 90.5837 52.8359
21784 2 0.922235 92.1856 52.8548
16221 1 1.82785 93.8011 51.5964
15960 1 4.55536 92.2004 51.5788
21782 2 3.65088 93.7872 52.8727
21515 2 6.37847 92.1856 52.8548
15958 1 7.28408 93.8011 51.5964
21517 2 9.10712 93.7872 52.8727
15659 1 10.0116 92.2004 51.5788
21176 2 11.8347 92.1856 52.8548
15331 1 15.4678 92.2004 51.5788
15661 1 12.7403 93.8011 51.5964
21174 2 14.5634 93.7872 52.8727
20893 2 17.291 92.1856 52.8548
15329 1 18.1966 93.8011 51.5964
15066 1 20.9241 92.2004 51.5788
20895 2 20.0196 93.7872 52.8727
21788 2 2.7347 95.4146 50.3329
21995 2 0.00718608 97.0139 50.3485
16212 1 1.82899 97.0017 51.629
21783 2 0.92327 95.3884 52.8898
21786 2 5.46342 97.0139 50.3485
15959 1 4.55655 95.4015 51.6132
21785 2 3.65189 96.9895 52.9058
21519 2 8.19094 95.4146 50.3329
15961 1 7.28523 97.0017 51.629
21490 2 9.10813 96.9895 52.9058
21492 2 6.37951 95.3884 52.8898
21521 2 10.9197 97.0139 50.3485
15628 1 10.0128 95.4015 51.6132
21175 2 11.8357 95.3884 52.8898
21180 2 13.6472 95.4146 50.3329
15330 1 15.469 95.4015 51.6132
15626 1 12.7415 97.0017 51.629
21177 2 14.5644 96.9895 52.9058
21178 2 16.3759 97.0139 50.3485
15332 1 18.1977 97.0017 51.629
20851 2 17.292 95.3884 52.8898
20896 2 19.1034 95.4146 50.3329
15031 1 20.9253 95.4015 51.6132
20849 2 20.0206 96.9895 52.9058
21787 2 2.73588 98.613 50.3634
21993 2 0.00830522 100.212 50.3773
16213 1 1.83005 100.202 51.6581
21776 2 0.924252 98.5904 52.921
21789 2 5.46454 100.212 50.3773
15944 1 4.55765 98.6018 51.644
21774 2 3.65284 100.191 52.9353
21496 2 8.19212 98.613 50.3634
15942 1 7.28629 100.202 51.6581
21491 2 6.38049 98.5904 52.921
21493 2 9.10908 100.191 52.9353
21494 2 10.9208 100.212 50.3773
15627 1 10.0139 98.6018 51.644
21144 2 11.8367 98.5904 52.921
21179 2 13.6484 98.613 50.3634
15293 1 15.4701 98.6018 51.644
15629 1 12.7425 100.202 51.6581
21142 2 14.5653 100.191 52.9353
21181 2 16.377 100.212 50.3773
15291 1 18.1988 100.202 51.6581
20850 2 17.293 98.5904 52.921
20854 2 19.1046 98.613 50.3634
15030 1 20.9264 98.6018 51.644
20852 2 20.0216 100.191 52.9353
16147 1 2.70251 53.4637 53.4452
21931 2 1.79833 51.8416 54.7191
16146 1 5.42802 51.8423 53.4308
21694 2 4.52892 53.4615 54.7324
15855 1 8.15875 53.4637 53.4452
21720 2 7.25456 51.8416 54.7191
15879 1 10.8843 51.8423 53.4308
21402 2 9.98515 53.4615 54.7324
15530 1 13.615 53.4637 53.4452
21046 2 15.4414 53.4615 54.7324
21401 2 12.7108 51.8416 54.7191
15529 1 16.3405 51.8423 53.4308
21056 2 18.167 51.8416 54.7191
16353 1 21.7967 51.8423 53.4308
15181 1 19.0712 53.4637 53.4452
20712 2 20.8976 53.4615 54.7324
21932 2 1.80398 55.081 54.7506
16148 1 5.43417 55.0845 53.4647
21692 2 7.26022 55.081 54.7506
15853 1 10.8904 55.0845 53.4647
21403 2 12.7165 55.081 54.7506
15531 1 16.3466 55.0845 53.4647
21044 2 18.1727 55.081 54.7506
16329 1 21.8029 55.0845 53.4647
16119 1 2.7103 56.7048 53.4886
21904 2 1.81167 58.3187 54.7994
21693 2 4.5358 56.7 54.7731
16117 1 5.44312 58.3247 53.5165
15854 1 8.16654 56.7048 53.4886
21695 2 7.26791 58.3187 54.7994
21378 2 9.99204 56.7 54.7731
15856 1 10.8994 58.3247 53.5165
15514 1 13.6228 56.7048 53.4886
21045 2 15.4483 56.7 54.7731
21376 2 12.7242 58.3187 54.7994
15512 1 16.3556 58.3247 53.5165
21047 2 18.1804 58.3187 54.7994
15180 1 19.079 56.7048 53.4886
20711 2 20.9045 56.7 54.7731
16330 1 21.8118 58.3247 53.5165
16118 1 2.71978 59.9445 53.5478
21905 2 1.8196 61.5556 54.8612
16120 1 5.45242 61.5642 53.5818
21662 2 4.54384 59.9372 54.829
15825 1 8.17602 59.9445 53.5478
21660 2 7.27584 61.5556 54.8612
15823 1 10.9087 61.5642 53.5818
21377 2 10.0001 59.9372 54.829
15513 1 13.6323 59.9445 53.5478
21030 2 15.4563 59.9372 54.829
21379 2 12.7321 61.5556 54.8612
15515 1 16.3649 61.5642 53.5818
21028 2 18.1883 61.5556 54.8612
16305 1 21.8211 61.5642 53.5818
15173 1 19.0885 59.9445 53.5478
20710 2 20.9126 59.9372 54.829
16084 1 2.72826 63.1839 53.6178
21876 2 1.82621 64.7919 54.9304
16082 1 5.45963 64.8034 53.6548
21661 2 4.55126 63.1739 54.8952
15824 1 8.1845 63.1839 53.6178
21663 2 7.28245 64.7919 54.9304
15826 1 10.9159 64.8034 53.6548
21346 2 10.0075 63.1739 54.8952
15490 1 13.6407 63.1839 53.6178
21029 2 15.4637 63.1739 54.8952
21344 2 12.7387 64.7919 54.9304
15488 1 16.3721 64.8034 53.6548
21031 2 18.1949 64.7919 54.9304
16306 1 21.8283 64.8034 53.6548
15172 1 19.097 63.1839 53.6178
20703 2 20.92 63.1739 54.8952
16083 1 2.73401 66.4225 53.6921
21877 2 1.83083 68.0263 55.0015
16085 1 5.46398 68.0407 53.7289
21623 2 4.55689 66.4095 54.966
15787 1 8.19025 66.4225 53.6921
21621 2 7.28706 68.0263 55.0015
15785 1 10.9202 68.0407 53.7289
21345 2 10.0131 66.4095 54.966
15489 1 13.6465 66.4225 53.6921
21006 2 15.4694 66.4095 54.966
21347 2 12.7433 68.0263 55.0015
15491 1 16.3765 68.0407 53.7289
21004 2 18.1995 68.0263 55.0015
16281 1 21.8327 68.0407 53.7289
15157 1 19.1027 66.4225 53.6921
20702 2 20.9256 66.4095 54.966
16048 1 2.7372 69.6578 53.7647
21848 2 1.83365 71.2568 55.0705
16282 1 0.010074 71.2736 53.7993
16046 1 5.46631 71.2736 53.7993
21622 2 4.56054 69.6421 55.0364
15786 1 8.19344 69.6578 53.7647
21624 2 7.28988 71.2568 55.0705
15788 1 10.9226 71.2736 53.7993
21306 2 10.0168 69.6421 55.0364
15458 1 13.6497 69.6578 53.7647
21005 2 15.473 69.6421 55.0364
21304 2 12.7461 71.2568 55.0705
15456 1 16.3788 71.2736 53.7993
21007 2 18.2024 71.2568 55.0705
15156 1 19.1059 69.6578 53.7647
20687 2 20.9293 69.6421 55.0364
16047 1 2.73895 72.888 53.8324
21583 2 4.5627 72.8702 55.1035
15742 1 8.19519 72.888 53.8324
21305 2 10.0189 72.8702 55.1035
15457 1 13.6514 72.888 53.8324
20974 2 15.4752 72.8702 55.1035
15133 1 19.1077 72.888 53.8324
20686 2 20.9314 72.8702 55.1035
21849 2 1.83531 74.4825 55.1353
16012 1 2.74007 76.1123 53.8946
16257 1 0.0114374 74.5008 53.8642
16049 1 5.46768 74.5008 53.8642
21582 2 4.56401 76.0935 55.166
21581 2 7.29155 74.4825 55.1353
15741 1 8.19631 76.1123 53.8946
15740 1 10.9239 74.5008 53.8642
21259 2 10.0202 76.0935 55.166
21307 2 12.7478 74.4825 55.1353
15418 1 13.6526 76.1123 53.8946
20973 2 15.4765 76.0935 55.166
15459 1 16.3802 74.5008 53.8642
20972 2 18.204 74.4825 55.1353
15132 1 19.1088 76.1123 53.8946
20663 2 20.9327 76.0935 55.166
16011 1 2.74098 79.3312 53.9515
21820 2 1.83638 77.7034 55.1955
16258 1 0.0124219 77.7223 53.9237
16010 1 5.46866 77.7223 53.9237
21544 2 4.56492 79.3123 55.2237
15696 1 8.19722 79.3312 53.9515
21584 2 7.29261 77.7034 55.1955
15743 1 10.9249 77.7223 53.9237
21258 2 10.0212 79.3123 55.2237
15417 1 13.6535 79.3312 53.9515
20934 2 15.4774 79.3123 55.2237
21257 2 12.7489 77.7034 55.1955
15416 1 16.3811 77.7223 53.9237
20975 2 18.2051 77.7034 55.1955
15101 1 19.1097 79.3312 53.9515
20662 2 20.9336 79.3123 55.2237
15980 1 2.74185 82.5455 54.0036
21821 2 1.83719 80.9202 55.2508
16234 1 0.0132987 80.9389 53.9781
16013 1 5.46954 80.9389 53.9781
21543 2 4.56568 82.5272 55.2767
15695 1 8.19809 82.5455 54.0036
21542 2 7.29343 80.9202 55.2508
15694 1 10.9258 80.9389 53.9781
21212 2 10.0219 82.5272 55.2767
15372 1 13.6543 82.5455 54.0036
20933 2 15.4782 82.5272 55.2767
21260 2 12.7497 80.9202 55.2508
15419 1 16.382 80.9389 53.9781
20932 2 18.2059 80.9202 55.2508
15100 1 19.1106 82.5455 54.0036
20632 2 20.9344 82.5272 55.2767
15979 1 2.74274 85.7564 54.0512
21796 2 1.83792 84.1334 55.3016
16235 1 0.0141713 84.1513 54.0279
15978 1 5.47041 84.1513 54.0279
21512 2 4.56641 85.739 55.3253
15656 1 8.19897 85.7564 54.0512
21545 2 7.29416 84.1334 55.3016
15697 1 10.9266 84.1513 54.0279
21211 2 10.0226 85.739 55.3253
15371 1 13.6552 85.7564 54.0512
20890 2 15.4789 85.739 55.3253
21210 2 12.7504 84.1334 55.3016
15370 1 16.3829 84.1513 54.0279
20935 2 18.2066 84.1334 55.3016
15065 1 19.1115 85.7564 54.0512
20631 2 20.9351 85.739 55.3253
15956 1 2.74364 88.9645 54.0946
21797 2 1.83865 87.344 55.3479
16218 1 0.0150668 87.3607 54.0734
15981 1 5.47131 87.3607 54.0734
21511 2 4.56715 88.9484 55.3695
15655 1 8.19988 88.9645 54.0946
21510 2 7.29489 87.344 55.3479
15654 1 10.9275 87.3607 54.0734
21172 2 10.0234 88.9484 55.3695
15327 1 13.6561 88.9645 54.0946
20889 2 15.4796 88.9484 55.3695
21213 2 12.7511 87.344 55.3479
15373 1 16.3838 87.3607 54.0734
20888 2 18.2074 87.344 55.3479
15064 1 19.1124 88.9645 54.0946
20600 2 20.9359 88.9484 55.3695
21780 2 1.83941 90.5524 55.39
16219 1 0.015981 90.5678 54.1148
15954 1 5.47222 90.5678 54.1148
21513 2 7.29565 90.5524 55.39
15657 1 10.9285 90.5678 54.1148
21170 2 12.7519 90.5524 55.39
15325 1 16.3847 90.5678 54.1148
20891 2 18.2081 90.5524 55.39
15955 1 2.74456 92.1706 54.134
21781 2 1.84019 93.7593 55.428
16210 1 0.0168985 93.7731 54.1522
21488 2 4.56791 92.156 55.4095
15957 1 5.47314 93.7731 54.1522
15624 1 8.2008 92.1706 54.134
21486 2 7.29642 93.7593 55.428
21171 2 10.0242 92.156 55.4095
15622 1 10.9294 93.7731 54.1522
15326 1 13.657 92.1706 54.134
20847 2 15.4804 92.156 55.4095
21173 2 12.7527 93.7593 55.428
15328 1 16.3856 93.7731 54.1522
20845 2 18.2089 93.7593 55.428
15029 1 19.1133 92.1706 54.134
20599 2 20.9366 92.156 55.4095
15940 1 2.74547 95.3754 54.1695
16211 1 0.0178006 96.9773 54.1857
21772 2 1.84097 96.9651 55.462
15938 1 5.47404 96.9773 54.1857
21487 2 4.5687 95.3623 55.4455
15623 1 8.20171 95.3754 54.1695
21489 2 7.29721 96.9651 55.462
15625 1 10.9303 96.9773 54.1857
21140 2 10.0249 95.3623 55.4455
15289 1 13.6579 95.3754 54.1695
20846 2 15.4812 95.3623 55.4455
21138 2 12.7534 96.9651 55.462
15287 1 16.3865 96.9773 54.1857
20848 2 18.2097 96.9651 55.462
15028 1 19.1142 95.3754 54.1695
20568 2 20.9374 95.3623 55.4455
15939 1 2.74636 98.5791 54.2011
16209 1 0.018668 100.181 54.2155
21773 2 1.84175 100.17 55.4921
15941 1 5.47491 100.181 54.2155
21472 2 4.56948 98.5677 55.4776
15600 1 8.2026 98.5791 54.2011
21470 2 7.29798 100.17 55.4921
15598 1 10.9311 100.181 54.2155
21139 2 10.0257 98.5677 55.4776
15288 1 13.6588 98.5791 54.2011
20811 2 15.482 98.5677 55.4776
21141 2 12.7542 100.17 55.4921
15290 1 16.3874 100.181 54.2155
20809 2 18.2105 100.17 55.4921
14994 1 19.1151 98.5791 54.2011
20567 2 20.9382 98.5677 55.4776
16115 1 0.900167 53.4515 56.008
21690 2 2.7258 53.4499 57.2945
21930 2 -0.00418061 51.8346 57.2821
16111 1 1.82239 51.8302 58.5587
16145 1 3.62623 51.8349 55.9947
21689 2 5.45206 51.8346 57.2821
15817 1 4.55219 53.4429 58.5708
15850 1 9.08246 51.8349 55.9947
15851 1 6.35641 53.4515 56.008
21374 2 8.18204 53.4499 57.2945
15849 1 7.27863 51.8302 58.5587
15510 1 11.8126 53.4515 56.008
21400 2 10.9083 51.8346 57.2821
15506 1 10.0084 53.4429 58.5708
15528 1 14.5387 51.8349 55.9947
21042 2 13.6383 53.4499 57.2945
15166 1 15.4647 53.4429 58.5708
15505 1 12.7349 51.8302 58.5587
15178 1 17.2689 53.4515 56.008
21041 2 16.3645 51.8346 57.2821
15176 1 18.1911 51.8302 58.5587
15177 1 19.9949 51.8349 55.9947
20709 2 19.0945 53.4499 57.2945
14896 1 20.9209 53.4429 58.5708
21902 2 0.00010461 55.0651 57.3113
16112 1 1.82626 55.0557 58.5872
16113 1 3.63101 55.068 56.0259
21691 2 5.45634 55.0651 57.3113
15852 1 9.08725 55.068 56.0259
15815 1 7.2825 55.0557 58.5872
21372 2 10.9126 55.0651 57.3113
15508 1 14.5435 55.068 56.0259
15507 1 12.7387 55.0557 58.5872
21043 2 16.3688 55.0651 57.3113
15164 1 18.195 55.0557 58.5872
15179 1 19.9997 55.068 56.0259
16114 1 0.906128 56.6845 56.0479
21658 2 2.73107 56.6803 57.3321
16076 1 1.83172 58.282 58.6312
21903 2 0.00605289 58.2955 57.3565
16116 1 3.63783 58.301 56.0735
21656 2 5.46229 58.2955 57.3565
15816 1 4.55697 56.6687 58.6075
15821 1 6.36237 56.6845 56.0479
21373 2 8.1873 56.6803 57.3321
15819 1 9.09406 58.301 56.0735
15818 1 7.28796 58.282 58.6312
15509 1 11.8186 56.6845 56.0479
21375 2 10.9185 58.2955 57.3565
15482 1 10.0132 56.6687 58.6075
21026 2 13.6435 56.6803 57.3321
15511 1 14.5503 58.301 56.0735
15480 1 12.7442 58.282 58.6312
15165 1 15.4694 56.6687 58.6075
15170 1 17.2748 56.6845 56.0479
15167 1 18.2004 58.282 58.6312
21024 2 16.3748 58.2955 57.3565
20708 2 19.0998 56.6803 57.3321
15168 1 20.0065 58.301 56.0735
14895 1 20.9257 56.6687 58.6075
16080 1 0.913407 59.9175 56.1023
16077 1 1.83767 61.5092 58.687
21657 2 2.73738 59.9107 57.3838
21874 2 0.0124154 61.5261 57.4136
16078 1 3.64513 61.5341 56.1336
15779 1 4.56282 59.8955 58.6579
21659 2 5.46865 61.5261 57.4136
15820 1 6.36965 59.9175 56.1023
15822 1 9.10137 61.5341 56.1336
15777 1 7.29391 61.5092 58.687
21342 2 8.19362 59.9107 57.3838
15486 1 11.8259 59.9175 56.1023
15481 1 10.0191 59.8955 58.6579
21340 2 10.9249 61.5261 57.4136
15484 1 14.5576 61.5341 56.1336
15150 1 15.4753 59.8955 58.6579
15483 1 12.7501 61.5092 58.687
21025 2 13.6499 59.9107 57.3838
15169 1 17.2821 59.9175 56.1023
15148 1 18.2064 61.5092 58.687
21027 2 16.3811 61.5261 57.4136
15171 1 20.0138 61.5341 56.1336
14894 1 20.9315 59.8955 58.6579
20701 2 19.1061 59.9107 57.3838
16079 1 0.920332 63.1508 56.1669
16040 1 1.84299 64.7372 58.7509
21619 2 2.7435 63.1414 57.4454
21875 2 0.0180399 64.7568 57.4785
16081 1 3.65134 64.7675 56.2015
15778 1 4.56858 63.1231 58.7182
21617 2 5.47428 64.7568 57.4785
15781 1 9.10757 64.7675 56.2015
15783 1 6.37657 63.1508 56.1669
15780 1 7.29923 64.7372 58.7509
21341 2 8.19973 63.1414 57.4454
15485 1 11.8328 63.1508 56.1669
15450 1 10.0248 63.1231 58.7182
21343 2 10.9305 64.7568 57.4785
15487 1 14.5638 64.7675 56.2015
15149 1 15.4811 63.1231 58.7182
15448 1 12.7555 64.7372 58.7509
21002 2 13.656 63.1414 57.4454
15154 1 17.289 63.1508 56.1669
15151 1 18.2117 64.7372 58.7509
21000 2 16.3868 64.7568 57.4785
15152 1 20.0201 64.7675 56.2015
14887 1 20.9373 63.1231 58.7182
20700 2 19.1122 63.1414 57.4454
16044 1 0.925595 66.384 56.2369
16041 1 1.84696 67.9654 58.8188
21618 2 2.74846 66.372 57.5125
21846 2 0.0222589 67.9869 57.5469
16042 1 3.65558 68.0002 56.2724
15734 1 4.57328 66.3514 58.7846
21620 2 5.4785 67.9869 57.5469
15782 1 6.38183 66.384 56.2369
15784 1 9.11182 68.0002 56.2724
15732 1 7.30319 67.9654 58.8188
21302 2 8.2047 66.372 57.5125
15454 1 11.8381 66.384 56.2369
15449 1 10.0295 66.3514 58.7846
21300 2 10.9347 67.9869 57.5469
15452 1 14.5681 68.0002 56.2724
15126 1 15.4858 66.3514 58.7846
15451 1 12.7594 67.9654 58.8188
21001 2 13.6609 66.372 57.5125
15153 1 17.2943 66.384 56.2369
15124 1 18.2157 67.9654 58.8188
21003 2 16.391 67.9869 57.5469
15155 1 20.0243 68.0002 56.2724
14886 1 20.942 66.3514 58.7846
20685 2 19.1172 66.372 57.5125
16043 1 0.928871 69.6158 56.3076
16004 1 1.84944 71.1928 58.8872
21579 2 2.75192 69.6013 57.5811
21847 2 0.0250086 71.2151 57.615
16045 1 3.65803 71.2307 56.3421
15733 1 4.57649 69.5793 58.8532
21577 2 5.48125 71.2151 57.615
15736 1 9.11426 71.2307 56.3421
15738 1 6.38511 69.6158 56.3076
15735 1 7.30568 71.1928 58.8872
21301 2 8.20816 69.6013 57.5811
15453 1 11.8413 69.6158 56.3076
15410 1 10.0327 69.5793 58.8532
21303 2 10.9375 71.2151 57.615
15455 1 14.5705 71.2307 56.3421
15125 1 15.489 69.5793 58.8532
15408 1 12.7619 71.1928 58.8872
20970 2 13.6644 69.6013 57.5811
15130 1 17.2976 69.6158 56.3076
15127 1 18.2182 71.1928 58.8872
20968 2 16.3937 71.2151 57.615
15128 1 20.0267 71.2307 56.3421
14871 1 20.9452 69.5793 58.8532
20684 2 19.1206 69.6013 57.5811
16008 1 0.930658 72.8445 56.3757
21578 2 2.75405 72.8281 57.6482
15688 1 4.57835 72.8057 58.9208
15737 1 6.3869 72.8445 56.3757
21255 2 8.21029 72.8281 57.6482
15414 1 11.8431 72.8445 56.3757
15409 1 10.0346 72.8057 58.9208
15094 1 15.4908 72.8057 58.9208
20969 2 13.6665 72.8281 57.6482
15129 1 17.2994 72.8445 56.3757
14870 1 20.9471 72.8057 58.9208
20661 2 19.1228 72.8281 57.6482
16005 1 1.85079 74.4181 58.9536
21818 2 0.0266306 74.4403 57.6805
16007 1 0.931619 76.0693 56.4395
21540 2 2.75528 76.0517 57.7118
16006 1 3.65933 74.4574 56.4082
21580 2 5.48287 74.4403 57.6805
15739 1 9.11556 74.4574 56.4082
15686 1 7.30702 74.4181 58.9536
15692 1 6.38786 76.0693 56.4395
21254 2 8.21151 76.0517 57.7118
21253 2 10.9391 74.4403 57.6805
15413 1 11.8441 76.0693 56.4395
15412 1 14.5718 74.4574 56.4082
15411 1 12.7633 74.4181 58.9536
20930 2 13.6678 76.0517 57.7118
15092 1 18.2195 74.4181 58.9536
20971 2 16.3953 74.4403 57.6805
15098 1 17.3003 76.0693 56.4395
15131 1 20.028 74.4574 56.4082
20660 2 19.124 76.0517 57.7118
15976 1 0.932215 79.2899 56.4985
21539 2 2.756 79.2719 57.7712
21819 2 0.0275596 77.6622 57.7421
16009 1 3.66006 77.6801 56.4696
21538 2 5.4838 77.6622 57.7421
15690 1 9.1163 77.6801 56.4696
15691 1 6.38845 79.2899 56.4985
21208 2 8.21223 79.2719 57.7712
15368 1 11.8447 79.2899 56.4985
21256 2 10.94 77.6622 57.7421
15415 1 14.5725 77.6801 56.4696
20929 2 13.6685 79.2719 57.7712
15097 1 17.3009 79.2899 56.4985
20928 2 16.3963 77.6622 57.7421
15096 1 20.0288 77.6801 56.4696
20630 2 19.1247 79.2719 57.7712
15975 1 0.932696 82.5067 56.5528
21508 2 2.75648 82.489 57.8261
21794 2 0.028137 80.8808 57.7992
15974 1 3.66058 80.8987 56.5263
21541 2 5.48438 80.8808 57.7992
15652 1 6.38893 82.5067 56.5528
15693 1 9.11682 80.8987 56.5263
21207 2 8.21272 82.489 57.8261
15367 1 11.8452 82.5067 56.5528
21206 2 10.9406 80.8808 57.7992
15366 1 14.5731 80.8987 56.5263
20886 2 13.669 82.489 57.8261
15062 1 17.3014 82.5067 56.5528
20931 2 16.3969 80.8808 57.7992
15099 1 20.0293 80.8987 56.5263
20629 2 19.1252 82.489 57.8261
15952 1 0.933182 85.7205 56.6024
21507 2 2.75691 85.7035 57.8763
21795 2 0.0285796 84.0966 57.8518
15977 1 3.66105 84.1139 56.5782
21506 2 5.48482 84.0966 57.8518
15650 1 9.11729 84.1139 56.5782
15651 1 6.38942 85.7205 56.6024
21168 2 8.21315 85.7035 57.8763
15323 1 11.8457 85.7205 56.6024
21209 2 10.9411 84.0966 57.8518
15369 1 14.5735 84.1139 56.5782
20885 2 13.6694 85.7035 57.8763
15061 1 17.3019 85.7205 56.6024
20884 2 16.3973 84.0966 57.8518
15060 1 20.0298 84.1139 56.5782
20598 2 19.1256 85.7035 57.8763
15951 1 0.933719 88.9318 56.6475
21484 2 2.75735 88.916 57.9221
21778 2 0.0290074 87.31 57.8998
15950 1 3.66156 87.3264 56.6255
21509 2 5.48525 87.31 57.8998
15620 1 6.38996 88.9318 56.6475
15653 1 9.1178 87.3264 56.6255
21167 2 8.21359 88.916 57.9221
15322 1 11.8462 88.9318 56.6475
21166 2 10.9415 87.31 57.8998
15321 1 14.574 87.3264 56.6255
20843 2 13.6698 88.916 57.9221
15026 1 17.3024 88.9318 56.6475
20887 2 16.3977 87.31 57.8998
15063 1 20.0303 87.3264 56.6255
20597 2 19.1261 88.916 57.9221
21779 2 0.0294771 90.5215 57.9433
15953 1 3.66213 90.5367 56.6684
21482 2 5.48572 90.5215 57.9433
15618 1 9.11837 90.5367 56.6684
21169 2 10.942 90.5215 57.9433
15324 1 14.5746 90.5367 56.6684
20841 2 16.3982 90.5215 57.9433
15024 1 20.0308 90.5367 56.6684
15936 1 0.934317 92.1412 56.6882
21483 2 2.75785 92.1268 57.9634
21770 2 0.030006 93.7317 57.9824
15934 1 3.66276 93.7454 56.707
21485 2 5.48624 93.7317 57.9824
15619 1 6.39056 92.1412 56.6882
21136 2 8.21409 92.1268 57.9634
15621 1 9.11899 93.7454 56.707
15285 1 11.8468 92.1412 56.6882
21134 2 10.9425 93.7317 57.9824
20842 2 13.6703 92.1268 57.9634
15283 1 14.5752 93.7454 56.707
15025 1 17.303 92.1412 56.6882
20844 2 16.3987 93.7317 57.9824
20566 2 19.1266 92.1268 57.9634
15027 1 20.0315 93.7454 56.707
15935 1 0.934966 95.3493 56.7247
21468 2 2.75841 95.3364 58.0003
21771 2 0.0305884 96.9408 58.0173
15937 1 3.66342 96.953 56.7414
21466 2 5.48683 96.9408 58.0173
15594 1 9.11966 96.953 56.7414
15596 1 6.3912 95.3493 56.7247
21135 2 8.21465 95.3364 58.0003
15284 1 11.8474 95.3493 56.7247
21137 2 10.9431 96.9408 58.0173
15286 1 14.5759 96.953 56.7414
20807 2 13.6709 95.3364 58.0003
14991 1 17.3037 95.3493 56.7247
20805 2 16.3993 96.9408 58.0173
14989 1 20.0321 96.953 56.7414
20565 2 19.1271 95.3364 58.0003
15928 1 0.935646 98.5564 56.7571
21467 2 2.75901 98.5451 58.0331
21769 2 0.0312051 100.149 58.048
15926 1 3.66411 100.16 56.7719
21469 2 5.48744 100.149 58.048
15595 1 6.39188 98.5564 56.7571
15597 1 9.12035 100.16 56.7719
21112 2 8.21525 98.5451 58.0331
15255 1 11.8481 98.5564 56.7571
21110 2 10.9437 100.149 58.048
15253 1 14.5766 100.16 56.7719
20806 2 13.6715 98.5451 58.0331
14990 1 17.3044 98.5564 56.7571
20808 2 16.3999 100.149 58.048
14992 1 20.0328 100.16 56.7719
20535 2 19.1277 98.5451 58.0331
21654 2 0.921062 53.4413 59.8565
15813 1 2.74665 53.4363 61.1333
16110 1 0.0171353 51.827 61.1221
21688 2 3.64769 51.8299 59.845
15812 1 5.47337 51.827 61.1221
21369 2 9.10393 51.8299 59.845
21370 2 6.3773 53.4413 59.8565
15478 1 8.20289 53.4363 61.1333
21022 2 11.8335 53.4413 59.8565
15504 1 10.9296 51.827 61.1221
21040 2 14.5602 51.8299 59.845
15162 1 13.6591 53.4363 61.1333
20706 2 17.2898 53.4413 59.8565
15161 1 16.3859 51.827 61.1221
20705 2 20.0164 51.8299 59.845
14893 1 19.1154 53.4363 61.1333
16074 1 0.0203496 55.0459 61.1484
21652 2 3.65112 55.0529 59.8721
15814 1 5.47659 55.0459 61.1484
21371 2 9.10736 55.0529 59.8721
15476 1 10.9328 55.0459 61.1484
21020 2 14.5636 55.0529 59.8721
15163 1 16.3891 55.0459 61.1484
20707 2 20.0198 55.0529 59.8721
21653 2 0.925286 56.6647 59.8913
15775 1 2.75062 56.6558 61.1673
16075 1 0.0248731 58.2661 61.1894
21655 2 3.65593 58.2766 59.9139
15773 1 5.48111 58.2661 61.1894
21338 2 6.38152 56.6647 59.8913
15477 1 8.20686 56.6558 61.1673
21336 2 9.11216 58.2766 59.9139
21021 2 11.8378 56.6647 59.8913
15479 1 10.9373 58.2661 61.1894
15146 1 13.6631 56.6558 61.1673
21023 2 14.5684 58.2766 59.9139
20698 2 17.294 56.6647 59.8913
15144 1 16.3936 58.2661 61.1894
14892 1 19.1193 56.6558 61.1673
20696 2 20.0246 58.2766 59.9139
21615 2 0.930441 59.8888 59.9394
15774 1 2.75548 59.8767 61.2144
16038 1 0.0298615 61.4877 61.2418
21613 2 3.66119 61.5013 59.9674
15776 1 5.4861 61.4877 61.2418
21337 2 6.38668 59.8888 59.9394
21339 2 9.11743 61.5013 59.9674
15446 1 8.21172 59.8767 61.2144
20998 2 11.8429 59.8888 59.9394
15444 1 10.9423 61.4877 61.2418
20996 2 14.5737 61.5013 59.9674
15145 1 13.668 59.8767 61.2144
20697 2 17.2992 59.8888 59.9394
15147 1 16.3986 61.4877 61.2418
20699 2 20.0299 61.5013 59.9674
14885 1 19.1242 59.8767 61.2144
21614 2 0.93559 63.1139 59.9974
15730 1 2.76038 63.099 61.2713
16039 1 0.0344739 64.7106 61.3025
21616 2 3.66603 64.7267 60.0288
15728 1 5.49071 64.7106 61.3025
21296 2 9.12227 64.7267 60.0288
21298 2 6.39183 63.1139 59.9974
15445 1 8.21662 63.099 61.2713
20997 2 11.8481 63.1139 59.9974
15447 1 10.947 64.7106 61.3025
20999 2 14.5785 64.7267 60.0288
15122 1 13.6729 63.099 61.2713
20682 2 17.3043 63.1139 59.9974
15120 1 16.4032 64.7106 61.3025
20680 2 20.0347 64.7267 60.0288
14884 1 19.1291 63.099 61.2713
21575 2 0.939971 66.3397 60.0614
15729 1 2.76456 66.3225 61.3347
16002 1 0.0381108 67.9345 61.3678
21573 2 3.66986 67.9525 60.0946
15731 1 5.49435 67.9345 61.3678
21297 2 6.39621 66.3397 60.0614
21299 2 9.12609 67.9525 60.0946
15406 1 8.22079 66.3225 61.3347
20966 2 11.8524 66.3397 60.0614
15404 1 10.9506 67.9345 61.3678
20964 2 14.5823 67.9525 60.0946
15121 1 13.677 66.3225 61.3347
20681 2 17.3087 66.3397 60.0614
15123 1 16.4068 67.9345 61.3678
20683 2 20.0386 67.9525 60.0946
14869 1 19.1333 66.3225 61.3347
21574 2 0.943201 69.5653 60.1281
15684 1 2.7676 69.5465 61.4013
16003 1 0.0405613 71.1585 61.4348
21576 2 3.67249 71.1778 60.1615
15682 1 5.4968 71.1585 61.4348
21249 2 9.12873 71.1778 60.1615
21251 2 6.39944 69.5653 60.1281
15405 1 8.22384 69.5465 61.4013
20965 2 11.8557 69.5653 60.1281
15407 1 10.953 71.1585 61.4348
20967 2 14.585 71.1778 60.1615
15090 1 13.6801 69.5465 61.4013
20658 2 17.3119 69.5653 60.1281
15088 1 16.4093 71.1585 61.4348
20656 2 20.0412 71.1778 60.1615
14868 1 19.1363 69.5465 61.4013
21536 2 0.945287 72.79 60.1945
15683 1 2.7695 72.7703 61.4681
21250 2 6.40153 72.79 60.1945
15360 1 8.22573 72.7703 61.4681
20926 2 11.8578 72.79 60.1945
15089 1 13.682 72.7703 61.4681
20657 2 17.314 72.79 60.1945
14846 1 19.1382 72.7703 61.4681
15970 1 0.0419639 74.3818 61.5008
21535 2 0.946485 76.0129 60.2586
15644 1 2.77049 75.993 61.5329
15687 1 4.57929 76.0298 58.9854
21534 2 3.6741 74.4017 60.227
15685 1 5.4982 74.3818 61.5008
21252 2 9.13033 74.4017 60.227
21204 2 6.40272 76.0129 60.2586
15359 1 8.22672 75.993 61.5329
15364 1 10.0355 76.0298 58.9854
15358 1 10.9544 74.3818 61.5008
20925 2 11.859 76.0129 60.2586
15093 1 15.4918 76.0298 58.9854
20924 2 14.5866 74.4017 60.227
15054 1 13.683 75.993 61.5329
15091 1 16.4107 74.3818 61.5008
20627 2 17.3152 76.0129 60.2586
14848 1 20.948 76.0298 58.9854
20659 2 20.0428 74.4017 60.227
14845 1 19.1392 75.993 61.5329
15972 1 1.85143 77.6408 59.0162
21504 2 0.947112 79.2336 60.3192
15643 1 2.7709 79.2143 61.5943
15971 1 0.0426256 77.6039 61.5641
15648 1 4.57973 79.251 59.046
21537 2 3.67497 77.6235 60.2894
15642 1 5.49886 77.6039 61.5641
15689 1 7.30767 77.6408 59.0162
21202 2 9.13121 77.6235 60.2894
21203 2 6.40335 79.2336 60.3192
15315 1 8.22714 79.2143 61.5943
15363 1 10.036 79.251 59.046
20882 2 11.8596 79.2336 60.3192
15361 1 10.9551 77.6039 61.5641
15058 1 15.4922 79.251 59.046
15362 1 12.7639 77.6408 59.0162
20927 2 14.5874 77.6235 60.2894
15053 1 13.6834 79.2143 61.5943
15095 1 18.2201 77.6408 59.0162
20626 2 17.3158 79.2336 60.3192
15052 1 16.4113 77.6039 61.5641
14847 1 20.9484 79.251 59.046
20625 2 20.0437 77.6235 60.2894
14822 1 19.1396 79.2143 61.5943
15973 1 1.85174 80.8606 59.0745
21503 2 0.947437 82.4523 60.3754
15612 1 2.77101 82.4338 61.6514
15946 1 0.0428563 80.8242 61.6234
15647 1 4.57997 82.4695 59.1019
21502 2 3.67542 80.8432 60.3478
15645 1 5.49909 80.8242 61.6234
15646 1 7.30798 80.8606 59.0745
21164 2 6.40368 82.4523 60.3754
21205 2 9.13166 80.8432 60.3478
15314 1 8.22725 82.4338 61.6514
15319 1 10.0362 82.4695 59.1019
20881 2 11.8599 82.4523 60.3754
15313 1 10.9553 80.8242 61.6234
15057 1 15.4924 82.4695 59.1019
15365 1 12.7642 80.8606 59.0745
20880 2 14.5879 80.8432 60.3478
15018 1 13.6835 82.4338 61.6514
15056 1 18.2205 80.8606 59.0745
20595 2 17.3162 82.4523 60.3754
15055 1 16.4116 80.8242 61.6234
14824 1 20.9487 82.4695 59.1019
20628 2 20.0441 80.8432 60.3478
14821 1 19.1397 82.4338 61.6514
15948 1 1.85194 84.0778 59.1281
21480 2 0.947654 85.669 60.4271
15611 1 2.77103 85.6516 61.7039
15947 1 0.0429002 84.0429 61.6783
15616 1 4.58016 85.6856 59.1532
21505 2 3.67567 84.0608 60.4018
15610 1 5.49914 84.0429 61.6783
15649 1 7.30818 84.0778 59.1281
21162 2 9.13191 84.0608 60.4018
21163 2 6.40389 85.669 60.4271
15277 1 8.22726 85.6516 61.7039
15318 1 10.0364 85.6856 59.1532
20839 2 11.8601 85.669 60.4271
15316 1 10.9554 84.0429 61.6783
15317 1 12.7644 84.0778 59.1281
15022 1 15.4926 85.6856 59.1532
20883 2 14.5881 84.0608 60.4018
15017 1 13.6835 85.6516 61.7039
15059 1 18.2207 84.0778 59.1281
20594 2 17.3164 85.669 60.4271
15016 1 16.4116 84.0429 61.6783
14823 1 20.9489 85.6856 59.1532
20593 2 20.0444 84.0608 60.4018
14798 1 19.1397 85.6516 61.7039
15949 1 1.85215 87.2928 59.177
21479 2 0.947879 88.884 60.4741
15588 1 2.77108 88.8681 61.7517
15930 1 0.0429243 87.26 61.7284
15615 1 4.58041 88.8996 59.1997
21478 2 3.67588 87.2767 60.4512
15613 1 5.49916 87.26 61.7284
15614 1 7.30839 87.2928 59.177
21132 2 6.40412 88.884 60.4741
21165 2 9.13212 87.2767 60.4512
15276 1 8.22732 88.8681 61.7517
15281 1 10.0366 88.8996 59.1997
20838 2 11.8604 88.884 60.4741
15275 1 10.9554 87.26 61.7284
15021 1 15.4929 88.8996 59.1997
15320 1 12.7646 87.2928 59.177
20837 2 14.5884 87.2767 60.4512
14983 1 13.6836 88.8681 61.7517
15020 1 18.2209 87.2928 59.177
20563 2 17.3166 88.884 60.4741
15019 1 16.4116 87.26 61.7284
14800 1 20.9491 88.8996 59.1997
20596 2 20.0446 87.2767 60.4512
14797 1 19.1398 88.8681 61.7517
15932 1 1.85244 90.506 59.2212
15931 1 0.0430235 90.4758 61.7737
21481 2 3.67614 90.4911 60.4958
15586 1 5.49926 90.4758 61.7737
15617 1 7.30868 90.506 59.2212
21130 2 9.13237 90.4911 60.4958
15278 1 10.9555 90.4758 61.7737
15279 1 12.7649 90.506 59.2212
20840 2 14.5886 90.4911 60.4958
15023 1 18.2212 90.506 59.2212
14981 1 16.4117 90.4758 61.7737
20561 2 20.0449 90.4911 60.4958
21464 2 0.948174 92.0978 60.5165
15933 1 1.85283 93.7179 59.2609
15592 1 4.58074 92.1121 59.2416
21462 2 3.67647 93.7043 60.536
21131 2 6.40441 92.0978 60.5165
15590 1 7.30906 93.7179 59.2609
21133 2 9.13271 93.7043 60.536
15280 1 10.037 92.1121 59.2416
20803 2 11.8607 92.0978 60.5165
14987 1 15.4932 92.1121 59.2416
15282 1 12.7653 93.7179 59.2609
20801 2 14.589 93.7043 60.536
20562 2 17.3169 92.0978 60.5165
14985 1 18.2215 93.7179 59.2609
14799 1 20.9495 92.1121 59.2416
20564 2 20.0452 93.7043 60.536
15924 1 1.8533 96.9287 59.2963
21463 2 0.948557 95.3105 60.5543
15591 1 4.58117 95.3234 59.2791
21465 2 3.6769 96.9166 60.5716
15593 1 7.30953 96.9287 59.2963
21106 2 9.13314 96.9166 60.5716
21108 2 6.4048 95.3105 60.5543
15251 1 10.0374 95.3234 59.2791
20802 2 11.861 95.3105 60.5543
14986 1 15.4936 95.3234 59.2791
15249 1 12.7658 96.9287 59.2963
20804 2 14.5894 96.9166 60.5716
14988 1 18.222 96.9287 59.2963
20532 2 17.3173 95.3105 60.5543
14776 1 20.9499 95.3234 59.2791
20530 2 20.0456 96.9166 60.5716
15925 1 1.85383 100.139 59.3273
21456 2 0.949021 98.5225 60.5878
15576 1 4.58168 98.5338 59.3123
21454 2 3.67739 100.128 60.603
15574 1 7.31007 100.139 59.3273
21107 2 6.40526 98.5225 60.5878
21109 2 9.13363 100.128 60.603
15250 1 10.0379 98.5338 59.3123
20775 2 11.8615 98.5225 60.5878
14959 1 15.4942 98.5338 59.3123
15252 1 12.7663 100.139 59.3273
20773 2 14.5899 100.128 60.603
14957 1 18.2225 100.139 59.3273
20531 2 17.3177 98.5225 60.5878
14775 1 20.9504 98.5338 59.3123
20533 2 20.0461 100.128 60.603
21650 2 1.84197 51.8265 62.4073
15771 1 0.940079 53.4309 63.6955
21334 2 4.57133 53.4346 62.418
15811 1 3.66701 51.8246 63.6851
21368 2 7.29821 51.8265 62.4073
15473 1 9.12325 51.8246 63.6851
15474 1 6.39632 53.4309 63.6955
21018 2 10.0276 53.4346 62.418
15142 1 11.8526 53.4309 63.6955
20694 2 15.4838 53.4346 62.418
21017 2 12.7544 51.8265 62.4073
15160 1 14.5795 51.8246 63.6851
20704 2 18.2107 51.8265 62.4073
14890 1 17.3088 53.4309 63.6955
20456 2 20.94 53.4346 62.418
14889 1 20.0357 51.8246 63.6851
21651 2 1.84483 55.0429 62.4324
15769 1 3.66974 55.0375 63.7097
21332 2 7.30107 55.0429 62.4324
15475 1 9.12598 55.0375 63.7097
21019 2 12.7573 55.0429 62.4324
15140 1 14.5822 55.0375 63.7097
20692 2 18.2135 55.0429 62.4324
14891 1 20.0385 55.0375 63.7097
15770 1 0.943443 56.6445 63.7274
21611 2 1.84886 58.2604 62.4716
21333 2 4.57486 56.6514 62.4504
15772 1 3.67358 58.2519 63.7482
15442 1 6.39968 56.6445 63.7274
21335 2 7.3051 58.2604 62.4716
15440 1 9.12982 58.2519 63.7482
20994 2 10.0311 56.6514 62.4504
15141 1 11.8559 56.6445 63.7274
20693 2 15.4873 56.6514 62.4504
20992 2 12.7613 58.2604 62.4716
15143 1 14.5861 58.2519 63.7482
14882 1 17.3122 56.6445 63.7274
20695 2 18.2176 58.2604 62.4716
20455 2 20.9436 56.6514 62.4504
14880 1 20.0423 58.2519 63.7482
21612 2 1.85334 61.4793 62.5221
15726 1 0.947591 59.8597 63.7719
21294 2 4.57921 59.8696 62.4957
15724 1 3.67786 61.4681 63.798
21292 2 7.30958 61.4793 62.5221
15441 1 6.40383 59.8597 63.7719
15443 1 9.1341 61.4681 63.798
20993 2 10.0354 59.8696 62.4957
15118 1 11.8601 59.8597 63.7719
20678 2 15.4917 59.8696 62.4957
20995 2 12.7658 61.4793 62.5221
15116 1 14.5903 61.4681 63.798
20676 2 18.2221 61.4793 62.5221
14881 1 17.3163 59.8597 63.7719
20454 2 20.9479 59.8696 62.4957
14883 1 20.0466 61.4681 63.798
21571 2 1.85757 64.6997 62.5808
15725 1 0.951831 63.0769 63.8262
21293 2 4.58364 63.0893 62.5506
15727 1 3.68191 64.6861 63.856
21295 2 7.31381 64.6997 62.5808
15400 1 9.13815 64.6861 63.856
15402 1 6.40807 63.0769 63.8262
20962 2 10.0399 63.0893 62.5506
15117 1 11.8643 63.0769 63.8262
20677 2 15.4961 63.0893 62.5506
20960 2 12.77 64.6997 62.5808
15119 1 14.5944 64.6861 63.856
20679 2 18.2263 64.6997 62.5808
14866 1 17.3205 63.0769 63.8262
20447 2 20.9524 63.0893 62.5506
14864 1 20.0506 64.6861 63.856
21572 2 1.86105 67.9213 62.6443
15680 1 0.955563 66.2957 63.8872
21247 2 4.58754 66.3104 62.6121
15678 1 3.68523 67.9057 63.9192
21245 2 7.31729 67.9213 62.6443
15401 1 6.4118 66.2957 63.8872
15403 1 9.14147 67.9057 63.9192
20961 2 10.0438 66.3104 62.6121
15086 1 11.868 66.2957 63.8872
20654 2 15.5 66.3104 62.6121
20963 2 12.7735 67.9213 62.6443
15084 1 14.5977 67.9057 63.9192
20652 2 18.2298 67.9213 62.6443
14865 1 17.3243 66.2957 63.8872
20446 2 20.9563 66.3104 62.6121
14867 1 20.0539 67.9057 63.9192
21532 2 1.86356 71.1434 62.7098
15679 1 0.958415 69.5159 63.9519
21246 2 4.59055 69.5323 62.677
15681 1 3.6876 71.1264 63.9848
21248 2 7.3198 71.1434 62.7098
15354 1 9.14383 71.1264 63.9848
15356 1 6.41465 69.5159 63.9519
20922 2 10.0468 69.5323 62.677
15085 1 11.8709 69.5159 63.9519
20653 2 15.503 69.5323 62.677
20920 2 12.776 71.1434 62.7098
15087 1 14.6001 71.1264 63.9848
20655 2 18.2323 71.1434 62.7098
14843 1 17.3271 69.5159 63.9519
20431 2 20.9593 69.5323 62.677
14841 1 20.0563 71.1264 63.9848
15640 1 0.960309 72.7369 64.0176
21200 2 4.59258 72.7544 62.7426
15355 1 6.41655 72.7369 64.0176
20921 2 10.0488 72.7544 62.7426
15050 1 11.8728 72.7369 64.0176
20623 2 15.5051 72.7544 62.7426
14842 1 17.329 72.7369 64.0176
20430 2 20.9613 72.7544 62.7426
21533 2 1.86515 74.3654 62.7749
15639 1 0.961371 75.9581 64.0822
15638 1 3.68905 74.3475 64.0502
21199 2 4.59378 75.9761 62.8067
21198 2 7.32139 74.3654 62.7749
15357 1 9.14529 74.3475 64.0502
15311 1 6.41761 75.9581 64.0822
20878 2 10.05 75.9761 62.8067
15049 1 11.8738 75.9581 64.0822
20923 2 12.7776 74.3654 62.7749
15048 1 14.6015 74.3475 64.0502
20622 2 15.5063 75.9761 62.8067
20621 2 18.2339 74.3654 62.7749
14819 1 17.3301 75.9581 64.0822
14844 1 20.0578 74.3475 64.0502
20411 2 20.9625 75.9761 62.8067
21500 2 1.86603 77.5867 62.8377
15608 1 0.961828 79.1789 64.144
21160 2 4.59439 79.1969 62.8678
15641 1 3.68978 77.5686 64.1135
21201 2 7.32227 77.5867 62.8377
15309 1 9.14602 77.5686 64.1135
15310 1 6.41807 79.1789 64.144
20877 2 10.0506 79.1969 62.8678
15014 1 11.8743 79.1789 64.144
20591 2 15.5069 79.1969 62.8678
20876 2 12.7785 77.5867 62.8377
15051 1 14.6023 77.5686 64.1135
20624 2 18.2347 77.5867 62.8377
14818 1 17.3305 79.1789 64.144
20410 2 20.9631 79.1969 62.8678
14817 1 20.0585 77.5686 64.1135
21501 2 1.86643 80.8069 62.8969
15607 1 0.961922 82.399 64.2019
21159 2 4.59465 82.4166 62.925
15606 1 3.69002 80.7891 64.1735
21158 2 7.32267 80.8069 62.8969
15273 1 6.41816 82.399 64.2019
15312 1 9.14626 80.7891 64.1735
20835 2 10.0509 82.4166 62.925
15013 1 11.8744 82.399 64.2019
20590 2 15.5071 82.4166 62.925
20879 2 12.7789 80.8069 62.8969
15012 1 14.6025 80.7891 64.1735
20589 2 18.2351 80.8069 62.8969
14795 1 17.3306 82.399 64.2019
20391 2 20.9634 82.4166 62.925
14820 1 20.0587 80.7891 64.1735
21476 2 1.86659 84.026 62.9519
15584 1 0.961877 85.6184 64.2552
21128 2 4.59475 85.6351 62.9777
15609 1 3.69002 84.0088 64.2291
21161 2 7.32283 84.026 62.9519
15271 1 9.14626 84.0088 64.2291
15272 1 6.41812 85.6184 64.2552
20834 2 10.051 85.6351 62.9777
14979 1 11.8744 85.6184 64.2552
20559 2 15.5072 85.6351 62.9777
20833 2 12.7791 84.026 62.9519
15015 1 14.6025 84.0088 64.2291
20592 2 18.2353 84.026 62.9519
14794 1 17.3306 85.6184 64.2552
20390 2 20.9635 85.6351 62.9777
14793 1 20.0587 84.0088 64.2291
21477 2 1.86668 87.2439 63.0023
15583 1 0.961844 88.837 64.3038
21127 2 4.59485 88.8525 63.0257
15582 1 3.68997 87.2278 64.2801
21126 2 7.32291 87.2439 63.0023
15243 1 6.41808 88.837 64.3038
15274 1 9.14621 87.2278 64.2801
20799 2 10.0511 88.8525 63.0257
14978 1 11.8743 88.837 64.3038
20558 2 15.5073 88.8525 63.0257
20836 2 12.7792 87.2439 63.0023
14977 1 14.6024 87.2278 64.2801
20557 2 18.2354 87.2439 63.0023
14771 1 17.3306 88.837 64.3038
20371 2 20.9636 88.8525 63.0257
14796 1 20.0587 87.2278 64.2801
21460 2 1.8668 90.4609 63.0479
15585 1 3.68998 90.446 64.3263
21129 2 7.32304 90.4609 63.0479
15241 1 9.14622 90.446 64.3263
20797 2 12.7793 90.4609 63.0479
14980 1 14.6025 90.446 64.3263
20560 2 18.2355 90.4609 63.0479
14769 1 20.0587 90.446 64.3263
15587 1 2.77123 92.0833 61.7946
15922 1 0.0432379 93.6906 61.8144
15568 1 0.961913 92.0549 64.3475
21461 2 1.86703 93.677 63.0888
15589 1 5.49948 93.6906 61.8144
21104 2 4.59502 92.0691 63.069
15566 1 3.69012 93.6636 64.3676
15247 1 8.22747 92.0833 61.7946
15242 1 6.41815 92.0549 64.3475
21102 2 7.32326 93.677 63.0888
15244 1 9.14635 93.6636 64.3676
15245 1 10.9557 93.6906 61.8144
20798 2 10.0513 92.0691 63.069
14951 1 11.8744 92.0549 64.3475
14982 1 13.6837 92.0833 61.7946
20528 2 15.5075 92.0691 63.069
20800 2 12.7795 93.677 63.0888
14949 1 14.6026 93.6636 64.3676
14984 1 16.412 93.6906 61.8144
14770 1 17.3306 92.0549 64.3475
20526 2 18.2357 93.677 63.0888
14774 1 19.1399 92.0833 61.7946
20370 2 20.9637 92.0691 63.069
14772 1 20.0588 93.6636 64.3676
15572 1 2.77151 95.2977 61.8329
15923 1 0.0435702 96.9046 61.8504
21452 2 1.86736 96.8925 63.1251
15567 1 0.962115 95.2721 64.3865
15570 1 5.49981 96.9046 61.8504
21103 2 4.5953 95.2849 63.1075
15569 1 3.69039 96.8806 64.4042
15246 1 8.22775 95.2977 61.8329
21105 2 7.32359 96.8925 63.1251
15219 1 9.14662 96.8806 64.4042
15221 1 6.41835 95.2721 64.3865
15248 1 10.956 96.9046 61.8504
20771 2 10.0515 95.2849 63.1075
14950 1 11.8746 95.2721 64.3865
14955 1 13.684 95.2977 61.8329
20527 2 15.5078 95.2849 63.1075
20769 2 12.7798 96.8925 63.1251
14952 1 14.6029 96.8806 64.4042
14953 1 16.4123 96.9046 61.8504
20529 2 18.2361 96.8925 63.1251
14748 1 17.3308 95.2721 64.3865
14773 1 19.1402 95.2977 61.8329
20351 2 20.964 95.2849 63.1075
14746 1 20.0591 96.8806 64.4042
15571 1 2.77189 98.5113 61.8668
15921 1 0.0439992 100.118 61.882
21453 2 1.86778 100.107 63.157
15560 1 0.962447 98.4889 64.4209
15573 1 5.50024 100.118 61.882
21088 2 4.59568 98.5001 63.1416
15558 1 3.69077 100.097 64.4363
15225 1 8.22813 98.5113 61.8668
21086 2 7.32402 100.107 63.157
15220 1 6.41868 98.4889 64.4209
15222 1 9.14701 100.097 64.4363
15223 1 10.9565 100.118 61.882
20770 2 10.0519 98.5001 63.1416
14931 1 11.8749 98.4889 64.4209
14954 1 13.6844 98.5113 61.8668
20504 2 15.5082 98.5001 63.1416
20772 2 12.7803 100.107 63.157
14929 1 14.6032 100.097 64.4363
14956 1 16.4127 100.118 61.882
20502 2 18.2365 100.107 63.157
14747 1 17.3312 98.4889 64.4209
14751 1 19.1406 98.5113 61.8668
20350 2 20.9644 98.5001 63.1416
14749 1 20.0595 100.097 64.4363
21330 2 2.76435 53.4285 64.9785
21649 2 0.0351495 51.8236 64.9685
15767 1 1.85958 51.8225 66.2488
21329 2 5.49139 51.8236 64.9685
15438 1 4.58874 53.4259 66.2587
20990 2 8.22058 53.4285 64.9785
15472 1 7.31582 51.8225 66.2488
21016 2 10.9476 51.8236 64.9685
15138 1 10.045 53.4259 66.2587
20690 2 13.6768 53.4285 64.9785
14878 1 15.5012 53.4259 66.2587
15137 1 12.7721 51.8225 66.2488
20689 2 16.4039 51.8236 64.9685
14888 1 18.2283 51.8225 66.2488
20453 2 19.1331 53.4285 64.9785
14704 1 20.9575 53.4259 66.2587
21609 2 0.0376232 55.0336 64.9921
15768 1 1.86195 55.0296 66.2721
21331 2 5.49386 55.0336 64.9921
15436 1 7.31819 55.0296 66.2721
20988 2 10.9501 55.0336 64.9921
15139 1 12.7744 55.0296 66.2721
20691 2 16.4063 55.0336 64.9921
14876 1 18.2307 55.0296 66.2721
21290 2 2.76739 56.6391 65.0092
21610 2 0.0411113 58.2451 65.0293
15722 1 1.86528 58.2383 66.3088
21288 2 5.49735 58.2451 65.0293
15437 1 4.59165 56.6337 66.2889
20989 2 8.22363 56.6391 65.0092
15439 1 7.32152 58.2383 66.3088
20991 2 10.9536 58.2451 65.0293
15114 1 10.0479 56.6337 66.2889
20674 2 13.6799 56.6391 65.0092
14877 1 15.5041 56.6337 66.2889
15112 1 12.7778 58.2383 66.3088
20672 2 16.4098 58.2451 65.0293
14879 1 18.234 58.2383 66.3088
20452 2 19.1361 56.6391 65.0092
14703 1 20.9604 56.6337 66.2889
21289 2 2.77117 59.8515 65.0521
21569 2 0.045032 61.4585 65.0774
15723 1 1.86902 61.4491 66.3565
21291 2 5.50127 61.4585 65.0774
15398 1 4.59525 59.8434 66.3314
20958 2 8.22741 59.8515 65.0521
15396 1 7.32525 61.4491 66.3565
20956 2 10.9575 61.4585 65.0774
15113 1 10.0515 59.8434 66.3314
20673 2 13.6837 59.8515 65.0521
14862 1 15.5077 59.8434 66.3314
15115 1 12.7815 61.4491 66.3565
20675 2 16.4137 61.4585 65.0774
14860 1 18.2377 61.4491 66.3565
20445 2 19.1399 59.8515 65.0521
14702 1 20.964 59.8434 66.3314
21243 2 2.77509 63.0659 65.1047
21570 2 0.0488075 64.6739 65.1338
15676 1 1.87262 64.6623 66.4124
21241 2 5.50505 64.6739 65.1338
15397 1 4.59898 63.0554 66.3836
20957 2 8.23133 63.0659 65.1047
15399 1 7.32886 64.6623 66.4124
20959 2 10.9613 64.6739 65.1338
15082 1 10.0552 63.0554 66.3836
20650 2 13.6876 63.0659 65.1047
14861 1 15.5115 63.0554 66.3836
15080 1 12.7851 64.6623 66.4124
20648 2 16.4175 64.6739 65.1338
14863 1 18.2413 64.6623 66.4124
20444 2 19.1438 63.0659 65.1047
14695 1 20.9677 63.0554 66.3836
21242 2 2.77861 66.2824 65.1641
21530 2 0.0519984 67.8913 65.1954
15677 1 1.87566 67.8778 66.4737
21244 2 5.50824 67.8913 65.1954
15352 1 4.60235 66.2698 66.4425
20918 2 8.23485 66.2824 65.1641
15350 1 7.3319 67.8778 66.4737
20916 2 10.9645 67.8913 65.1954
15081 1 10.0586 66.2698 66.4425
20649 2 13.6911 66.2824 65.1641
14839 1 15.5148 66.2698 66.4425
15083 1 12.7881 67.8778 66.4737
20651 2 16.4207 67.8913 65.1954
14837 1 18.2444 67.8778 66.4737
20429 2 19.1473 66.2824 65.1641
14694 1 20.9711 66.2698 66.4425
21196 2 2.78142 69.5006 65.2274
21531 2 0.0543921 71.1102 65.2596
15636 1 1.87793 71.0952 66.5379
21194 2 5.51063 71.1102 65.2596
15351 1 4.60501 69.4863 66.5056
20917 2 8.23766 69.5006 65.2274
15353 1 7.33417 71.0952 66.5379
20919 2 10.9669 71.1102 65.2596
15046 1 10.0613 69.4863 66.5056
20619 2 13.6939 69.5006 65.2274
14838 1 15.5175 69.4863 66.5056
15044 1 12.7904 71.0952 66.5379
20617 2 16.4231 71.1102 65.2596
14840 1 18.2466 71.0952 66.5379
20428 2 19.1501 69.5006 65.2274
14683 1 20.9737 69.4863 66.5056
21195 2 2.7834 72.7202 65.292
15307 1 4.60689 72.7046 66.5703
20874 2 8.23964 72.7202 65.292
15045 1 10.0631 72.7046 66.5703
20618 2 13.6959 72.7202 65.292
14815 1 15.5194 72.7046 66.5703
20409 2 19.1521 72.7202 65.292
14682 1 20.9756 72.7046 66.5703
21498 2 0.0559929 74.3303 65.3241
15637 1 1.87942 74.3142 66.6025
21156 2 2.78465 75.9405 65.3558
21197 2 5.51223 74.3303 65.3241
15306 1 4.60804 75.9241 66.6344
15305 1 7.33566 74.3142 66.6025
20873 2 8.24089 75.9405 65.3558
20872 2 10.9685 74.3303 65.3241
15010 1 10.0643 75.9241 66.6344
15047 1 12.7919 74.3142 66.6025
20587 2 13.6971 75.9405 65.3558
14814 1 15.5205 75.9241 66.6344
20620 2 16.4247 74.3303 65.3241
14813 1 18.2481 74.3142 66.6025
20408 2 19.1534 75.9405 65.3558
14671 1 20.9768 75.9241 66.6344
21155 2 2.7853 79.161 65.4171
21499 2 0.0569167 77.5507 65.3868
15604 1 1.88026 77.5342 66.6656
21154 2 5.51316 77.5507 65.3868
15269 1 4.60859 79.1444 66.6961
20831 2 8.24154 79.161 65.4171
15308 1 7.3365 77.5342 66.6656
20875 2 10.9694 77.5507 65.3868
15009 1 10.0648 79.1444 66.6961
20586 2 13.6978 79.161 65.4171
14791 1 15.5211 79.1444 66.6961
15008 1 12.7927 77.5342 66.6656
20585 2 16.4256 77.5507 65.3868
14816 1 18.249 77.5342 66.6656
20389 2 19.154 79.161 65.4171
14670 1 20.9773 79.1444 66.6961
21124 2 2.78556 82.3815 65.4748
21474 2 0.057345 80.7713 65.4465
15605 1 1.88058 80.7547 66.7257
21157 2 5.51358 80.7713 65.4465
15268 1 4.60874 82.365 66.7543
20830 2 8.2418 82.3815 65.4748
15267 1 7.33682 80.7547 66.7257
20829 2 10.9698 80.7713 65.4465
14975 1 10.065 82.365 66.7543
20555 2 13.698 82.3815 65.4748
14790 1 15.5212 82.365 66.7543
15011 1 12.7931 80.7547 66.7257
20588 2 16.4261 80.7713 65.4465
14789 1 18.2493 80.7547 66.7257
20388 2 19.1543 82.3815 65.4748
14659 1 20.9775 82.365 66.7543
21123 2 2.78564 85.6016 65.5281
21475 2 0.0574929 83.9916 65.502
15580 1 1.88063 83.9754 66.7818
21122 2 5.51373 83.9916 65.502
15239 1 4.60873 85.5858 66.8081
20795 2 8.24188 85.6016 65.5281
15270 1 7.33686 83.9754 66.7818
20832 2 10.97 83.9916 65.502
14974 1 10.065 85.5858 66.8081
20554 2 13.6981 85.6016 65.5281
14767 1 15.5212 85.5858 66.8081
14973 1 12.7931 83.9754 66.7818
20553 2 16.4262 83.9916 65.502
14792 1 18.2493 83.9754 66.7818
20369 2 19.1544 85.6016 65.5281
14658 1 20.9774 85.5858 66.8081
21100 2 2.7857 88.8213 65.5768
21458 2 0.0575472 87.2115 65.5531
15581 1 1.8806 87.1961 66.8333
21125 2 5.51379 87.2115 65.5531
15238 1 4.60871 88.8064 66.8572
20794 2 8.24194 88.8213 65.5768
15237 1 7.33683 87.1961 66.8333
20793 2 10.97 87.2115 65.5531
14947 1 10.065 88.8064 66.8572
20524 2 13.6982 88.8213 65.5768
14766 1 15.5212 88.8064 66.8572
14976 1 12.7931 87.1961 66.8333
20556 2 16.4263 87.2115 65.5531
14765 1 18.2493 87.1961 66.8333
20368 2 19.1544 88.8213 65.5768
14647 1 20.9774 88.8064 66.8572
21459 2 0.0576341 90.431 65.5994
15564 1 1.88062 90.4166 66.8799
21098 2 5.51387 90.431 65.5994
15240 1 7.33686 90.4166 66.8799
20796 2 10.9701 90.431 65.5994
14945 1 12.7931 90.4166 66.8799
20522 2 16.4263 90.431 65.5994
14768 1 18.2493 90.4166 66.8799
21099 2 2.78583 92.0405 65.6207
21450 2 0.057821 93.65 65.6409
15565 1 1.88077 93.6369 66.9217
15217 1 4.6088 92.0268 66.9014
21101 2 5.51406 93.65 65.6409
20767 2 8.24207 92.0405 65.6207
15215 1 7.33701 93.6369 66.9217
14946 1 10.065 92.0268 66.9014
20765 2 10.9703 93.65 65.6409
20523 2 13.6983 92.0405 65.6207
14744 1 15.5213 92.0268 66.9014
14948 1 12.7932 93.6369 66.9217
20525 2 16.4265 93.65 65.6409
14742 1 18.2495 93.6369 66.9217
20349 2 19.1545 92.0405 65.6207
14646 1 20.9775 92.0268 66.9014
21084 2 2.78608 95.2593 65.6599
21451 2 0.0581283 96.8685 65.6777
15556 1 1.88106 96.8569 66.9588
15216 1 4.60901 95.247 66.9408
21082 2 5.51437 96.8685 65.6777
20766 2 8.24232 95.2593 65.6599
15218 1 7.3373 96.8569 66.9588
14927 1 10.0653 95.247 66.9408
20768 2 10.9706 96.8685 65.6777
14743 1 15.5215 95.247 66.9408
20500 2 13.6986 95.2593 65.6599
14925 1 12.7935 96.8569 66.9588
20498 2 16.4268 96.8685 65.6777
14745 1 18.2498 96.8569 66.9588
14635 1 20.9777 95.247 66.9408
20348 2 19.1548 95.2593 65.6599
21083 2 2.78644 98.4777 65.6944
21449 2 0.0585426 100.087 65.7099
15557 1 1.88147 100.077 66.9912
21085 2 5.51478 100.087 65.7099
15203 1 4.60937 98.4668 66.9756
20747 2 8.24268 98.4777 65.6944
15201 1 7.33771 100.077 66.9912
20745 2 10.971 100.087 65.7099
14926 1 10.0656 98.4668 66.9756
20499 2 13.6989 98.4777 65.6944
14728 1 15.5218 98.4668 66.9756
14928 1 12.7939 100.077 66.9912
20501 2 16.4273 100.087 65.7099
14726 1 18.2502 100.077 66.9912
20330 2 19.1552 98.4777 65.6944
14634 1 20.9781 98.4668 66.9756
15766 1 0.0506495 51.8207 68.8169
21286 2 0.956334 53.4222 67.5373
21282 2 1.87425 51.816 70.0825
15433 1 5.50689 51.8207 68.8169
21328 2 3.68348 51.8206 67.5278
20985 2 9.13972 51.8206 67.5278
20986 2 6.41257 53.4222 67.5373
20984 2 7.33049 51.816 70.0825
15136 1 10.9631 51.8207 68.8169
20670 2 11.8688 53.4222 67.5373
20688 2 14.596 51.8206 67.5278
20665 2 12.7867 51.816 70.0825
14873 1 16.4194 51.8207 68.8169
20450 2 17.325 53.4222 67.5373
20448 2 18.243 51.816 70.0825
20449 2 20.0522 51.8206 67.5278
15434 1 2.77968 53.421 68.8263
15720 1 0.0527363 55.0217 68.8392
21283 2 1.87635 55.0125 70.1042
20950 2 4.60329 53.414 70.0917
15435 1 5.50897 55.0217 68.8392
21284 2 3.68571 55.0241 67.5503
15110 1 8.23592 53.421 68.8263
20987 2 9.14195 55.0241 67.5503
20948 2 7.33259 55.0125 70.1042
20666 2 10.0595 53.414 70.0917
15108 1 10.9652 55.0217 68.8392
14874 1 13.6922 53.421 68.8263
20438 2 15.5158 53.414 70.0917
20668 2 14.5982 55.0241 67.5503
20667 2 12.7888 55.0125 70.1042
14875 1 16.4215 55.0217 68.8392
20436 2 18.2451 55.0125 70.1042
14701 1 19.1484 53.421 68.8263
20296 2 20.972 53.414 70.0917
20451 2 20.0544 55.0241 67.5503
15394 1 2.78224 56.6228 68.8554
21285 2 0.95907 56.6265 67.5666
15721 1 0.0556682 58.2246 68.8745
21235 2 1.87931 58.2112 70.1385
15392 1 5.51191 58.2246 68.8745
21287 2 3.68884 58.2294 67.5859
20949 2 4.60587 56.6115 70.1199
15109 1 8.23848 56.6228 68.8554
20954 2 6.41531 56.6265 67.5666
20952 2 9.14508 58.2294 67.5859
20951 2 7.33555 58.2112 70.1385
20669 2 11.8715 56.6265 67.5666
15111 1 10.9681 58.2246 68.8745
20642 2 10.0621 56.6115 70.1199
14858 1 13.6947 56.6228 68.8554
20671 2 14.6013 58.2294 67.5859
20437 2 15.5183 56.6115 70.1199
20640 2 12.7918 58.2112 70.1385
20442 2 17.3278 56.6265 67.5666
14856 1 16.4244 58.2246 68.8745
20439 2 18.248 58.2112 70.1385
14700 1 19.151 56.6228 68.8554
20440 2 20.0576 58.2294 67.5859
20295 2 20.9746 56.6115 70.1199
15393 1 2.78543 59.827 68.8963
15674 1 0.0589821 61.4301 68.9204
21239 2 0.962475 59.8329 67.6078
21236 2 1.88266 61.4131 70.1834
15395 1 5.51522 61.4301 68.9204
21237 2 3.69239 61.4371 67.6322
20910 2 4.60908 59.8117 70.1598
15078 1 8.24167 59.827 68.8963
20953 2 6.41871 59.8329 67.6078
20955 2 9.14862 61.4371 67.6322
20908 2 7.3389 61.4131 70.1834
15076 1 10.9715 61.4301 68.9204
20646 2 11.875 59.8329 67.6078
20641 2 10.0653 59.8117 70.1598
14857 1 13.6979 59.827 68.8963
20644 2 14.6049 61.4371 67.6322
20643 2 12.7951 61.4131 70.1834
20422 2 15.5216 59.8117 70.1598
14859 1 16.4277 61.4301 68.9204
20441 2 17.3312 59.8329 67.6078
20420 2 18.2514 61.4131 70.1834
14693 1 19.1541 59.827 68.8963
20443 2 20.0611 61.4371 67.6322
20294 2 20.9778 59.8117 70.1598
15348 1 2.78875 63.034 68.9467
15675 1 0.0622172 64.6386 68.9746
21238 2 0.966037 63.042 67.6586
21188 2 1.88596 64.6186 70.2365
15346 1 5.51846 64.6386 68.9746
21240 2 3.69585 64.6476 67.6867
20909 2 4.61246 63.0154 70.2091
15077 1 8.24499 63.034 68.9467
20912 2 9.15209 64.6476 67.6867
20914 2 6.42228 63.042 67.6586
20911 2 7.3422 64.6186 70.2365
15079 1 10.9747 64.6386 68.9746
20645 2 11.8785 63.042 67.6586
20611 2 10.0687 63.0154 70.2091
14835 1 13.7012 63.034 68.9467
20647 2 14.6083 64.6476 67.6867
20421 2 15.5249 63.0154 70.2091
20609 2 12.7984 64.6186 70.2365
14833 1 16.4309 64.6386 68.9746
20426 2 17.3348 63.042 67.6586
20423 2 18.2547 64.6186 70.2365
14692 1 19.1575 63.034 68.9467
20424 2 20.0646 64.6476 67.6867
20288 2 20.9812 63.0154 70.2091
15347 1 2.79181 66.244 69.0039
15634 1 0.0650176 67.8501 69.0343
21192 2 0.969302 66.254 67.7162
21189 2 1.88885 67.828 70.2952
15349 1 5.52126 67.8501 69.0343
21190 2 3.69884 67.861 67.7468
20866 2 4.61559 66.2229 70.2653
15042 1 8.24804 66.244 69.0039
20913 2 6.42554 66.254 67.7162
20915 2 9.15508 67.861 67.7468
20864 2 7.34509 67.828 70.2952
15040 1 10.9775 67.8501 69.0343
20615 2 11.8818 66.254 67.7162
20610 2 10.0718 66.2229 70.2653
14834 1 13.7043 66.244 69.0039
20613 2 14.6113 67.861 67.7468
20402 2 15.5281 66.2229 70.2653
20612 2 12.8013 67.828 70.2952
14836 1 16.4337 67.8501 69.0343
20425 2 17.338 66.254 67.7162
20400 2 18.2576 67.828 70.2952
14681 1 19.1605 66.244 69.0039
20427 2 20.0676 67.861 67.7468
20287 2 20.9843 66.2229 70.2653
15303 1 2.7943 69.4569 69.0654
15635 1 0.0671643 71.0645 69.097
21191 2 0.971964 69.4686 67.778
21148 2 1.89113 71.0411 70.3571
15301 1 5.5234 71.0645 69.097
21193 2 3.70115 71.0769 67.8098
20865 2 4.61819 69.4341 70.3259
15041 1 8.25054 69.4569 69.0654
20868 2 9.15739 71.0769 67.8098
20870 2 6.4282 69.4686 67.778
20867 2 7.34737 71.0411 70.3571
15043 1 10.9796 71.0645 69.097
20614 2 11.8844 69.4686 67.778
20579 2 10.0744 69.4341 70.3259
14811 1 13.7068 69.4569 69.0654
20616 2 14.6136 71.0769 67.8098
20401 2 15.5307 69.4341 70.3259
20577 2 12.8036 71.0411 70.3571
14809 1 16.4359 71.0645 69.097
20406 2 17.3407 69.4686 67.778
20403 2 18.2598 71.0411 70.3571
14680 1 19.163 69.4569 69.0654
20404 2 20.0699 71.0769 67.8098
20280 2 20.9869 69.4341 70.3259
15302 1 2.79615 72.6728 69.1289
21152 2 0.97393 72.6857 67.8417
20823 2 4.62014 72.6489 70.3885
15006 1 8.25239 72.6728 69.1289
20869 2 6.43017 72.6857 67.8417
20583 2 11.8864 72.6857 67.8417
20578 2 10.0764 72.6489 70.3885
14810 1 13.7086 72.6728 69.1289
20382 2 15.5326 72.6489 70.3885
20405 2 17.3426 72.6857 67.8417
14669 1 19.1649 72.6728 69.1289
20279 2 20.9889 72.6489 70.3885
15602 1 0.068694 74.2816 69.1608
15265 1 2.79737 75.8908 69.1925
21151 2 0.975262 75.9047 67.9049
15304 1 5.52493 74.2816 69.1608
21150 2 3.70279 74.295 67.8734
20871 2 9.15903 74.295 67.8734
15005 1 8.25361 75.8908 69.1925
20827 2 6.4315 75.9047 67.9049
15004 1 10.9812 74.2816 69.1608
20582 2 11.8877 75.9047 67.9049
20581 2 14.6153 74.295 67.8734
14787 1 13.7098 75.8908 69.1925
14812 1 16.4374 74.2816 69.1608
20386 2 17.344 75.9047 67.9049
20407 2 20.0715 74.295 67.8734
14668 1 19.1661 75.8908 69.1925
15264 1 2.79801 79.1106 69.254
15603 1 0.0696344 77.5005 69.2236
21120 2 0.975996 79.125 67.9661
15263 1 5.52587 77.5005 69.2236
21153 2 3.70381 77.5147 67.9359
14971 1 8.25425 79.1106 69.254
20825 2 9.16005 77.5147 67.9359
20826 2 6.43223 79.125 67.9661
15007 1 10.9821 77.5005 69.2236
20551 2 11.8885 79.125 67.9661
14786 1 13.7105 79.1106 69.254
20584 2 14.6163 77.5147 67.9359
14785 1 16.4383 77.5005 69.2236
20385 2 17.3447 79.125 67.9661
14657 1 19.1667 79.1106 69.254
20384 2 20.0725 77.5147 67.9359
15235 1 2.79827 82.3318 69.312
15578 1 0.0700566 80.7211 69.2835
21119 2 0.976324 82.3463 68.024
15266 1 5.5263 80.7211 69.2835
21118 2 3.70432 80.7355 67.9955
14970 1 8.25451 82.3318 69.312
20791 2 6.43256 82.3463 68.024
20828 2 9.16055 80.7355 67.9955
14969 1 10.9825 80.7211 69.2835
20550 2 11.8888 82.3463 68.024
14763 1 13.7107 82.3318 69.312
20549 2 14.6168 80.7355 67.9955
14788 1 16.4388 80.7211 69.2835
20366 2 17.345 82.3463 68.024
14656 1 19.167 82.3318 69.312
20387 2 20.073 80.7355 67.9955
15234 1 2.79836 85.5539 69.3659
15579 1 0.0702094 83.9428 69.3395
21096 2 0.976457 85.568 68.0776
15233 1 5.52645 83.9428 69.3395
21121 2 3.70452 83.9571 68.0514
14943 1 8.2546 85.5539 69.3659
20789 2 9.16076 83.9571 68.0514
20790 2 6.4327 85.568 68.0776
14972 1 10.9827 83.9428 69.3395
20520 2 11.8889 85.568 68.0776
14762 1 13.7108 85.5539 69.3659
20552 2 14.617 83.9571 68.0514
14761 1 16.4389 83.9428 69.3395
20365 2 17.3452 85.568 68.0776
14645 1 19.1671 85.5539 69.3659
20364 2 20.0732 83.9571 68.0514
15213 1 2.79845 88.7766 69.4152
15562 1 0.0702809 87.1652 69.3912
21095 2 0.976559 88.79 68.1267
15236 1 5.52652 87.1652 69.3912
21094 2 3.70462 87.179 68.1027
14942 1 8.25469 88.7766 69.4152
20763 2 6.4328 88.79 68.1267
20792 2 9.16086 87.179 68.1027
14941 1 10.9828 87.1652 69.3912
20519 2 11.889 88.79 68.1267
14740 1 13.7109 88.7766 69.4152
20518 2 14.6171 87.179 68.1027
14764 1 16.439 87.1652 69.3912
20346 2 17.3453 88.79 68.1267
14644 1 19.1672 88.7766 69.4152
20367 2 20.0733 87.179 68.1027
15212 1 2.79863 91.9996 69.4597
15563 1 0.0704069 90.3881 69.438
21080 2 0.976732 92.012 68.171
15211 1 5.52665 90.3881 69.438
21097 2 3.70475 90.401 68.1494
14923 1 8.25487 91.9996 69.4597
20761 2 9.16099 90.401 68.1494
20762 2 6.43297 92.012 68.171
14944 1 10.9829 90.3881 69.438
20496 2 11.8892 92.012 68.171
14739 1 13.7111 91.9996 69.4597
20521 2 14.6172 90.401 68.1494
14738 1 16.4391 90.3881 69.438
20345 2 17.3454 92.012 68.171
14633 1 19.1673 91.9996 69.4597
20344 2 20.0735 90.401 68.1494
15554 1 0.0706595 93.6111 69.4801
15214 1 5.5269 93.6111 69.4801
21078 2 3.70498 93.6229 68.1913
20764 2 9.16122 93.6229 68.1913
14921 1 10.9831 93.6111 69.4801
20494 2 14.6175 93.6229 68.1913
14741 1 16.4394 93.6111 69.4801
20347 2 20.0737 93.6229 68.1913
15199 1 2.79896 95.2226 69.4993
21079 2 0.977024 95.2338 68.2104
15555 1 0.0710547 96.8341 69.5174
15197 1 5.52729 96.8341 69.5174
21081 2 3.70534 96.8446 68.2284
14922 1 8.2552 95.2226 69.4993
20743 2 6.43326 95.2338 68.2104
20741 2 9.16157 96.8446 68.2284
20495 2 11.8895 95.2338 68.2104
14924 1 10.9835 96.8341 69.5174
14724 1 13.7114 95.2226 69.4993
20497 2 14.6178 96.8446 68.2284
20327 2 17.3457 95.2338 68.2104
14722 1 16.4398 96.8341 69.5174
14632 1 19.1677 95.2226 69.4993
20325 2 20.0741 96.8446 68.2284
15198 1 2.79942 98.4456 69.5343
15553 1 0.0715707 100.057 69.5501
21072 2 0.977437 98.4554 68.2453
15200 1 5.52781 100.057 69.5501
21070 2 3.7058 100.066 68.261
14911 1 8.25566 98.4456 69.5343
20742 2 6.43368 98.4554 68.2453
20744 2 9.16204 100.066 68.261
14909 1 10.984 100.057 69.5501
20480 2 11.8899 98.4554 68.2453
14723 1 13.7119 98.4456 69.5343
20478 2 14.6183 100.066 68.261
14725 1 16.4403 100.057 69.5501
20326 2 17.3462 98.4554 68.2453
14622 1 19.1681 98.4456 69.5343
20328 2 20.0745 100.066 68.261
21281 2 0.0628848 51.8098 72.6238
15432 1 3.69401 51.8173 71.4015
20945 2 5.51912 51.8098 72.6238
15105 1 9.15025 51.8173 71.4015
20664 2 10.9754 51.8098 72.6238
14872 1 14.6065 51.8173 71.4015
20433 2 16.4316 51.8098 72.6238
14697 1 20.0627 51.8173 71.4015
15390 1 0.966688 53.4143 71.4106
20946 2 2.79192 53.4039 72.6327
21233 2 0.0649729 54.9985 72.6449
15388 1 3.69582 55.0118 71.4231
20947 2 5.52121 54.9985 72.6449
15106 1 6.42293 53.4143 71.4106
20638 2 8.24816 53.4039 72.6327
15107 1 9.15206 55.0118 71.4231
14854 1 11.8792 53.4143 71.4106
20636 2 10.9774 54.9985 72.6449
20434 2 13.7044 53.4039 72.6327
14852 1 14.6083 55.0118 71.4231
14698 1 17.3354 53.4143 71.4106
20435 2 16.4337 54.9985 72.6449
20293 2 19.1606 53.4039 72.6327
14699 1 20.0645 55.0118 71.4231
15389 1 0.968901 56.6099 71.4386
20906 2 2.79447 56.5939 72.6601
21234 2 0.067883 58.1902 72.6783
15391 1 3.69835 58.2088 71.4571
20904 2 5.52412 58.1902 72.6783
15074 1 6.42514 56.6099 71.4386
15072 1 9.15459 58.2088 71.4571
20637 2 8.25071 56.5939 72.6601
14853 1 11.8814 56.6099 71.4386
20639 2 10.9804 58.1902 72.6783
14855 1 14.6108 58.2088 71.4571
20418 2 13.7069 56.5939 72.6601
14690 1 17.3376 56.6099 71.4386
20416 2 16.4366 58.1902 72.6783
14688 1 20.0671 58.2088 71.4571
20292 2 19.1632 56.5939 72.6601
15344 1 0.971639 59.8084 71.4782
20905 2 2.79763 59.7875 72.699
21186 2 0.0711658 61.386 72.722
15342 1 3.7012 61.409 71.5016
20907 2 5.5274 61.386 72.722
15073 1 6.42788 59.8084 71.4782
15075 1 9.15744 61.409 71.5016
20607 2 8.25386 59.7875 72.699
14831 1 11.8841 59.8084 71.4782
20605 2 10.9836 61.386 72.722
14829 1 14.6137 61.409 71.5016
20417 2 13.7101 59.7875 72.699
14689 1 17.3404 59.8084 71.4782
20419 2 16.4399 61.386 72.722
14691 1 20.0699 61.409 71.5016
20286 2 19.1663 59.7875 72.699
15343 1 0.974499 63.0105 71.5271
20862 2 2.80092 62.9856 72.7471
21187 2 0.0743783 64.5865 72.7739
15345 1 3.70398 64.6129 71.5543
20860 2 5.53062 64.5865 72.7739
15036 1 9.16022 64.6129 71.5543
15038 1 6.43074 63.0105 71.5271
20606 2 8.25716 62.9856 72.7471
14830 1 11.887 63.0105 71.5271
20608 2 10.9869 64.5865 72.7739
14832 1 14.6165 64.6129 71.5543
20398 2 13.7134 62.9856 72.7471
14678 1 17.3432 63.0105 71.5271
20396 2 16.4431 64.5865 72.7739
14676 1 20.0727 64.6129 71.5543
20285 2 19.1696 62.9856 72.7471
15299 1 0.977129 66.2164 71.5829
20861 2 2.80397 66.1887 72.8021
21146 2 0.077186 67.7922 72.8315
15297 1 3.7064 67.8208 71.6125
20863 2 5.53342 67.7922 72.8315
15037 1 6.43337 66.2164 71.5829
15039 1 9.16264 67.8208 71.6125
20575 2 8.26021 66.1887 72.8021
14807 1 11.8896 66.2164 71.5829
20573 2 10.9897 67.7922 72.8315
14805 1 14.6189 67.8208 71.6125
20397 2 13.7164 66.1887 72.8021
14677 1 17.3458 66.2164 71.5829
20399 2 16.4459 67.7922 72.8315
14679 1 20.0751 67.8208 71.6125
20278 2 19.1727 66.1887 72.8021
15298 1 0.979315 69.4261 71.643
20819 2 2.8065 69.3968 72.8616
21147 2 0.0794181 71.0028 72.8923
15300 1 3.70835 71.0323 71.6738
20817 2 5.53566 71.0028 72.8923
15000 1 9.16459 71.0323 71.6738
15002 1 6.43555 69.4261 71.643
20574 2 8.26274 69.3968 72.8616
14806 1 11.8918 69.4261 71.643
20576 2 10.9919 71.0028 72.8923
14808 1 14.6208 71.0323 71.6738
20378 2 13.719 69.3968 72.8616
14666 1 17.348 69.4261 71.643
20376 2 16.4481 71.0028 72.8923
14664 1 20.0771 71.0323 71.6738
20277 2 19.1752 69.3968 72.8616
15261 1 0.981 72.6394 71.7048
20818 2 2.80836 72.6096 72.9231
15001 1 6.43724 72.6394 71.7048
20543 2 8.2646 72.6096 72.9231
14783 1 11.8935 72.6394 71.7048
20377 2 13.7208 72.6096 72.9231
14665 1 17.3497 72.6394 71.7048
20270 2 19.1771 72.6096 72.9231
21149 2 1.89288 74.2576 70.4199
21114 2 0.0812087 74.2176 72.9539
15260 1 0.981968 75.8562 71.7686
20783 2 2.81001 75.8268 72.9845
20822 2 4.62164 75.8668 70.4511
15259 1 3.70966 74.2474 71.7371
20820 2 5.53745 74.2176 72.9539
20821 2 7.34912 74.2576 70.4199
15003 1 9.1659 74.2474 71.7371
14967 1 6.43821 75.8562 71.7686
20542 2 8.26625 75.8268 72.9845
20547 2 10.0779 75.8668 70.4511
20541 2 10.9937 74.2176 72.9539
14782 1 11.8944 75.8562 71.7686
20580 2 12.8054 74.2576 70.4199
20381 2 15.5341 75.8668 70.4511
14781 1 14.6221 74.2474 71.7371
20358 2 13.7225 75.8268 72.9845
20380 2 18.2616 74.2576 70.4199
20379 2 16.4499 74.2176 72.9539
14654 1 17.3507 75.8562 71.7686
20272 2 20.9904 75.8668 70.4511
14667 1 20.0784 74.2474 71.7371
20269 2 19.1787 75.8268 72.9845
21116 2 1.89401 77.4768 70.4818
15231 1 0.982528 79.0761 71.8296
20782 2 2.81088 79.0479 73.0444
21115 2 0.0823792 77.4369 73.0148
20787 2 4.62249 79.0873 70.5119
15262 1 3.71042 77.4658 71.7994
20781 2 5.53862 77.4369 73.0148
20824 2 7.35025 77.4768 70.4818
14965 1 9.16665 77.4658 71.7994
14966 1 6.43877 79.0761 71.8296
20512 2 8.26712 79.0479 73.0444
20546 2 10.0787 79.0873 70.5119
14759 1 11.895 79.0761 71.8296
20544 2 10.9949 77.4369 73.0148
20362 2 15.535 79.0873 70.5119
20545 2 12.8065 77.4768 70.4818
14784 1 14.6229 77.4658 71.7994
20357 2 13.7234 79.0479 73.0444
20383 2 18.2627 77.4768 70.4818
14653 1 17.3512 79.0761 71.8296
20356 2 16.4511 77.4369 73.0148
20271 2 20.9912 79.0873 70.5119
14652 1 20.0791 77.4658 71.7994
20262 2 19.1796 79.0479 73.0444
21117 2 1.89462 80.6982 70.5411
15230 1 0.982777 82.2982 71.8874
20755 2 2.81136 82.2718 73.1016
21090 2 0.0830347 80.6595 73.0734
20786 2 4.62292 82.3096 70.5695
15229 1 3.7108 80.6869 71.859
20784 2 5.53927 80.6595 73.0734
20785 2 7.35086 80.6982 70.5411
14939 1 6.43902 82.2982 71.8874
14968 1 9.16704 80.6869 71.859
20511 2 8.26759 82.2718 73.1016
20516 2 10.0792 82.3096 70.5695
14758 1 11.8953 82.2982 71.8874
20510 2 10.9955 80.6595 73.0734
20361 2 15.5354 82.3096 70.5695
20548 2 12.8071 80.6982 70.5411
14757 1 14.6233 80.6869 71.859
20338 2 13.7238 82.2718 73.1016
20360 2 18.2633 80.6982 70.5411
14642 1 17.3515 82.2982 71.8874
20359 2 16.4517 80.6595 73.0734
20264 2 20.9916 82.3096 70.5695
14655 1 20.0795 80.6869 71.859
20261 2 19.1801 82.2718 73.1016
21092 2 1.89493 83.9213 70.5969
15209 1 0.982912 85.5218 71.9412
20754 2 2.81165 85.4977 73.1549
21091 2 0.0833939 83.8845 73.1288
20759 2 4.62315 85.5333 70.6232
15232 1 3.71097 83.9098 71.9148
20753 2 5.53963 83.8845 73.1288
20788 2 7.35117 83.9213 70.5969
14937 1 9.1672 83.9098 71.9148
14938 1 6.43915 85.5218 71.9412
20488 2 8.26789 85.4977 73.1549
20515 2 10.0794 85.5333 70.6232
14736 1 11.8954 85.5218 71.9412
20513 2 10.9959 83.8845 73.1288
20342 2 15.5356 85.5333 70.6232
20514 2 12.8074 83.9213 70.5969
14760 1 14.6234 83.9098 71.9148
20337 2 13.7241 85.4977 73.1549
20363 2 18.2636 83.9213 70.5969
14641 1 17.3516 85.5218 71.9412
20336 2 16.4521 83.8845 73.1288
20263 2 20.9919 85.5333 70.6232
14640 1 20.0797 83.9098 71.9148
20254 2 19.1804 85.4977 73.1549
21093 2 1.89513 87.1455 70.6483
21074 2 0.0836736 87.1111 73.18
20735 2 2.81195 88.7249 73.204
15208 1 0.983096 88.7466 71.9904
20758 2 4.62336 88.7578 70.6723
20756 2 5.53991 87.1111 73.18
15207 1 3.71111 87.1341 71.9664
20757 2 7.35137 87.1455 70.6483
20487 2 8.26819 88.7249 73.204
14919 1 6.43933 88.7466 71.9904
14940 1 9.16735 87.1341 71.9664
20492 2 10.0796 88.7578 70.6723
20486 2 10.9962 87.1111 73.18
14735 1 11.8956 88.7466 71.9904
20341 2 15.5358 88.7578 70.6723
20517 2 12.8076 87.1455 70.6483
20319 2 13.7244 88.7249 73.204
14734 1 14.6236 87.1341 71.9664
20340 2 18.2638 87.1455 70.6483
20339 2 16.4524 87.1111 73.18
14630 1 17.3518 88.7466 71.9904
20256 2 20.9921 88.7578 70.6723
20253 2 19.1807 88.7249 73.204
14643 1 20.0798 87.1341 71.9664
21076 2 1.89536 90.3702 70.6952
15195 1 0.983423 91.972 72.0349
15210 1 3.71136 90.3593 72.0133
20739 2 4.62363 91.9826 70.7168
20760 2 7.3516 90.3702 70.6952
14917 1 9.1676 90.3593 72.0133
14918 1 6.43966 91.972 72.0349
14720 1 11.8959 91.972 72.0349
20491 2 10.0799 91.9826 70.7168
20490 2 12.8078 90.3702 70.6952
14737 1 14.6238 90.3593 72.0133
20323 2 15.5361 91.9826 70.7168
20343 2 18.2641 90.3702 70.6952
14629 1 17.3521 91.972 72.0349
14628 1 20.0801 90.3593 72.0133
20255 2 20.9923 91.9826 70.7168
21077 2 1.8957 93.5951 70.7372
15193 1 3.71177 93.5849 72.0554
14920 1 9.16801 93.5849 72.0554
20737 2 7.35194 93.5951 70.7372
14718 1 14.6242 93.5849 72.0554
20493 2 12.8082 93.5951 70.7372
20321 2 18.2644 93.5951 70.7372
14631 1 20.0805 93.5849 72.0554
15194 1 0.983917 95.1979 72.0747
21068 2 1.89616 96.82 70.7745
20738 2 4.62404 95.2076 70.7564
15196 1 3.71234 96.8108 72.0928
14907 1 6.44016 95.1979 72.0747
14905 1 9.16858 96.8108 72.0928
20740 2 7.3524 96.82 70.7745
14719 1 11.8964 95.1979 72.0747
20476 2 10.0803 95.2076 70.7564
20322 2 15.5365 95.2076 70.7564
14721 1 14.6248 96.8108 72.0928
20474 2 12.8086 96.82 70.7745
14619 1 17.3526 95.1979 72.0747
20324 2 18.2649 96.82 70.7745
20248 2 20.9928 95.2076 70.7564
14617 1 20.0811 96.8108 72.0928
15189 1 0.984557 98.4238 72.1098
21069 2 1.89673 100.045 70.8072
15187 1 3.71304 100.037 72.1256
20727 2 4.62456 98.4324 70.7914
14906 1 6.4408 98.4238 72.1098
14908 1 9.16927 100.037 72.1256
20725 2 7.35297 100.045 70.8072
14712 1 11.897 98.4238 72.1098
20475 2 10.0808 98.4324 70.7914
14710 1 14.6255 100.037 72.1256
20311 2 15.537 98.4324 70.7914
20477 2 12.8092 100.045 70.8072
14618 1 17.3533 98.4238 72.1098
20309 2 18.2654 100.045 70.8072
14620 1 20.0818 100.037 72.1256
20247 2 20.9933 98.4324 70.7914
15386 1 1.85114 51.8173 74.0602
20944 2 3.69219 51.8068 75.1142
15104 1 7.30737 51.8173 74.0602
20633 2 9.14843 51.8068 75.1142
14849 1 12.7636 51.8173 74.0602
20432 2 14.6047 51.8068 75.1142
14696 1 18.2199 51.8173 74.0602
20289 2 20.0609 51.8068 75.1142
20902 2 0.964636 53.3976 75.1228
15387 1 1.85079 55.0068 74.0816
15070 1 4.57913 53.4118 74.0692
20900 2 3.69346 54.9892 75.1345
20634 2 6.42087 53.3976 75.1228
15068 1 7.30703 55.0068 74.0816
20635 2 9.1497 54.9892 75.1345
14850 1 10.0354 53.4118 74.0692
20414 2 11.8771 53.3976 75.1228
14686 1 15.4916 53.4118 74.0692
14851 1 12.7633 55.0068 74.0816
20412 2 14.6059 54.9892 75.1345
20290 2 17.3334 53.3976 75.1228
14684 1 18.2195 55.0068 74.0816
14608 1 20.9478 53.4118 74.0692
20291 2 20.0622 54.9892 75.1345
20901 2 0.966149 56.5818 75.1491
15340 1 1.85013 58.1994 74.1153
15069 1 4.57862 56.6027 74.097
20903 2 3.69515 58.1756 75.1665
20603 2 6.42239 56.5818 75.1491
15071 1 7.30637 58.1994 74.1153
20601 2 9.15139 58.1756 75.1665
14827 1 10.0349 56.6027 74.097
20413 2 11.8786 56.5818 75.1491
14685 1 15.4911 56.6027 74.097
14825 1 12.7626 58.1994 74.1153
20415 2 14.6076 58.1756 75.1665
20283 2 17.3349 56.5818 75.1491
14687 1 18.2188 58.1994 74.1153
14607 1 20.9473 56.6027 74.097
20281 2 20.0639 58.1756 75.1665
15341 1 1.84917 61.396 74.1595
20858 2 0.967937 59.7706 75.1865
15034 1 4.57781 59.7972 74.1362
20856 2 3.69696 61.367 75.2087
15032 1 7.30541 61.396 74.1595
20602 2 6.42418 59.7706 75.1865
20604 2 9.15319 61.367 75.2087
14826 1 10.034 59.7972 74.1362
20394 2 11.8804 59.7706 75.1865
14674 1 15.4903 59.7972 74.1362
14828 1 12.7616 61.396 74.1595
20392 2 14.6094 61.367 75.2087
14672 1 18.2179 61.396 74.1595
20282 2 17.3367 59.7706 75.1865
14606 1 20.9465 59.7972 74.1362
20284 2 20.0657 61.367 75.2087
15295 1 1.84793 64.5972 74.2118
20857 2 0.96969 62.9649 75.233
15033 1 4.57671 62.996 74.1848
20859 2 3.69858 64.5643 75.2589
15035 1 7.30417 64.5972 74.2118
20569 2 9.15482 64.5643 75.2589
20571 2 6.42593 62.9649 75.233
14803 1 10.0329 62.996 74.1848
20393 2 11.8822 62.9649 75.233
14673 1 15.4892 62.996 74.1848
14801 1 12.7604 64.5972 74.2118
20395 2 14.6111 64.5643 75.2589
14675 1 18.2166 64.5972 74.2118
20275 2 17.3384 62.9649 75.233
14605 1 20.9454 62.996 74.1848
20273 2 20.0673 64.5643 75.2589
15296 1 1.84644 67.8029 74.2697
20815 2 0.971144 66.1652 75.2863
14998 1 4.57533 66.1995 74.2402
20813 2 3.69982 67.7676 75.3149
14996 1 7.30268 67.8029 74.2697
20570 2 6.42738 66.1652 75.2863
20572 2 9.15606 67.7676 75.3149
14802 1 10.0316 66.1995 74.2402
20374 2 11.8836 66.1652 75.2863
14662 1 15.4878 66.1995 74.2402
14804 1 12.7589 67.8029 74.2697
20372 2 14.6123 67.7676 75.3149
14660 1 18.2152 67.8029 74.2697
20274 2 17.3399 66.1652 75.2863
14604 1 20.944 66.1995 74.2402
20276 2 20.0685 67.7676 75.3149
15257 1 1.84482 71.0128 74.3308
20814 2 0.97217 69.3714 75.3443
14997 1 4.57374 69.4073 74.3
20816 2 3.7007 70.9767 75.3742
14999 1 7.30106 71.0128 74.3308
20537 2 9.15694 70.9767 75.3742
20539 2 6.42841 69.3714 75.3443
14779 1 10.03 69.4073 74.3
20373 2 11.8846 69.3714 75.3443
14661 1 15.4862 69.4073 74.3
14777 1 12.7573 71.0128 74.3308
20375 2 14.6132 70.9767 75.3742
14663 1 18.2135 71.0128 74.3308
20267 2 17.3409 69.3714 75.3443
14603 1 20.9425 69.4073 74.3
20265 2 20.0694 70.9767 75.3742
20779 2 0.972862 72.5833 75.4045
14963 1 4.57222 72.619 74.3616
20777 2 3.70125 74.1911 75.4337
20538 2 6.4291 72.5833 75.4045
20540 2 9.15749 74.1911 75.4337
14778 1 10.0285 72.619 74.3616
20354 2 11.8853 72.5833 75.4045
14650 1 15.4847 72.619 74.3616
20352 2 14.6137 74.1911 75.4337
20266 2 17.3416 72.5833 75.4045
14602 1 20.9409 72.619 74.3616
20268 2 20.07 74.1911 75.4337
15258 1 1.843 74.2263 74.3924
20778 2 0.973228 75.8001 75.4631
14962 1 4.57014 75.8351 74.4229
14961 1 7.29923 74.2263 74.3924
20508 2 6.42947 75.8001 75.4631
14755 1 10.0264 75.8351 74.4229
20353 2 11.8857 75.8001 75.4631
14780 1 12.7555 74.2263 74.3924
14649 1 15.4826 75.8351 74.4229
14648 1 18.2117 74.2263 74.3924
20259 2 17.3419 75.8001 75.4631
14601 1 20.9389 75.8351 74.4229
15227 1 1.84115 77.4445 74.4531
20751 2 0.973242 79.0213 75.5214
14935 1 4.56842 79.0548 74.4828
20780 2 3.70139 77.4103 75.4925
14964 1 7.29739 77.4445 74.4531
20506 2 9.15762 77.4103 75.4925
20507 2 6.42948 79.0213 75.5214
14754 1 10.0247 79.0548 74.4828
20334 2 11.8857 79.0213 75.5214
14638 1 15.4809 79.0548 74.4828
14753 1 12.7536 77.4445 74.4531
20355 2 14.6139 77.4103 75.4925
14651 1 18.2099 77.4445 74.4531
20258 2 17.342 79.0213 75.5214
14600 1 20.9371 79.0548 74.4828
20257 2 20.0701 77.4103 75.4925
15228 1 1.83953 80.6656 74.5117
20750 2 0.97306 82.2459 75.5775
14934 1 4.56697 82.277 74.5399
20749 2 3.70127 80.6333 75.5498
14933 1 7.29577 80.6656 74.5117
20484 2 6.4293 82.2459 75.5775
20509 2 9.15751 80.6333 75.5498
14732 1 10.0232 82.277 74.5399
20333 2 11.8855 82.2459 75.5775
14637 1 15.4794 82.277 74.5399
14756 1 12.752 80.6656 74.5117
20332 2 14.6137 80.6333 75.5498
14636 1 18.2082 80.6656 74.5117
20251 2 17.3418 82.2459 75.5775
14599 1 20.9357 82.277 74.5399
20260 2 20.07 80.6333 75.5498
15205 1 1.83828 83.8888 74.567
20731 2 0.972947 85.4728 75.6302
14915 1 4.56595 85.501 74.5932
20752 2 3.7011 83.8591 75.6044
14936 1 7.29452 83.8888 74.567
20482 2 9.15734 83.8591 75.6044
20483 2 6.42919 85.4728 75.6302
14731 1 10.0222 85.501 74.5932
20315 2 11.8854 85.4728 75.6302
14626 1 15.4784 85.501 74.5932
14730 1 12.7508 83.8888 74.567
20335 2 14.6136 83.8591 75.6044
14639 1 18.207 83.8888 74.567
20250 2 17.3417 85.4728 75.6302
14598 1 20.9347 85.501 74.5932
20249 2 20.0698 83.8591 75.6044
20730 2 0.973071 88.7014 75.6789
15206 1 1.83753 87.1135 74.6182
20729 2 3.70109 87.087 75.6551
14914 1 4.56547 88.7263 74.6421
20485 2 9.15733 87.087 75.6551
20468 2 6.42931 88.7014 75.6789
14913 1 7.29377 87.1135 74.6182
20314 2 11.8855 88.7014 75.6789
14716 1 10.0217 88.7263 74.6421
20313 2 14.6136 87.087 75.6551
14733 1 12.75 87.1135 74.6182
14625 1 15.478 88.7263 74.6421
20243 2 17.3418 88.7014 75.6789
14624 1 18.2062 87.1135 74.6182
20252 2 20.0698 87.087 75.6551
14597 1 20.9342 88.7263 74.6421
21075 2 0.0840194 90.3388 73.2268
20734 2 2.81236 91.9528 73.2484
20719 2 0.973492 91.9309 75.723
15191 1 1.83732 90.3393 74.6649
20733 2 5.54026 90.3388 73.2268
20732 2 3.70136 90.3161 75.7015
14903 1 4.56552 91.9526 74.6865
20472 2 8.2686 91.9528 73.2484
20467 2 6.42973 91.9309 75.723
20466 2 9.1576 90.3161 75.7015
14916 1 7.29355 90.3393 74.6649
20489 2 10.9965 90.3388 73.2268
20303 2 11.886 91.9309 75.723
14715 1 10.0218 91.9526 74.6865
20318 2 13.7248 91.9528 73.2484
20316 2 14.6138 90.3161 75.7015
14714 1 12.7498 90.3393 74.6649
14615 1 15.478 91.9526 74.6865
20317 2 16.4527 90.3388 73.2268
20242 2 17.3422 91.9309 75.723
14627 1 18.206 90.3393 74.6649
20246 2 19.1811 91.9528 73.2484
20241 2 20.0701 90.3161 75.7015
14596 1 20.9342 91.9526 74.6865
21066 2 0.0844989 93.5668 73.2688
15192 1 1.8376 93.5661 74.7069
20736 2 5.54074 93.5668 73.2688
20717 2 3.70193 93.5459 75.7434
20469 2 9.15817 93.5459 75.7434
14901 1 7.29384 93.5661 74.7069
20470 2 10.997 93.5668 73.2688
20301 2 14.6144 93.5459 75.7434
14717 1 12.7501 93.5661 74.7069
20320 2 16.4532 93.5668 73.2688
14613 1 18.2063 93.5661 74.7069
20244 2 20.0706 93.5459 75.7434
20723 2 2.81291 95.1809 73.2881
21067 2 0.0851168 96.795 73.3062
20718 2 0.974185 95.161 75.7626
15185 1 1.83826 96.7936 74.7442
20721 2 5.54136 96.795 73.3062
14902 1 4.56601 95.1797 74.7261
20720 2 3.70273 96.7762 75.7807
20471 2 8.26915 95.1809 73.2881
20460 2 6.43042 95.161 75.7626
20458 2 9.15897 96.7762 75.7807
14904 1 7.2945 96.7936 74.7442
20473 2 10.9976 96.795 73.3062
20302 2 11.8867 95.161 75.7626
14708 1 10.0222 95.1797 74.7261
20307 2 13.7254 95.1809 73.2881
14614 1 15.4785 95.1797 74.7261
20304 2 14.6152 96.7762 75.7807
14706 1 12.7507 96.7936 74.7442
20305 2 16.4538 96.795 73.3062
20236 2 17.3429 95.161 75.7626
14616 1 18.207 96.7936 74.7442
20245 2 19.1816 95.1809 73.2881
14595 1 20.9347 95.1797 74.7261
20234 2 20.0714 96.7762 75.7807
20722 2 2.81359 98.4091 73.3232
21065 2 0.0858391 100.023 73.339
20715 2 0.975076 98.3914 75.7976
15186 1 1.83917 100.022 74.7769
20724 2 5.54208 100.023 73.339
20713 2 3.70369 100.007 75.8134
14899 1 4.56681 98.4075 74.7611
20464 2 8.26983 98.4091 73.3232
20461 2 9.15992 100.007 75.8134
20459 2 6.43131 98.3914 75.7976
14897 1 7.29541 100.022 74.7769
14707 1 10.0231 98.4075 74.7611
20462 2 10.9983 100.023 73.339
20299 2 11.8876 98.3914 75.7976
20306 2 13.7261 98.4091 73.3232
14611 1 15.4793 98.4075 74.7611
14709 1 12.7517 100.022 74.7769
20297 2 14.6162 100.007 75.8134
20308 2 16.4546 100.023 73.339
20235 2 17.3438 98.3914 75.7976
14609 1 18.2079 100.022 74.7769
20237 2 20.0724 100.007 75.8134
14594 1 20.9355 98.4075 74.7611
20239 2 19.1823 98.4091 73.3232
12527 2 2.71142 102.19 -3.46697
6110 1 4.51732 102.176 -2.40353
12430 2 8.16766 102.19 -3.46697
5983 1 9.97356 102.176 -2.40353
5758 1 15.4298 102.176 -2.40353
12239 2 13.6239 102.19 -3.46697
5440 1 20.886 102.176 -2.40353
11952 2 19.0801 102.19 -3.46697
12523 2 2.7098 105.323 -3.43997
6144 1 1.78798 103.744 -2.38943
12528 2 5.43869 103.757 -3.45297
6109 1 4.51498 105.311 -2.37633
12429 2 8.16604 105.323 -3.43997
6108 1 7.24422 103.744 -2.38943
12428 2 10.8949 103.757 -3.45297
5979 1 9.97122 105.311 -2.37633
5757 1 15.4275 105.311 -2.37633
5984 1 12.7005 103.744 -2.38943
12235 2 13.6223 105.323 -3.43997
5756 1 18.1567 103.744 -2.38943
12240 2 16.3512 103.757 -3.45297
12542 2 21.8074 103.757 -3.45297
5439 1 20.8837 105.311 -2.37633
11951 2 19.0785 105.323 -3.43997
12522 2 2.70847 108.456 -3.41701
6140 1 1.78586 106.879 -2.36426
12521 2 5.43722 106.89 -3.42798
6102 1 4.51308 108.446 -2.3532
12422 2 8.1647 108.456 -3.41701
6111 1 7.2421 106.879 -2.36426
12431 2 10.8935 106.89 -3.42798
5978 1 9.96932 108.446 -2.3532
5750 1 15.4256 108.446 -2.3532
5977 1 12.6983 106.879 -2.36426
12234 2 13.6209 108.456 -3.41701
5759 1 18.1546 106.879 -2.36426
12233 2 16.3497 106.89 -3.42798
12543 2 21.8059 106.89 -3.42798
5438 1 20.8818 108.446 -2.3532
11946 2 19.0772 108.456 -3.41701
12512 2 2.70744 111.588 -3.39816
6141 1 1.7842 110.013 -2.34317
12524 2 5.43603 110.022 -3.40707
6101 1 4.51172 111.58 -2.33425
12421 2 8.16367 111.588 -3.39816
6100 1 7.24044 110.013 -2.34317
12420 2 10.8923 110.022 -3.40707
5967 1 9.96796 111.58 -2.33425
5749 1 15.4242 111.58 -2.33425
5980 1 12.6967 110.013 -2.34317
12223 2 13.6199 111.588 -3.39816
5748 1 18.1529 110.013 -2.34317
12236 2 16.3485 110.022 -3.40707
12540 2 21.8047 110.022 -3.40707
5431 1 20.8804 111.58 -2.33425
11945 2 19.0762 111.588 -3.39816
12511 2 2.7067 114.72 -3.38343
6136 1 1.78314 113.147 -2.32639
12510 2 5.43515 113.154 -3.39028
6087 1 4.51088 114.713 -2.31955
6103 1 7.23937 113.147 -2.32639
12406 2 8.16294 114.72 -3.38343
12423 2 10.8914 113.154 -3.39028
5966 1 9.96712 114.713 -2.31955
5734 1 15.4234 114.713 -2.31955
5965 1 12.6956 113.147 -2.32639
12222 2 13.6192 114.72 -3.38343
5751 1 18.1519 113.147 -2.32639
12221 2 16.3476 113.154 -3.39028
12541 2 21.8039 113.154 -3.39028
5430 1 20.8796 114.713 -2.31955
11932 2 19.0754 114.72 -3.38343
12500 2 2.70622 117.852 -3.37284
6137 1 1.78246 116.28 -2.31373
12513 2 5.43455 116.286 -3.37762
6086 1 4.51034 117.847 -2.30895
6085 1 7.2387 116.28 -2.31373
12405 2 8.16246 117.852 -3.37284
5947 1 9.96658 117.847 -2.30895
12404 2 10.8908 116.286 -3.37762
5733 1 15.4228 117.847 -2.30895
5968 1 12.6949 116.28 -2.31373
12203 2 13.6187 117.852 -3.37284
5732 1 18.1512 116.28 -2.31373
12224 2 16.347 116.286 -3.37762
12538 2 21.8033 116.286 -3.37762
5415 1 20.8791 117.847 -2.30895
11931 2 19.0749 117.852 -3.37284
12499 2 2.70599 120.983 -3.36638
6132 1 1.78205 119.413 -2.30521
12498 2 5.4342 119.417 -3.36909
6071 1 4.51007 120.98 -2.3025
6088 1 7.23829 119.413 -2.30521
12383 2 8.16223 120.983 -3.36638
5946 1 9.96631 120.98 -2.3025
12407 2 10.8904 119.417 -3.36909
5710 1 15.4225 120.98 -2.3025
5945 1 12.6945 119.413 -2.30521
12202 2 13.6185 120.983 -3.36638
5735 1 18.1508 119.413 -2.30521
12201 2 16.3467 119.417 -3.36909
12539 2 21.8029 119.417 -3.36909
5414 1 20.8788 120.98 -2.3025
11910 2 19.0747 120.983 -3.36638
6133 1 1.78191 122.546 -2.30082
12488 2 2.70601 124.114 -3.36406
12501 2 5.43409 122.549 -3.3647
6070 1 4.51006 124.113 -2.30018
6069 1 7.23815 122.546 -2.30082
12382 2 8.16224 124.114 -3.36406
12381 2 10.8903 122.549 -3.3647
5920 1 9.96629 124.113 -2.30018
5948 1 12.6944 122.546 -2.30082
5709 1 15.4225 124.113 -2.30018
12175 2 13.6185 124.114 -3.36406
5708 1 18.1506 122.546 -2.30082
12204 2 16.3466 122.549 -3.3647
12536 2 21.8028 122.549 -3.3647
5391 1 20.8788 124.113 -2.30018
11909 2 19.0747 124.114 -3.36406
6128 1 1.78203 125.679 -2.30059
12487 2 2.70626 127.246 -3.3659
12486 2 5.43422 125.68 -3.36446
6055 1 4.5103 127.246 -2.30203
6072 1 7.23827 125.679 -2.30059
12359 2 8.1625 127.246 -3.3659
12384 2 10.8905 125.68 -3.36446
5919 1 9.96654 127.246 -2.30203
5918 1 12.6945 125.679 -2.30059
5678 1 15.4228 127.246 -2.30203
12174 2 13.6187 127.246 -3.3659
5711 1 18.1507 125.679 -2.30059
12173 2 16.3467 125.68 -3.36446
12537 2 21.8029 125.68 -3.36446
5390 1 20.879 127.246 -2.30203
11880 2 19.075 127.246 -3.3659
6129 1 1.78241 128.812 -2.30451
12489 2 5.4346 128.811 -3.36839
6053 1 7.23864 128.812 -2.30451
12357 2 10.8908 128.811 -3.36839
5921 1 12.6949 128.812 -2.30451
5676 1 18.1511 128.812 -2.30451
12176 2 16.3471 128.811 -3.36839
12534 2 21.8033 128.811 -3.36839
12476 2 2.70677 130.377 -3.37191
6124 1 1.78305 131.945 -2.3126
12474 2 5.43523 131.943 -3.37648
6054 1 4.51081 130.379 -2.30804
6056 1 7.23928 131.945 -2.3126
12358 2 8.16301 130.377 -3.37191
5892 1 9.96705 130.379 -2.30804
12360 2 10.8915 131.943 -3.37648
5677 1 15.4233 130.379 -2.30804
5890 1 12.6955 131.945 -2.3126
12140 2 13.6192 130.377 -3.37191
5679 1 18.1518 131.945 -2.3126
12138 2 16.3477 131.943 -3.37648
12535 2 21.8039 131.943 -3.37648
5359 1 20.8795 130.379 -2.30804
11879 2 19.0755 130.377 -3.37191
12475 2 2.70751 133.509 -3.38209
6125 1 1.78395 135.079 -2.32487
12477 2 5.4361 135.074 -3.38875
6039 1 4.51158 133.512 -2.31821
6037 1 7.24019 135.079 -2.32487
12335 2 8.16375 133.509 -3.38209
5891 1 9.96782 133.512 -2.31821
12333 2 10.8923 135.074 -3.38875
5639 1 15.4241 133.512 -2.31821
5893 1 12.6964 135.079 -2.32487
12139 2 13.62 133.509 -3.38209
5637 1 18.1527 135.079 -2.32487
12141 2 16.3486 135.074 -3.38875
12532 2 21.8048 135.074 -3.38875
5358 1 20.8803 133.512 -2.31821
11842 2 19.0762 133.509 -3.38209
12464 2 2.7085 136.64 -3.39645
6120 1 1.78512 138.212 -2.3413
12462 2 5.4372 138.206 -3.40519
6038 1 4.51262 136.645 -2.33256
6040 1 7.24136 138.212 -2.3413
12334 2 8.16474 136.64 -3.39645
5864 1 9.96886 136.645 -2.33256
12336 2 10.8934 138.206 -3.40519
5638 1 15.4251 136.645 -2.33256
5862 1 12.6976 138.212 -2.3413
12104 2 13.621 136.64 -3.39645
5640 1 18.1538 138.212 -2.3413
12102 2 16.3497 138.206 -3.40519
12533 2 21.8059 138.206 -3.40519
5319 1 20.8813 136.645 -2.33256
11841 2 19.0772 136.64 -3.39645
12463 2 2.70973 139.772 -3.41498
6121 1 1.78663 141.346 -2.36188
12465 2 5.43857 141.338 -3.4258
6023 1 4.51394 139.779 -2.35108
6021 1 7.24287 141.346 -2.36188
12311 2 8.16597 139.772 -3.41498
5863 1 9.97018 139.779 -2.35108
12309 2 10.8948 141.338 -3.4258
5599 1 15.4264 139.779 -2.35108
5865 1 12.6991 141.346 -2.36188
12103 2 13.6222 139.772 -3.41498
5597 1 18.1553 141.346 -2.36188
12105 2 16.351 141.338 -3.4258
12530 2 21.8073 141.338 -3.4258
5318 1 20.8827 139.779 -2.35108
11797 2 19.0784 139.772 -3.41498
12452 2 2.71125 142.904 -3.43768
6116 1 1.78876 144.48 -2.3868
12450 2 5.44025 144.47 -3.45059
6022 1 4.51572 142.913 -2.37378
6024 1 7.245 144.48 -2.3868
12310 2 8.16749 142.904 -3.43768
5836 1 9.97196 142.913 -2.37378
12312 2 10.8965 144.47 -3.45059
5598 1 15.4282 142.913 -2.37378
5834 1 12.7012 144.48 -2.3868
12068 2 13.6237 142.904 -3.43768
5600 1 18.1575 144.48 -2.3868
12066 2 16.3527 144.47 -3.45059
12531 2 21.809 144.47 -3.45059
5272 1 20.8844 142.913 -2.37378
11796 2 19.08 142.904 -3.43768
12451 2 2.71308 146.036 -3.46454
6117 1 1.79151 147.615 -2.41593
12453 2 5.44222 147.603 -3.47949
6008 1 4.51819 146.047 -2.40086
6006 1 7.24775 147.615 -2.41593
12288 2 8.16932 146.036 -3.46454
5835 1 9.97443 146.047 -2.40086
12286 2 10.8985 147.603 -3.47949
5560 1 15.4307 146.047 -2.40086
5837 1 12.704 147.615 -2.41593
12067 2 13.6256 146.036 -3.46454
5558 1 18.1602 147.615 -2.41593
12069 2 16.3547 147.603 -3.47949
12529 2 21.8109 147.603 -3.47949
5271 1 20.8869 146.047 -2.40086
11751 2 19.0818 146.036 -3.46454
12441 2 2.71519 149.17 -3.49544
2047 1 1.79478 150.751 -2.44908
6007 1 4.5212 149.182 -2.43201
8174 2 5.44446 150.737 -3.51236
12287 2 8.17143 149.17 -3.49544
2016 1 7.25102 150.751 -2.44908
5809 1 9.97744 149.182 -2.43201
8080 2 10.9007 150.737 -3.51236
5559 1 15.4337 149.182 -2.43201
12033 2 13.6277 149.17 -3.49544
1886 1 12.7073 150.751 -2.44908
1664 1 18.1635 150.751 -2.44908
7886 2 16.3569 150.737 -3.51236
5224 1 20.8899 149.182 -2.43201
11750 2 19.0839 149.17 -3.49544
8192 2 21.8132 150.737 -3.51236
12519 2 0.899451 102.171 -0.960138
6106 1 2.71495 102.158 0.26267
12414 2 4.53518 102.15 1.5945
12426 2 6.35569 102.171 -0.960138
5975 1 8.17118 102.158 0.26267
12231 2 11.8119 102.171 -0.960138
12227 2 9.99142 102.15 1.5945
5754 1 13.6274 102.158 0.26267
11939 2 15.4477 102.15 1.5945
11949 2 17.2682 102.171 -0.960138
5437 1 19.0837 102.158 0.26267
11584 2 20.9039 102.15 1.5945
12518 2 0.898187 105.307 -0.932875
12516 2 1.80634 103.72 1.60872
6098 1 2.71347 105.296 0.290017
12517 2 3.62691 103.739 -0.945998
6107 1 5.4423 103.727 0.276854
12413 2 4.53379 105.289 1.62192
12427 2 9.08315 103.739 -0.945998
12418 2 6.35443 105.307 -0.932875
5974 1 8.16971 105.296 0.290017
12412 2 7.26257 103.72 1.60872
12230 2 11.8107 105.307 -0.932875
5973 1 10.8985 103.727 0.276854
12215 2 9.99002 105.289 1.62192
12229 2 14.5394 103.739 -0.945998
5746 1 13.626 105.296 0.290017
11938 2 15.4463 105.289 1.62192
12228 2 12.7188 103.72 1.60872
11943 2 17.2669 105.307 -0.932875
5755 1 16.3548 103.727 0.276854
11937 2 18.1751 103.72 1.60872
11950 2 19.9956 103.739 -0.945998
6138 1 21.811 103.727 0.276854
5436 1 19.0822 105.296 0.290017
11583 2 20.9025 105.289 1.62192
12508 2 0.897121 108.443 -0.909707
12504 2 1.80505 106.859 1.63408
6097 1 2.71225 108.434 0.31325
12520 2 3.62575 106.875 -0.920776
6096 1 5.44095 106.865 0.302151
12398 2 4.53262 108.428 1.6452
12417 2 6.35336 108.443 -0.909707
12416 2 9.08199 106.875 -0.920776
5963 1 8.16849 108.434 0.31325
12415 2 7.26129 106.859 1.63408
12219 2 11.8096 108.443 -0.909707
5976 1 10.8972 106.865 0.302151
12214 2 9.98886 108.428 1.6452
12232 2 14.5382 106.875 -0.920776
5745 1 13.6247 108.434 0.31325
11925 2 15.4451 108.428 1.6452
12213 2 12.7175 106.859 1.63408
11942 2 17.2658 108.443 -0.909707
5744 1 16.3534 106.865 0.302151
11940 2 18.1738 106.859 1.63408
11941 2 19.9945 106.875 -0.920776
6139 1 21.8097 106.865 0.302151
5429 1 19.081 108.434 0.31325
11582 2 20.9013 108.428 1.6452
12507 2 0.896252 111.578 -0.890709
12505 2 1.804 109.997 1.65527
6083 1 2.71128 111.571 0.332288
12506 2 3.62478 110.01 -0.899682
6099 1 5.43985 110.002 0.323298
12397 2 4.53168 111.567 1.66429
12419 2 9.08102 110.01 -0.899682
12402 2 6.35249 111.578 -0.890709
5962 1 8.16751 111.571 0.332288
12396 2 7.26024 109.997 1.65527
12218 2 11.8087 111.578 -0.890709
5961 1 10.8961 110.002 0.323298
12195 2 9.98792 111.567 1.66429
12217 2 14.5373 110.01 -0.899682
5730 1 13.6238 111.571 0.332288
11924 2 15.4442 111.567 1.66429
12216 2 12.7165 109.997 1.65527
11929 2 17.265 111.578 -0.890709
5747 1 16.3523 110.002 0.323298
11923 2 18.1727 109.997 1.65527
6134 1 21.8086 110.002 0.323298
11944 2 19.9935 110.01 -0.899682
5428 1 19.08 111.571 0.332288
11575 2 20.9004 111.567 1.66429
12496 2 0.895588 114.713 -0.875901
12492 2 1.80318 113.136 1.67226
6082 1 2.71055 114.707 0.347112
12509 2 3.62401 113.145 -0.882785
6081 1 5.439 113.139 0.340223
12400 2 9.08025 113.145 -0.882785
12401 2 6.35183 114.713 -0.875901
5943 1 8.16679 114.707 0.347112
12399 2 7.25942 113.136 1.67226
12199 2 11.8081 114.713 -0.875901
5964 1 10.8952 113.139 0.340223
12220 2 14.5365 113.145 -0.882785
5729 1 13.623 114.707 0.347112
12193 2 12.7157 113.136 1.67226
11928 2 17.2643 114.713 -0.875901
5728 1 16.3515 113.139 0.340223
11926 2 18.1719 113.136 1.67226
6135 1 21.8077 113.139 0.340223
11927 2 19.9927 113.145 -0.882785
5413 1 19.0793 114.707 0.347112
12495 2 0.895153 117.848 -0.86525
6067 1 2.71008 117.844 0.357772
12494 2 3.62346 116.28 -0.870056
6084 1 5.43841 116.276 0.352962
12379 2 6.35139 117.848 -0.86525
12403 2 9.0797 116.28 -0.870056
5942 1 8.16632 117.844 0.357772
12198 2 11.8076 117.848 -0.86525
5941 1 10.8946 116.276 0.352962
12197 2 14.5359 116.28 -0.870056
5706 1 13.6226 117.844 0.357772
11907 2 17.2639 117.848 -0.86525
5731 1 16.3509 116.276 0.352962
11930 2 19.9922 116.28 -0.870056
6130 1 21.8071 116.276 0.352962
5412 1 19.0788 117.844 0.357772
12484 2 0.894953 120.982 -0.858755
6066 1 2.70986 120.98 0.364273
12497 2 3.62314 119.415 -0.861482
6065 1 5.43806 119.412 0.361543
12377 2 9.07938 119.415 -0.861482
12378 2 6.35119 120.982 -0.858755
5916 1 8.1661 120.98 0.364273
12171 2 11.8074 120.982 -0.858755
5944 1 10.8943 119.412 0.361543
12200 2 14.5356 119.415 -0.861482
5705 1 13.6223 120.98 0.364273
11906 2 17.2637 120.982 -0.858755
5704 1 16.3505 119.412 0.361543
11905 2 19.9919 119.415 -0.861482
6131 1 21.8068 119.412 0.361543
5389 1 19.0786 120.98 0.364273
12483 2 0.894989 124.117 -0.856424
6051 1 2.70988 124.116 0.366607
12482 2 3.62306 122.549 -0.857068
6068 1 5.43796 122.548 0.365961
12380 2 9.0793 122.549 -0.857068
12355 2 6.35123 124.117 -0.856424
5915 1 8.16612 124.116 0.366607
5914 1 10.8942 122.548 0.365961
12170 2 11.8075 124.117 -0.856424
12169 2 14.5355 122.549 -0.857068
5674 1 13.6224 124.116 0.366607
5707 1 16.3504 122.548 0.365961
11877 2 17.2637 124.117 -0.856424
11908 2 19.9918 122.549 -0.857068
6126 1 21.8067 122.548 0.365961
5388 1 19.0786 124.116 0.366607
12472 2 0.895261 127.251 -0.858266
6050 1 2.71015 127.252 0.364766
12485 2 3.62321 125.684 -0.856823
6049 1 5.4381 125.684 0.366209
12353 2 9.07945 125.684 -0.856823
12354 2 6.3515 127.251 -0.858266
5888 1 8.16638 127.252 0.364766
5917 1 10.8943 125.684 0.366209
12136 2 11.8077 127.251 -0.858266
12172 2 14.5357 125.684 -0.856823
5673 1 13.6226 127.252 0.364766
5672 1 16.3506 125.684 0.366209
11876 2 17.264 127.251 -0.858266
11875 2 19.9919 125.684 -0.856823
6127 1 21.8068 125.684 0.366209
5357 1 19.0789 127.252 0.364766
12470 2 3.6236 128.818 -0.860755
6052 1 5.43849 128.82 0.362277
12356 2 9.07984 128.818 -0.860755
5886 1 10.8947 128.82 0.362277
12134 2 14.5361 128.818 -0.860755
5675 1 16.351 128.82 0.362277
11878 2 19.9923 128.818 -0.860755
6122 1 21.8072 128.82 0.362277
12471 2 0.895767 130.386 -0.86429
6035 1 2.71066 130.388 0.35874
12473 2 3.62423 131.953 -0.868874
6033 1 5.43912 131.957 0.354155
12329 2 9.08047 131.953 -0.868874
12331 2 6.35201 130.386 -0.86429
5887 1 8.16689 130.388 0.35874
12135 2 11.8082 130.386 -0.86429
5889 1 10.8954 131.957 0.354155
12137 2 14.5367 131.953 -0.868874
5635 1 13.6231 130.388 0.35874
11839 2 17.2645 130.386 -0.86429
5633 1 16.3516 131.957 0.354155
11837 2 19.9929 131.953 -0.868874
6123 1 21.8078 131.957 0.354155
5356 1 19.0794 130.388 0.35874
12460 2 0.896506 133.52 -0.874507
6034 1 2.71141 133.525 0.34852
12458 2 3.62508 135.087 -0.88119
6036 1 5.44 135.093 0.341834
12330 2 6.35274 133.52 -0.874507
12332 2 9.08132 135.087 -0.88119
5860 1 8.16765 133.525 0.34852
12100 2 11.809 133.52 -0.874507
5858 1 10.8962 135.093 0.341834
12098 2 14.5376 135.087 -0.88119
5634 1 13.6239 133.525 0.34852
11838 2 17.2652 133.52 -0.874507
5636 1 16.3525 135.093 0.341834
11840 2 19.9938 135.087 -0.88119
6118 1 21.8087 135.093 0.341834
5317 1 19.0801 133.525 0.34852
12459 2 0.897473 136.655 -0.888923
6019 1 2.7124 136.661 0.334097
12461 2 3.62616 138.222 -0.897708
6017 1 5.44111 138.229 0.325307
12305 2 9.0824 138.222 -0.897708
12307 2 6.35371 136.655 -0.888923
5859 1 8.16864 136.661 0.334097
12099 2 11.81 136.655 -0.888923
5861 1 10.8973 138.229 0.325307
12101 2 14.5386 138.222 -0.897708
5595 1 13.6249 136.661 0.334097
11794 2 17.2662 136.655 -0.888923
5593 1 16.3536 138.229 0.325307
11792 2 19.9949 138.222 -0.897708
6119 1 21.8098 138.229 0.325307
5316 1 19.0811 136.661 0.334097
12448 2 0.89866 139.789 -0.907544
6018 1 2.71364 139.797 0.315464
12446 2 3.62745 141.357 -0.918438
6020 1 5.44247 141.366 0.304557
12306 2 6.3549 139.789 -0.907544
12308 2 9.08369 141.357 -0.918438
5832 1 8.16988 139.797 0.315464
12064 2 11.8111 139.789 -0.907544
5830 1 10.8987 141.366 0.304557
12062 2 14.5399 141.357 -0.918438
5594 1 13.6261 139.797 0.315464
11793 2 17.2674 139.789 -0.907544
5596 1 16.3549 141.366 0.304557
11795 2 19.9962 141.357 -0.918438
6114 1 21.8112 141.366 0.304557
5270 1 19.0824 139.797 0.315464
12447 2 0.90004 142.924 -0.930398
6004 1 2.71511 142.934 0.292576
12449 2 3.62891 144.492 -0.943424
6002 1 5.44406 144.503 0.279519
12282 2 9.08515 144.492 -0.943424
12284 2 6.35628 142.924 -0.930398
5831 1 8.17135 142.934 0.292576
12063 2 11.8125 142.924 -0.930398
5833 1 10.9003 144.503 0.279519
12065 2 14.5414 144.492 -0.943424
5556 1 13.6276 142.934 0.292576
11748 2 17.2688 142.924 -0.930398
5554 1 16.3565 144.503 0.279519
11746 2 19.9976 144.492 -0.943424
6115 1 21.8128 144.503 0.279519
5269 1 19.0838 142.934 0.292576
12440 2 0.901573 146.06 -0.957501
6003 1 2.71683 146.071 0.265403
12438 2 3.63051 147.628 -0.972609
6005 1 5.44588 147.64 0.250246
12283 2 6.35781 146.06 -0.957501
12285 2 9.08675 147.628 -0.972609
5808 1 8.17306 146.071 0.265403
12032 2 11.814 146.06 -0.957501
5806 1 10.9021 147.64 0.250246
12030 2 14.543 147.628 -0.972609
5555 1 13.6293 146.071 0.265403
11747 2 17.2703 146.06 -0.957501
5557 1 16.3584 147.64 0.250246
11749 2 19.9992 147.628 -0.972609
6113 1 21.8146 147.64 0.250246
5223 1 19.0855 146.071 0.265403
12439 2 0.903251 149.196 -0.988734
5993 1 2.71875 149.209 0.234067
8173 2 3.63225 150.765 -1.00586
2009 1 5.44791 150.779 0.21688
12265 2 6.35949 149.196 -0.988734
5807 1 8.17499 149.209 0.234067
8073 2 9.08849 150.765 -1.00586
12031 2 11.8157 149.196 -0.988734
1885 1 10.9041 150.779 0.21688
5521 1 13.6312 149.209 0.234067
7885 2 14.5447 150.765 -1.00586
11705 2 17.272 149.196 -0.988734
1657 1 16.3604 150.779 0.21688
5222 1 19.0875 149.209 0.234067
7596 2 20.001 150.765 -1.00586
2046 1 21.8166 150.779 0.21688
6094 1 0.896328 102.139 2.86095
12410 2 2.71473 102.131 4.16197
5971 1 6.35257 102.139 2.86095
12211 2 8.17097 102.131 4.16197
5742 1 11.8088 102.139 2.86095
11935 2 13.6272 102.131 4.16197
5434 1 17.265 102.139 2.86095
11581 2 19.0834 102.131 4.16197
6093 1 0.894835 105.28 2.88845
12394 2 2.71323 105.273 4.18946
6092 1 3.62367 103.71 2.87521
12411 2 5.44207 103.702 4.17623
5959 1 6.35107 105.28 2.88845
5972 1 9.07991 103.71 2.87521
12210 2 8.16947 105.273 4.18946
5741 1 11.8073 105.28 2.88845
12209 2 10.8983 103.702 4.17623
5740 1 14.5361 103.71 2.87521
11921 2 13.6257 105.273 4.18946
5426 1 17.2636 105.28 2.88845
11936 2 16.3545 103.702 4.17623
12502 2 21.8108 103.702 4.17623
5435 1 19.9924 103.71 2.87521
11580 2 19.0819 105.273 4.18946
6079 1 0.893593 108.42 2.91178
12393 2 2.71198 108.415 4.21279
6095 1 3.6223 106.85 2.90064
12392 2 5.4407 106.844 4.20164
5957 1 9.07854 106.85 2.90064
5958 1 6.34983 108.42 2.91178
12191 2 8.16822 108.415 4.21279
5726 1 11.8061 108.42 2.91178
12212 2 10.8969 106.844 4.20164
5743 1 14.5348 106.85 2.90064
11920 2 13.6245 108.415 4.21279
5425 1 17.2623 108.42 2.91178
11919 2 16.3532 106.844 4.20164
12503 2 21.8094 106.844 4.20164
5424 1 19.991 106.85 2.90064
11573 2 19.0807 108.415 4.21279
6078 1 0.8926 111.56 2.93092
12371 2 2.71099 111.556 4.23192
6077 1 3.62118 109.99 2.92188
12395 2 5.43957 109.986 4.22288
5939 1 6.34884 111.56 2.93092
5960 1 9.07742 109.99 2.92188
12190 2 8.16723 111.556 4.23192
5725 1 11.8051 111.56 2.93092
12189 2 10.8958 109.986 4.22288
5724 1 14.5337 109.99 2.92188
11899 2 13.6235 111.556 4.23192
5410 1 17.2613 111.56 2.93092
11922 2 16.3521 109.986 4.22288
12490 2 21.8083 109.986 4.22288
5427 1 19.9899 109.99 2.92188
11572 2 19.0797 111.556 4.23192
6063 1 0.89186 114.7 2.94583
12370 2 2.71025 114.698 4.24685
12375 2 4.53098 114.705 1.67917
6080 1 3.62032 113.13 2.9389
12369 2 5.43871 113.127 4.23991
5937 1 9.07656 113.13 2.9389
5938 1 6.3481 114.7 2.94583
12163 2 8.16649 114.698 4.24685
12194 2 9.98721 114.705 1.67917
5702 1 11.8043 114.7 2.94583
12192 2 10.8949 113.127 4.23991
11903 2 15.4435 114.705 1.67917
5727 1 14.5328 113.13 2.9389
11898 2 13.6227 114.698 4.24685
5409 1 17.2606 114.7 2.94583
11897 2 16.3512 113.127 4.23991
11574 2 20.8997 114.705 1.67917
12491 2 21.8074 113.127 4.23991
5408 1 19.989 113.13 2.9389
11557 2 19.079 114.698 4.24685
12493 2 1.80259 116.274 1.68505
6062 1 0.891373 117.84 2.95655
12347 2 2.70976 117.839 4.25758
12374 2 4.53051 117.843 1.68987
6061 1 3.6197 116.27 2.95171
12372 2 5.43809 116.269 4.25274
12373 2 7.25883 116.274 1.68505
5912 1 6.34761 117.84 2.95655
5940 1 9.07594 116.27 2.95171
12162 2 8.166 117.839 4.25758
12167 2 9.98675 117.843 1.68987
5701 1 11.8038 117.84 2.95655
12161 2 10.8943 116.269 4.25274
11902 2 15.443 117.843 1.68987
12196 2 12.7151 116.274 1.68505
5700 1 14.5322 116.27 2.95171
11869 2 13.6222 117.839 4.25758
11901 2 18.1713 116.274 1.68505
5386 1 17.2601 117.84 2.95655
11900 2 16.3506 116.269 4.25274
11559 2 20.8992 117.843 1.68987
12478 2 21.8068 116.269 4.25274
5411 1 19.9884 116.27 2.95171
11556 2 19.0785 117.839 4.25758
12480 2 1.80225 119.412 1.69366
6047 1 0.891139 120.979 2.96308
12346 2 2.70953 120.98 4.26413
12351 2 4.5303 120.981 1.6964
6064 1 3.61934 119.41 2.96034
12345 2 5.43773 119.41 4.26138
12376 2 7.25849 119.412 1.69366
5910 1 9.07558 119.41 2.96034
5911 1 6.34738 120.979 2.96308
12128 2 8.16577 120.98 4.26413
12166 2 9.98653 120.981 1.6964
5670 1 11.8036 120.979 2.96308
12164 2 10.894 119.41 4.26138
11873 2 15.4428 120.981 1.6964
12165 2 12.7147 119.412 1.69366
5703 1 14.5318 119.41 2.96034
11868 2 13.622 120.98 4.26413
11904 2 18.171 119.412 1.69366
5385 1 17.2599 120.979 2.96308
11867 2 16.3502 119.41 4.26138
11558 2 20.899 120.981 1.6964
12479 2 21.8064 119.41 4.26138
5384 1 19.9881 119.41 2.96034
11533 2 19.0782 120.98 4.26413
12481 2 1.80216 122.55 1.6981
12323 2 2.70954 124.121 4.26648
6046 1 0.891156 124.119 2.96543
12350 2 4.53032 124.119 1.69875
6045 1 3.61924 122.549 2.96478
12348 2 5.43762 122.551 4.26583
12349 2 7.2584 122.55 1.6981
5913 1 9.07547 122.549 2.96478
12127 2 8.16578 124.121 4.26648
5884 1 6.34739 124.119 2.96543
12132 2 9.98656 124.119 1.69875
12126 2 10.8939 122.551 4.26583
5669 1 11.8036 124.119 2.96543
12168 2 12.7146 122.55 1.6981
11872 2 15.4428 124.119 1.69875
5668 1 14.5317 122.549 2.96478
11831 2 13.622 124.121 4.26648
11871 2 18.1709 122.55 1.6981
11870 2 16.3501 122.551 4.26583
5354 1 17.2599 124.119 2.96543
11535 2 20.899 124.119 1.69875
12466 2 21.8063 122.551 4.26583
5387 1 19.988 122.549 2.96478
11532 2 19.0783 124.121 4.26648
12468 2 1.80231 125.687 1.69835
6031 1 0.891423 127.258 2.9636
12322 2 2.70981 127.262 4.26465
6048 1 3.61938 125.689 2.96504
12321 2 5.43776 125.692 4.26609
12327 2 4.53059 127.256 1.69691
12352 2 7.25855 125.687 1.69835
5882 1 9.07562 125.689 2.96504
5883 1 6.34766 127.258 2.9636
12092 2 8.16605 127.262 4.26465
12129 2 10.894 125.692 4.26609
12131 2 9.98683 127.256 1.69691
5631 1 11.8039 127.258 2.9636
12130 2 12.7148 125.687 1.69835
5671 1 14.5319 125.689 2.96504
11835 2 15.4431 127.256 1.69691
11830 2 13.6223 127.262 4.26465
11874 2 18.171 125.687 1.69835
11829 2 16.3502 125.692 4.26609
5353 1 17.2601 127.258 2.9636
12467 2 21.8065 125.692 4.26609
5352 1 19.9881 125.689 2.96504
11534 2 20.8993 127.256 1.69691
11501 2 19.0785 127.262 4.26465
12469 2 1.8027 128.825 1.69442
6029 1 3.61977 128.828 2.96111
12324 2 5.43816 128.833 4.26216
12325 2 7.25894 128.825 1.69442
5885 1 9.07601 128.828 2.96111
12090 2 10.8944 128.833 4.26216
12133 2 12.7152 128.825 1.69442
5629 1 14.5322 128.828 2.96111
11833 2 18.1714 128.825 1.69442
11832 2 16.3506 128.833 4.26216
12454 2 21.8069 128.833 4.26216
5355 1 19.9885 128.828 2.96111
12456 2 1.80333 131.963 1.68628
6030 1 0.891939 130.398 2.95757
12299 2 2.71033 130.403 4.25862
12326 2 4.53111 130.394 1.69087
6032 1 3.62041 131.968 2.95297
12297 2 5.4388 131.974 4.25402
12328 2 7.25957 131.963 1.68628
5854 1 9.07665 131.968 2.95297
5856 1 6.34818 130.398 2.95757
12091 2 8.16656 130.403 4.25862
12096 2 9.98734 130.394 1.69087
5630 1 11.8044 130.398 2.95757
12093 2 10.895 131.974 4.25402
11834 2 15.4436 130.394 1.69087
12094 2 12.7158 131.963 1.68628
5632 1 14.5329 131.968 2.95297
11786 2 13.6228 130.403 4.25862
11836 2 18.1721 131.963 1.68628
5314 1 17.2607 130.398 2.95757
11784 2 16.3513 131.974 4.25402
11503 2 20.8998 130.394 1.69087
12455 2 21.8075 131.974 4.25402
5312 1 19.9891 131.968 2.95297
11500 2 19.079 130.403 4.25862
12457 2 1.80421 135.101 1.67393
6015 1 0.892705 133.537 2.94732
12298 2 2.71109 133.544 4.24837
12303 2 4.53186 133.532 1.68063
6013 1 3.6213 135.107 2.94061
12300 2 5.43969 135.115 4.24166
12301 2 7.26045 135.101 1.67393
5855 1 6.34894 133.537 2.94732
5857 1 9.07754 135.107 2.94061
12056 2 8.16733 133.544 4.24837
12095 2 9.9881 133.532 1.68063
5591 1 11.8052 133.537 2.94732
12054 2 10.8959 135.115 4.24166
11790 2 15.4443 133.532 1.68063
12097 2 12.7167 135.101 1.67393
5589 1 14.5338 135.107 2.94061
11785 2 13.6236 133.544 4.24837
11788 2 18.1729 135.101 1.67393
5313 1 17.2614 133.537 2.94732
11787 2 16.3522 135.115 4.24166
11502 2 20.9006 133.532 1.68063
12442 2 21.8084 135.115 4.24166
5315 1 19.99 135.107 2.94061
11461 2 19.0798 133.544 4.24837
12444 2 1.80533 138.239 1.65735
6014 1 0.893721 136.677 2.93285
12276 2 2.71211 136.685 4.23389
12302 2 4.53286 136.67 1.66617
6016 1 3.62244 138.247 2.92402
12274 2 5.44083 138.256 4.22505
12304 2 7.26156 138.239 1.65735
5826 1 9.07868 138.247 2.92402
5828 1 6.34996 136.677 2.93285
12055 2 8.16835 136.685 4.23389
12060 2 9.9891 136.67 1.66617
5590 1 11.8062 136.677 2.93285
12057 2 10.8971 138.256 4.22505
11789 2 15.4453 136.67 1.66617
12058 2 12.7178 138.239 1.65735
5592 1 14.5349 138.247 2.92402
11740 2 13.6246 136.685 4.23389
11791 2 18.174 138.239 1.65735
5267 1 17.2624 136.677 2.93285
11738 2 16.3533 138.256 4.22505
11463 2 20.9016 136.67 1.66617
12443 2 21.8095 138.256 4.22505
5265 1 19.9912 138.247 2.92402
11460 2 19.0808 136.685 4.23389
12445 2 1.80667 141.377 1.63652
6000 1 0.894986 139.816 2.91412
12275 2 2.71338 139.827 4.21515
12280 2 4.53409 139.808 1.64747
5998 1 3.62383 141.386 2.90315
12277 2 5.44222 141.397 4.20417
12278 2 7.26291 141.377 1.63652
5827 1 6.35122 139.816 2.91412
5829 1 9.08007 141.386 2.90315
12024 2 8.16961 139.827 4.21515
12059 2 9.99033 139.808 1.64747
5552 1 11.8075 139.816 2.91412
12022 2 10.8985 141.397 4.20417
11744 2 15.4466 139.808 1.64747
12061 2 12.7191 141.377 1.63652
5550 1 14.5363 141.386 2.90315
11739 2 13.6259 139.827 4.21515
11742 2 18.1754 141.377 1.63652
5266 1 17.2637 139.816 2.91412
11741 2 16.3547 141.397 4.20417
11462 2 20.9028 139.808 1.64747
12434 2 21.8109 141.397 4.20417
5268 1 19.9925 141.386 2.90315
11414 2 19.0821 139.827 4.21515
12436 2 1.80823 144.515 1.61141
5999 1 0.896492 142.956 2.89111
12260 2 2.71489 142.968 4.19213
12279 2 4.53554 142.946 1.6245
6001 1 3.62545 144.526 2.878
12258 2 5.44385 144.539 4.17901
12281 2 7.26446 144.515 1.61141
5802 1 9.08169 144.526 2.878
5804 1 6.35273 142.956 2.89111
12023 2 8.17113 142.968 4.19213
12028 2 9.99178 142.946 1.6245
5551 1 11.809 142.956 2.89111
12025 2 10.9001 144.539 4.17901
11743 2 15.448 142.946 1.6245
12026 2 12.7207 144.515 1.61141
5553 1 14.5379 144.526 2.878
11700 2 13.6274 142.968 4.19213
11745 2 18.1769 144.515 1.61141
5220 1 17.2652 142.956 2.89111
11698 2 16.3563 144.539 4.17901
11416 2 20.9043 142.946 1.6245
12435 2 21.8126 144.539 4.17901
5218 1 19.9942 144.526 2.878
11413 2 19.0836 142.968 4.19213
12437 2 1.80997 147.654 1.58207
5992 1 0.898229 146.096 2.86381
12259 2 2.71664 146.109 4.16484
12264 2 4.5372 146.084 1.59726
5990 1 3.6273 147.667 2.84858
12261 2 5.44571 147.68 4.14961
12262 2 7.26621 147.654 1.58207
5803 1 6.35447 146.096 2.86381
5805 1 9.08354 147.667 2.84858
12000 2 8.17287 146.109 4.16484
12027 2 9.99343 146.084 1.59726
5520 1 11.8107 146.096 2.86381
11998 2 10.902 147.68 4.14961
11704 2 15.4497 146.084 1.59726
12029 2 12.7225 147.654 1.58207
5518 1 14.5398 147.667 2.84858
11699 2 13.6291 146.109 4.16484
11702 2 18.1787 147.654 1.58207
5219 1 17.2669 146.096 2.86381
11701 2 16.3582 147.68 4.14961
11415 2 20.9059 146.084 1.59726
12433 2 21.8144 147.68 4.14961
5221 1 19.996 147.667 2.84858
11367 2 19.0854 146.109 4.16484
5991 1 0.900182 149.237 2.8323
12249 2 2.71861 149.251 4.13334
8163 2 1.8119 150.793 1.54861
12263 2 4.53904 149.224 1.56585
2008 1 3.62935 150.808 2.81499
8057 2 5.44779 150.822 4.11604
5785 1 6.35642 149.237 2.8323
11999 2 8.17485 149.251 4.13334
8072 2 7.26814 150.793 1.54861
1874 1 9.08559 150.808 2.81499
12001 2 9.99527 149.224 1.56585
5519 1 11.8127 149.237 2.8323
7873 2 10.904 150.822 4.11604
11703 2 15.4515 149.224 1.56585
11665 2 13.6311 149.251 4.13334
7874 2 12.7244 150.793 1.54861
1656 1 14.5418 150.808 2.81499
5177 1 17.2689 149.237 2.8323
7595 2 18.1806 150.793 1.54861
7582 2 16.3603 150.822 4.11604
11368 2 20.9078 149.224 1.56585
11366 2 19.0873 149.251 4.13334
8162 2 21.8165 150.822 4.11604
1337 1 19.9981 150.808 2.81499
12390 2 0.894473 102.113 6.73381
5955 1 4.53253 102.121 5.44314
12207 2 6.35071 102.113 6.73381
5738 1 9.98877 102.121 5.44314
11917 2 11.8069 102.113 6.73381
5422 1 15.445 102.121 5.44314
11578 2 17.2632 102.113 6.73381
5056 1 20.9012 102.121 5.44314
6091 1 1.8036 103.693 5.45744
12389 2 0.892903 105.258 6.76129
5954 1 4.53097 105.265 5.4707
12388 2 3.62177 103.686 6.74807
5953 1 7.25983 103.693 5.45744
12187 2 6.34914 105.258 6.76129
12208 2 9.07801 103.686 6.74807
5722 1 9.9872 105.265 5.4707
11916 2 11.8054 105.258 6.76129
5421 1 15.4434 105.265 5.4707
5739 1 12.7161 103.693 5.45744
11915 2 14.5342 103.686 6.74807
5420 1 18.1723 103.693 5.45744
11570 2 17.2616 105.258 6.76129
5055 1 20.8997 105.265 5.4707
11579 2 19.9905 103.686 6.74807
6075 1 1.80217 106.837 5.48291
12367 2 0.891612 108.403 6.7846
5935 1 4.52967 108.408 5.49407
12391 2 3.62034 106.83 6.77347
5956 1 7.2584 106.837 5.48291
12185 2 9.07658 106.83 6.77347
12186 2 6.34785 108.403 6.7846
5721 1 9.98591 108.408 5.49407
11895 2 11.8041 108.403 6.7846
5406 1 15.4421 108.408 5.49407
5720 1 12.7146 106.837 5.48291
11918 2 14.5328 106.83 6.77347
5423 1 18.1709 106.837 5.48291
11569 2 17.2603 108.403 6.7846
5054 1 20.8984 108.408 5.49407
11568 2 19.9891 106.83 6.77347
6076 1 1.801 109.98 5.50418
12366 2 0.890592 111.547 6.80372
5934 1 4.52864 111.552 5.51324
12365 2 3.61919 109.975 6.79469
5933 1 7.25724 109.98 5.50418
12159 2 6.34683 111.547 6.80372
12188 2 9.07543 109.975 6.79469
5698 1 9.98488 111.552 5.51324
11894 2 11.8031 111.547 6.80372
5405 1 15.4411 111.552 5.51324
5723 1 12.7135 109.98 5.50418
11893 2 14.5317 109.975 6.79469
5404 1 18.1697 109.98 5.50418
11554 2 17.2593 111.547 6.80372
5047 1 20.8974 111.552 5.51324
11571 2 19.9879 109.975 6.79469
6059 1 1.80011 113.123 5.52124
12343 2 0.889836 114.692 6.81865
5908 1 4.52788 114.695 5.52819
12368 2 3.6183 113.12 6.81171
5936 1 7.25635 113.123 5.52124
12157 2 9.07454 113.12 6.81171
12158 2 6.34607 114.692 6.81865
5697 1 9.98412 114.695 5.52819
11865 2 11.8023 114.692 6.81865
5382 1 15.4404 114.695 5.52819
5696 1 12.7126 113.123 5.52124
11896 2 14.5308 113.12 6.81171
5407 1 18.1688 113.123 5.52124
11553 2 17.2586 114.692 6.81865
5046 1 20.8966 114.695 5.52819
11552 2 19.987 113.12 6.81171
6060 1 1.79948 116.266 5.53408
12342 2 0.889339 117.836 6.82938
5907 1 4.52738 117.837 5.53893
12341 2 3.61767 116.264 6.82454
5906 1 7.25572 116.266 5.53408
12124 2 6.34558 117.836 6.82938
12160 2 9.07391 116.264 6.82454
5666 1 9.98362 117.837 5.53893
11864 2 11.8018 117.836 6.82938
5381 1 15.4399 117.837 5.53893
5699 1 12.712 116.266 5.53408
11863 2 14.5302 116.264 6.82454
5380 1 18.1682 116.266 5.53408
11530 2 17.2581 117.836 6.82938
5031 1 20.8961 117.837 5.53893
11555 2 19.9864 116.264 6.82454
6043 1 1.7991 119.409 5.54273
12319 2 0.889097 120.981 6.83593
5880 1 4.52713 120.98 5.54548
12344 2 3.61731 119.409 6.83318
5909 1 7.25534 119.409 5.54273
12122 2 9.07354 119.409 6.83318
12123 2 6.34534 120.981 6.83593
5665 1 9.98337 120.98 5.54548
11827 2 11.8016 120.981 6.83593
5350 1 15.4396 120.98 5.54548
5664 1 12.7116 119.409 5.54273
11866 2 14.5298 119.409 6.83318
5383 1 18.1678 119.409 5.54273
11529 2 17.2578 120.981 6.83593
5030 1 20.8958 120.98 5.54548
11528 2 19.986 119.409 6.83318
6044 1 1.79899 122.552 5.54719
12318 2 0.889107 124.125 6.83829
5879 1 4.52714 124.123 5.54785
12317 2 3.61719 122.553 6.83763
5878 1 7.25523 122.552 5.54719
12088 2 6.34535 124.125 6.83829
12125 2 9.07343 122.553 6.83763
5627 1 9.98338 124.123 5.54785
11826 2 11.8016 124.125 6.83829
5349 1 15.4396 124.123 5.54785
5667 1 12.7115 122.552 5.54719
11825 2 14.5297 122.553 6.83763
5348 1 18.1677 122.552 5.54719
11498 2 17.2578 124.125 6.83829
5007 1 20.8959 124.123 5.54785
11531 2 19.9859 122.553 6.83763
6027 1 1.79913 125.694 5.54746
12295 2 0.889366 127.269 6.83647
12320 2 3.61732 125.697 6.8379
5852 1 4.52741 127.266 5.54602
5881 1 7.25536 125.694 5.54746
12086 2 9.07356 125.697 6.8379
12087 2 6.3456 127.269 6.83647
5626 1 9.98365 127.266 5.54602
11782 2 11.8018 127.269 6.83647
5625 1 12.7116 125.694 5.54746
11828 2 14.5298 125.697 6.8379
5310 1 15.4399 127.266 5.54602
5351 1 18.1678 125.694 5.54746
11497 2 17.2581 127.269 6.83647
11496 2 19.986 125.697 6.8379
5006 1 20.8961 127.266 5.54602
6028 1 1.79951 128.837 5.54353
12293 2 3.61771 128.841 6.83399
5850 1 7.25575 128.837 5.54353
12089 2 9.07395 128.841 6.83399
5628 1 12.712 128.837 5.54353
11780 2 14.5302 128.841 6.83399
5308 1 18.1682 128.837 5.54353
11499 2 19.9864 128.841 6.83399
6011 1 1.80016 131.98 5.5354
12294 2 0.889874 130.414 6.83045
5851 1 4.52792 130.408 5.53999
12296 2 3.61834 131.986 6.82587
5853 1 7.2564 131.98 5.5354
12050 2 9.07458 131.986 6.82587
12052 2 6.34611 130.414 6.83045
5587 1 9.98416 130.408 5.53999
11781 2 11.8024 130.414 6.83045
5309 1 15.4404 130.408 5.53999
5585 1 12.7126 131.98 5.5354
11783 2 14.5308 131.986 6.82587
5311 1 18.1689 131.98 5.5354
11458 2 17.2586 130.414 6.83045
4975 1 20.8966 130.408 5.53999
11456 2 19.9871 131.986 6.82587
6012 1 1.80106 135.122 5.52303
12272 2 0.890635 133.558 6.82022
5824 1 4.52869 133.551 5.52975
12270 2 3.61923 135.13 6.81352
5822 1 7.2573 135.122 5.52303
12051 2 6.34687 133.558 6.82022
12053 2 9.07547 135.13 6.81352
5586 1 9.98493 133.551 5.52975
11736 2 11.8031 133.558 6.82022
5263 1 15.4412 133.551 5.52975
5588 1 12.7135 135.122 5.52303
11734 2 14.5317 135.13 6.81352
5261 1 18.1698 135.122 5.52303
11457 2 17.2594 133.558 6.82022
4974 1 20.8974 133.551 5.52975
11459 2 19.9879 135.13 6.81352
5996 1 1.80222 138.265 5.50642
12271 2 0.891652 136.702 6.80576
5823 1 4.52972 136.694 5.51526
12273 2 3.62038 138.274 6.79693
5825 1 7.25846 138.265 5.50642
12018 2 9.07662 138.274 6.79693
12020 2 6.34789 136.702 6.80576
5548 1 9.98596 136.694 5.51526
11735 2 11.8041 136.702 6.80576
5262 1 15.4422 136.694 5.51526
5546 1 12.7147 138.265 5.50642
11737 2 14.5329 138.274 6.79693
5264 1 18.1709 138.265 5.50642
11411 2 17.2604 136.702 6.80576
4935 1 20.8984 136.694 5.51526
11409 2 19.9891 138.274 6.79693
5997 1 1.80363 141.408 5.48552
12256 2 0.892928 139.846 6.78704
5800 1 4.53101 139.836 5.4965
12254 2 3.62178 141.418 6.77608
5798 1 7.25987 141.408 5.48552
12019 2 6.34917 139.846 6.78704
12021 2 9.07802 141.418 6.77608
5547 1 9.98725 139.836 5.4965
11696 2 11.8054 139.846 6.78704
5216 1 15.4435 139.836 5.4965
5549 1 12.7161 141.408 5.48552
11694 2 14.5343 141.418 6.77608
5214 1 18.1723 141.408 5.48552
11410 2 17.2616 139.846 6.78704
4934 1 20.8997 139.836 5.4965
11412 2 19.9905 141.418 6.77608
5988 1 1.80531 144.551 5.46032
12255 2 0.894463 142.99 6.76405
5799 1 4.53256 142.979 5.47346
12257 2 3.62345 144.562 6.75096
5801 1 7.26155 144.551 5.46032
11994 2 9.07969 144.562 6.75096
11996 2 6.3507 142.99 6.76405
5516 1 9.9888 142.979 5.47346
11695 2 11.8069 142.99 6.76405
5215 1 15.445 142.979 5.47346
5514 1 12.7178 144.551 5.46032
11697 2 14.5359 144.562 6.75096
5217 1 18.174 144.551 5.46032
11364 2 17.2632 142.99 6.76405
4889 1 20.9013 142.979 5.47346
11362 2 19.9922 144.562 6.75096
5989 1 1.80723 147.694 5.43086
12248 2 0.896257 146.135 6.7368
5784 1 4.53436 146.122 5.44612
12246 2 3.62537 147.707 6.72159
5782 1 7.26347 147.694 5.43086
11995 2 6.3525 146.135 6.7368
11997 2 9.08161 147.707 6.72159
5515 1 9.9906 146.122 5.44612
11664 2 11.8087 146.135 6.7368
5176 1 15.4468 146.122 5.44612
5517 1 12.7197 147.694 5.43086
11662 2 14.5378 147.707 6.72159
5174 1 18.1759 147.694 5.43086
11363 2 17.265 146.135 6.7368
4888 1 20.9031 146.122 5.44612
11365 2 19.9941 147.707 6.72159
12247 2 0.898305 149.279 6.70533
1994 1 1.8094 150.837 5.39719
5783 1 4.53641 149.265 5.41454
8056 2 3.62754 150.851 6.68804
11977 2 6.35454 149.279 6.70533
1873 1 7.26564 150.837 5.39719
7854 2 9.08378 150.851 6.68804
5489 1 9.99264 149.265 5.41454
11663 2 11.8108 149.279 6.70533
5175 1 15.4489 149.265 5.41454
1641 1 12.7219 150.837 5.39719
7581 2 14.54 150.851 6.68804
11321 2 17.267 149.279 6.70533
1336 1 18.1781 150.837 5.39719
4843 1 20.9051 149.265 5.41454
7225 2 19.9963 150.851 6.68804
5951 1 2.71237 102.104 8.01987
12387 2 1.80162 103.67 9.32117
12183 2 4.53056 102.096 9.30699
5718 1 8.16861 102.104 8.01987
12181 2 7.25785 103.67 9.32117
11913 2 9.98679 102.096 9.30699
5418 1 13.6248 102.104 8.01987
11566 2 15.443 102.096 9.30699
11914 2 12.7141 103.67 9.32117
11564 2 18.1703 103.67 9.32117
5053 1 19.0811 102.104 8.01987
11200 2 20.8993 102.096 9.30699
5931 1 2.71077 105.25 8.04737
5952 1 5.43966 103.677 8.03414
12182 2 4.52899 105.243 9.33433
5717 1 8.16701 105.25 8.04737
5716 1 10.8959 103.677 8.03414
11891 2 9.98523 105.243 9.33433
5402 1 13.6233 105.25 8.04737
11565 2 15.4415 105.243 9.33433
5419 1 16.3521 103.677 8.03414
6073 1 21.8084 103.677 8.03414
5052 1 19.0795 105.25 8.04737
11199 2 20.8977 105.243 9.33433
5930 1 2.70946 108.397 8.07069
12363 2 1.80019 106.817 9.34645
5929 1 5.4382 106.824 8.05956
12155 2 4.52771 108.391 9.35753
5694 1 8.1657 108.397 8.07069
12184 2 7.25643 106.817 9.34645
5719 1 10.8944 106.824 8.05956
11890 2 9.98395 108.391 9.35753
5401 1 13.6219 108.397 8.07069
11550 2 15.4402 108.391 9.35753
11889 2 12.7127 106.817 9.34645
5400 1 16.3507 106.824 8.05956
11567 2 18.1689 106.817 9.34645
6074 1 21.8069 106.824 8.05956
5045 1 19.0782 108.397 8.07069
11198 2 20.8964 108.391 9.35753
5904 1 2.70843 111.543 8.08981
12364 2 1.79905 109.965 9.36756
5932 1 5.43703 109.97 8.08078
12154 2 4.5267 111.538 9.37656
5693 1 8.16467 111.543 8.08981
12153 2 7.25529 109.965 9.36756
5692 1 10.8933 109.97 8.08078
11861 2 9.98294 111.538 9.37656
5378 1 13.6209 111.543 8.08981
11549 2 15.4392 111.538 9.37656
11892 2 12.7115 109.965 9.36756
5403 1 16.3495 109.97 8.08078
11548 2 18.1678 109.965 9.36756
6057 1 21.8057 109.97 8.08078
5044 1 19.0771 111.543 8.08981
11191 2 20.8954 111.538 9.37656
5903 1 2.70767 114.689 8.10473
12339 2 1.79818 113.112 9.38451
5902 1 5.43614 113.116 8.0978
12120 2 4.52596 114.686 9.39143
5662 1 8.16391 114.689 8.10473
12156 2 7.25442 113.112 9.38451
5695 1 10.8924 113.116 8.0978
11860 2 9.9822 114.686 9.39143
5377 1 13.6201 114.689 8.10473
11526 2 15.4384 114.686 9.39143
11859 2 12.7107 113.112 9.38451
5376 1 16.3486 113.116 8.0978
11551 2 18.1669 113.112 9.38451
6058 1 21.8049 113.116 8.0978
5029 1 19.0764 114.689 8.10473
11190 2 20.8947 114.686 9.39143
5876 1 2.70717 117.835 8.11547
12340 2 1.79757 116.26 9.39729
5905 1 5.4355 116.262 8.11062
12119 2 4.52547 117.834 9.40212
5661 1 8.1634 117.835 8.11547
12118 2 7.2538 116.26 9.39729
5660 1 10.8917 116.262 8.11062
11823 2 9.98171 117.834 9.40212
5346 1 13.6196 117.835 8.11547
11525 2 15.438 117.834 9.40212
11862 2 12.71 116.26 9.39729
5379 1 16.348 116.262 8.11062
11524 2 18.1663 116.26 9.39729
6041 1 21.8042 116.262 8.11062
5028 1 19.0759 117.835 8.11547
11175 2 20.8942 117.834 9.40212
5875 1 2.70692 120.981 8.12202
12315 2 1.7972 119.407 9.40591
5874 1 5.43513 119.408 8.11926
12084 2 4.52524 120.981 9.40865
5623 1 8.16316 120.981 8.12202
12121 2 7.25344 119.407 9.40591
5663 1 10.8914 119.408 8.11926
11822 2 9.98147 120.981 9.40865
5345 1 13.6194 120.981 8.12202
11494 2 15.4377 120.981 9.40865
11821 2 12.7097 119.407 9.40591
5344 1 16.3476 119.408 8.11926
11527 2 18.1659 119.407 9.40591
6042 1 21.8038 119.408 8.11926
5005 1 19.0756 120.981 8.12202
11174 2 20.894 120.981 9.40865
5848 1 2.70693 124.127 8.12439
12316 2 1.79709 122.555 9.41036
5877 1 5.43501 122.554 8.12373
12083 2 4.52524 124.129 9.41102
5622 1 8.16316 124.127 8.12439
12082 2 7.25333 122.555 9.41036
5621 1 10.8912 122.554 8.12373
11778 2 9.98148 124.129 9.41102
5306 1 13.6194 124.127 8.12439
11493 2 15.4377 124.129 9.41102
11824 2 12.7096 122.555 9.41036
5347 1 16.3475 122.554 8.12373
11492 2 18.1658 122.555 9.41036
6025 1 21.8037 122.554 8.12373
5004 1 19.0756 124.127 8.12439
11151 2 20.894 124.129 9.41102
12291 2 1.79722 125.702 9.41064
5847 1 2.70718 127.273 8.12258
5846 1 5.43514 125.7 8.12401
12048 2 4.52549 127.276 9.40921
12085 2 7.25345 125.702 9.41064
5583 1 8.16342 127.273 8.12258
5624 1 10.8914 125.7 8.12401
11777 2 9.98173 127.276 9.40921
11776 2 12.7097 125.702 9.41064
5305 1 13.6197 127.273 8.12258
11454 2 15.438 127.276 9.40921
5304 1 16.3476 125.7 8.12401
11495 2 18.1659 125.702 9.41064
6026 1 21.8039 125.7 8.12401
4973 1 19.0759 127.273 8.12258
11150 2 20.8942 127.276 9.40921
12292 2 1.79759 128.85 9.40675
5849 1 5.43552 128.846 8.1201
12046 2 7.25382 128.85 9.40675
5581 1 10.8918 128.846 8.1201
11779 2 12.7101 128.85 9.40675
5307 1 16.348 128.846 8.1201
11452 2 18.1663 128.85 9.40675
6009 1 21.8042 128.846 8.1201
5820 1 2.70769 130.419 8.11657
12268 2 1.7982 131.997 9.39867
5818 1 5.43615 131.991 8.11199
12047 2 4.52598 130.424 9.40323
5582 1 8.16392 130.419 8.11657
12049 2 7.25444 131.997 9.39867
5584 1 10.8924 131.991 8.11199
11732 2 9.98222 130.424 9.40323
5259 1 13.6202 130.419 8.11657
11453 2 15.4385 130.424 9.40323
11730 2 12.7107 131.997 9.39867
5257 1 16.3486 131.991 8.11199
11455 2 18.1669 131.997 9.39867
6010 1 21.8049 131.991 8.11199
4972 1 19.0764 130.419 8.11657
11119 2 20.8947 130.424 9.40323
5819 1 2.70844 133.564 8.10636
12269 2 1.79906 135.145 9.38638
5821 1 5.43704 135.137 8.09966
12016 2 4.52672 133.571 9.39305
5544 1 8.16468 133.564 8.10636
12014 2 7.2553 135.145 9.38638
5542 1 10.8933 135.137 8.09966
11731 2 9.98296 133.571 9.39305
5258 1 13.6209 133.564 8.10636
11407 2 15.4392 133.571 9.39305
11733 2 12.7115 135.145 9.38638
5260 1 16.3495 135.137 8.09966
11405 2 18.1678 135.145 9.38638
5994 1 21.8058 135.137 8.09966
4933 1 19.0772 133.564 8.10636
11118 2 20.8954 133.571 9.39305
5796 1 2.70946 136.71 8.09191
12252 2 1.80018 138.292 9.36988
5794 1 5.43819 138.283 8.08309
12015 2 4.52771 136.718 9.37866
5543 1 8.1657 136.71 8.09191
12017 2 7.25642 138.292 9.36988
5545 1 10.8944 138.283 8.08309
11692 2 9.98394 136.718 9.37866
5212 1 13.6219 136.71 8.09191
11406 2 15.4402 136.718 9.37866
11690 2 12.7127 138.292 9.36988
5210 1 16.3507 138.283 8.08309
11408 2 18.1689 138.292 9.36988
5995 1 21.8069 138.283 8.08309
4932 1 19.0782 136.71 8.09191
11080 2 20.8964 136.718 9.37866
5795 1 2.71074 139.856 8.0732
12253 2 1.80156 141.439 9.34913
5797 1 5.4396 141.429 8.06225
11992 2 4.52895 139.865 9.36003
5512 1 8.16698 139.856 8.0732
11990 2 7.25779 141.439 9.34913
5510 1 10.8958 141.429 8.06225
11691 2 9.98519 139.865 9.36003
5211 1 13.6232 139.856 8.0732
11360 2 15.4414 139.865 9.36003
11693 2 12.714 141.439 9.34913
5213 1 16.3521 141.429 8.06225
11358 2 18.1703 141.439 9.34913
5986 1 21.8083 141.429 8.06225
4887 1 19.0795 139.856 8.0732
11079 2 20.8977 139.865 9.36003
5780 1 2.71229 143.002 8.05022
12244 2 1.8032 144.586 9.32414
5778 1 5.44128 144.574 8.03713
11991 2 4.53046 143.013 9.33716
5511 1 8.16853 143.002 8.05022
11993 2 7.25944 144.586 9.32414
5513 1 10.8975 144.574 8.03713
11660 2 9.9867 143.013 9.33716
5172 1 13.6248 143.002 8.05022
11359 2 15.4429 143.013 9.33716
11658 2 12.7157 144.586 9.32414
5170 1 16.3538 144.574 8.03713
11361 2 18.1719 144.586 9.32414
5987 1 21.81 144.574 8.03713
4886 1 19.081 143.002 8.05022
11040 2 20.8992 143.013 9.33716
5779 1 2.71411 146.147 8.02296
12245 2 1.80512 147.733 9.29493
5781 1 5.44324 147.72 8.00774
11976 2 4.53225 146.16 9.31006
5488 1 8.17035 146.147 8.02296
11974 2 7.26136 147.733 9.29493
5486 1 10.8995 147.72 8.00774
11659 2 9.98848 146.16 9.31006
5171 1 13.6266 146.147 8.02296
11320 2 15.4447 146.16 9.31006
11661 2 12.7176 147.733 9.29493
5173 1 16.3557 147.72 8.00774
11318 2 18.1738 147.733 9.29493
5985 1 21.812 147.72 8.00774
4842 1 19.0828 146.147 8.02296
11039 2 20.901 146.16 9.31006
5769 1 2.7162 149.293 7.99147
8034 2 1.80732 150.88 9.26155
11975 2 4.5343 149.306 9.27875
1854 1 5.44546 150.866 7.97416
5487 1 8.17244 149.293 7.99147
7853 2 7.26356 150.88 9.26155
11633 2 9.99054 149.306 9.27875
1640 1 10.9017 150.866 7.97416
5137 1 13.6287 149.293 7.99147
11319 2 15.4468 149.306 9.27875
7560 2 12.7198 150.88 9.26155
1321 1 16.3579 150.866 7.97416
7224 2 18.176 150.88 9.26155
4841 1 19.0849 149.293 7.99147
11000 2 20.903 149.306 9.27875
1993 1 21.8142 150.866 7.97416
5927 1 0.892262 102.087 10.5946
12179 2 2.71049 102.079 11.8804
5925 1 3.61956 103.662 10.6087
12180 2 5.43783 103.654 11.8944
5714 1 6.3485 102.087 10.5946
11887 2 8.16673 102.079 11.8804
5715 1 9.0758 103.662 10.6087
5398 1 11.8047 102.087 10.5946
11885 2 10.8941 103.654 11.8944
11562 2 13.623 102.079 11.8804
5396 1 14.532 103.662 10.6087
5050 1 17.261 102.087 10.5946
11563 2 16.3503 103.654 11.8944
11197 2 19.0792 102.079 11.8804
12361 2 21.8065 103.654 11.8944
5051 1 19.9883 103.662 10.6087
5926 1 0.890699 105.236 10.6219
12151 2 2.70899 105.229 11.9075
5690 1 6.34694 105.236 10.6219
11886 2 8.16523 105.229 11.9075
5397 1 11.8032 105.236 10.6219
11546 2 13.6215 105.229 11.9075
5042 1 17.2594 105.236 10.6219
11196 2 19.0777 105.229 11.9075
5900 1 0.889426 108.385 10.645
12150 2 2.70778 108.379 11.9305
5928 1 3.61815 106.81 10.634
12149 2 5.43647 106.804 11.9195
5688 1 9.07438 106.81 10.634
5689 1 6.34566 108.385 10.645
11857 2 8.16402 108.379 11.9305
5374 1 11.8019 108.385 10.645
11888 2 10.8927 106.804 11.9195
5399 1 14.5306 106.81 10.634
11545 2 13.6203 108.379 11.9305
5041 1 17.2581 108.385 10.645
11544 2 16.3489 106.804 11.9195
12362 2 21.8052 106.804 11.9195
5040 1 19.9869 106.81 10.634
11189 2 19.0765 108.379 11.9305
5899 1 0.888429 111.534 10.664
12116 2 2.70683 111.53 11.9493
5898 1 3.61701 109.96 10.655
12152 2 5.43539 109.955 11.9404
5658 1 6.34467 111.534 10.664
5691 1 9.07325 109.96 10.655
11856 2 8.16307 111.53 11.9493
5373 1 11.8009 111.534 10.664
11855 2 10.8916 109.955 11.9404
5372 1 14.5295 109.96 10.655
11522 2 13.6193 111.53 11.9493
5026 1 17.2571 111.534 10.664
11547 2 16.3479 109.955 11.9404
12337 2 21.8041 109.955 11.9404
5043 1 19.9857 109.96 10.655
11188 2 19.0755 111.53 11.9493
5872 1 0.887696 114.683 10.6789
12115 2 2.70614 114.68 11.9641
5901 1 3.61615 113.109 10.672
12114 2 5.43457 113.105 11.9572
5656 1 9.07239 113.109 10.672
5657 1 6.34393 114.683 10.6789
11819 2 8.16237 114.68 11.9641
5342 1 11.8002 114.683 10.6789
11858 2 10.8908 113.105 11.9572
5375 1 14.5286 113.109 10.672
11521 2 13.6186 114.68 11.9641
5025 1 17.2564 114.683 10.6789
11520 2 16.347 113.105 11.9572
5024 1 19.9849 113.109 10.672
12338 2 21.8033 113.105 11.9572
11173 2 19.0749 114.68 11.9641
5871 1 0.887216 117.832 10.6895
12080 2 2.70568 117.831 11.9747
5870 1 3.61554 116.258 10.6847
12117 2 5.434 116.256 11.9699
5619 1 6.34345 117.832 10.6895
5659 1 9.07178 116.258 10.6847
11818 2 8.16192 117.831 11.9747
5341 1 11.7997 117.832 10.6895
11817 2 10.8902 116.256 11.9699
5340 1 14.528 116.258 10.6847
11490 2 13.6182 117.831 11.9747
5002 1 17.2559 117.832 10.6895
11523 2 16.3465 116.256 11.9699
5027 1 19.9843 116.258 10.6847
12313 2 21.8027 116.256 11.9699
11172 2 19.0744 117.831 11.9747
5844 1 0.886982 120.982 10.6961
12079 2 2.70546 120.982 11.9812
5873 1 3.61519 119.407 10.6933
12078 2 5.43366 119.406 11.9785
5617 1 9.07143 119.407 10.6933
5618 1 6.34322 120.982 10.6961
11774 2 8.1617 120.982 11.9812
5302 1 11.7995 120.982 10.6961
11820 2 10.8899 119.406 11.9785
5343 1 14.5277 119.407 10.6933
11489 2 13.6179 120.982 11.9812
5001 1 17.2557 120.982 10.6961
11488 2 16.3461 119.406 11.9785
5000 1 19.9839 119.407 10.6933
12314 2 21.8024 119.406 11.9785
11149 2 19.0742 120.982 11.9812
5843 1 0.886986 124.131 10.6984
12044 2 2.70547 124.132 11.9836
5842 1 3.61507 122.556 10.6978
12081 2 5.43355 122.557 11.9829
5579 1 6.34322 124.131 10.6984
5620 1 9.07131 122.556 10.6978
11773 2 8.16171 124.132 11.9836
5301 1 11.7995 124.131 10.6984
11772 2 10.8898 122.557 11.9829
5300 1 14.5276 122.556 10.6978
11450 2 13.6179 124.132 11.9836
4970 1 17.2557 124.131 10.6984
11491 2 16.346 122.557 11.9829
5003 1 19.9838 122.556 10.6978
12289 2 21.8023 122.557 11.9829
11148 2 19.0742 124.132 11.9836
5816 1 0.887229 127.28 10.6966
12043 2 2.7057 127.283 11.9818
5845 1 3.6152 125.705 10.6981
12042 2 5.43368 125.708 11.9832
5577 1 9.07144 125.705 10.6981
5578 1 6.34347 127.28 10.6966
11728 2 8.16194 127.283 11.9818
11775 2 10.8899 125.708 11.9832
5255 1 11.7997 127.28 10.6966
5303 1 14.5277 125.705 10.6981
11449 2 13.6182 127.283 11.9818
11448 2 16.3462 125.708 11.9832
4969 1 17.2559 127.28 10.6966
4968 1 19.9839 125.705 10.6981
12290 2 21.8024 125.708 11.9832
11117 2 19.0744 127.283 11.9818
5814 1 3.61556 128.854 10.6942
12045 2 5.43402 128.858 11.9793
5580 1 9.0718 128.854 10.6942
11726 2 10.8903 128.858 11.9793
5253 1 14.528 128.854 10.6942
11451 2 16.3465 128.858 11.9793
4971 1 19.9843 128.854 10.6942
12266 2 21.8027 128.858 11.9793
5815 1 0.88771 130.429 10.6907
12012 2 2.70616 130.434 11.9758
5817 1 3.61616 132.003 10.6861
12010 2 5.4346 132.009 11.9713
5538 1 9.0724 132.003 10.6861
5540 1 6.34395 130.429 10.6907
11727 2 8.1624 130.434 11.9758
5254 1 11.8002 130.429 10.6907
11729 2 10.8908 132.009 11.9713
5256 1 14.5286 132.003 10.6861
11403 2 13.6186 130.434 11.9758
4930 1 17.2564 130.429 10.6907
11401 2 16.3471 132.009 11.9713
4928 1 19.9849 132.003 10.6861
12267 2 21.8033 132.009 11.9713
11116 2 19.0749 130.434 11.9758
5792 1 0.888434 133.578 10.6805
12011 2 2.70685 133.584 11.9658
5790 1 3.61701 135.152 10.6739
12013 2 5.43541 135.159 11.9591
5539 1 6.34467 133.578 10.6805
5541 1 9.07325 135.152 10.6739
11688 2 8.16309 133.584 11.9658
5208 1 11.8009 133.578 10.6805
11686 2 10.8916 135.159 11.9591
5206 1 14.5295 135.152 10.6739
11402 2 13.6193 133.584 11.9658
4929 1 17.2571 133.578 10.6805
11404 2 16.3479 135.159 11.9591
4931 1 19.9857 135.152 10.6739
12250 2 21.8041 135.159 11.9591
11078 2 19.0756 133.584 11.9658
5791 1 0.889407 136.726 10.6662
11988 2 2.70778 136.734 11.9515
5793 1 3.61811 138.301 10.6574
11986 2 5.43646 138.31 11.9428
5506 1 9.07435 138.301 10.6574
5508 1 6.34565 136.726 10.6662
11687 2 8.16402 136.734 11.9515
5207 1 11.8019 136.726 10.6662
11689 2 10.8927 138.31 11.9428
5209 1 14.5306 138.301 10.6574
11356 2 13.6203 136.734 11.9515
4884 1 17.2581 136.726 10.6662
11354 2 16.3489 138.31 11.9428
4882 1 19.9868 138.301 10.6574
12251 2 21.8052 138.31 11.9428
11077 2 19.0765 136.734 11.9515
5776 1 0.890638 139.875 10.6476
11987 2 2.70896 139.885 11.933
5774 1 3.61947 141.449 10.6367
11989 2 5.43776 141.46 11.9222
5507 1 6.34688 139.875 10.6476
5509 1 9.07571 141.449 10.6367
11656 2 8.1652 139.885 11.933
5168 1 11.8031 139.875 10.6476
11654 2 10.894 141.46 11.9222
5166 1 14.5319 141.449 10.6367
11355 2 13.6214 139.885 11.933
4883 1 17.2594 139.875 10.6476
11357 2 16.3502 141.46 11.9222
4885 1 19.9882 141.449 10.6367
12242 2 21.8065 141.46 11.9222
11038 2 19.0777 139.885 11.933
5775 1 0.892137 143.024 10.6248
11972 2 2.7104 143.035 11.9104
5777 1 3.62111 144.598 10.6118
11970 2 5.43933 144.609 11.8975
5482 1 9.07735 144.598 10.6118
5484 1 6.34838 143.024 10.6248
11655 2 8.16663 143.035 11.9104
5167 1 11.8046 143.024 10.6248
11657 2 10.8956 144.609 11.8975
5169 1 14.5336 144.598 10.6118
11316 2 13.6229 143.035 11.9104
4839 1 17.2609 143.024 10.6248
11314 2 16.3518 144.609 11.8975
4837 1 19.9898 144.598 10.6118
12243 2 21.808 144.609 11.8975
11037 2 19.0791 143.035 11.9104
5768 1 0.893913 146.172 10.5977
11971 2 2.7121 146.184 11.8835
5766 1 3.62303 147.746 10.5826
11973 2 5.44118 147.759 11.8685
5483 1 6.35015 146.172 10.5977
5485 1 9.07927 147.746 10.5826
11632 2 8.16834 146.184 11.8835
5136 1 11.8064 146.172 10.5977
11630 2 10.8974 147.759 11.8685
5134 1 14.5355 147.746 10.5826
11315 2 13.6246 146.184 11.8835
4838 1 17.2626 146.172 10.5977
11317 2 16.3537 147.759 11.8685
4840 1 19.9917 147.746 10.5826
12241 2 21.8099 147.759 11.8685
10999 2 19.0808 146.184 11.8835
5767 1 0.895977 149.32 10.5665
11961 2 2.7141 149.333 11.8525
1853 1 3.62524 150.894 10.5493
7826 2 5.44332 150.908 11.8355
5465 1 6.35222 149.32 10.5665
11631 2 8.17033 149.333 11.8525
1617 1 9.08148 150.894 10.5493
5135 1 11.8085 149.32 10.5665
7559 2 10.8996 150.908 11.8355
11281 2 13.6266 149.333 11.8525
1320 1 14.5377 150.894 10.5493
4798 1 17.2647 149.32 10.5665
7209 2 16.3558 150.908 11.8355
10998 2 19.0828 149.333 11.8525
953 1 19.994 150.894 10.5493
8033 2 21.812 150.908 11.8355
5924 1 1.79959 103.646 13.1823
12147 2 0.890533 102.062 14.4536
5682 1 2.70855 102.053 15.7415
5686 1 4.52847 102.07 13.1683
12145 2 3.61794 103.638 14.4674
5683 1 5.43599 103.63 15.7553
5684 1 7.25582 103.646 13.1823
11883 2 6.34677 102.062 14.4536
5366 1 8.16479 102.053 15.7415
11884 2 9.07417 103.638 14.4674
5394 1 9.98471 102.07 13.1683
11542 2 11.803 102.062 14.4536
5364 1 10.8922 103.63 15.7553
5038 1 15.4409 102.07 13.1683
5395 1 12.7121 103.646 13.1823
5034 1 13.621 102.053 15.7415
11540 2 14.5304 103.638 14.4674
5036 1 18.1683 103.646 13.1823
11194 2 17.2592 102.062 14.4536
5035 1 16.3485 103.63 15.7553
4688 1 20.8972 102.07 13.1683
4685 1 19.0773 102.053 15.7415
5894 1 21.8047 103.63 15.7553
11195 2 19.9867 103.638 14.4674
12146 2 0.889169 105.215 14.4803
5650 1 2.70726 105.208 15.7681
5685 1 4.52701 105.222 13.1953
11853 2 6.34541 105.215 14.4803
5365 1 8.1635 105.208 15.7681
5370 1 9.98325 105.222 13.1953
11541 2 11.8016 105.215 14.4803
5037 1 15.4395 105.222 13.1953
5018 1 13.6197 105.208 15.7681
11186 2 17.2579 105.215 14.4803
4687 1 20.8957 105.222 13.1953
4684 1 19.076 105.208 15.7681
5896 1 1.79827 106.798 13.2073
12112 2 0.888072 108.368 14.503
5649 1 2.70623 108.362 15.7906
5654 1 4.52583 108.374 13.2182
12148 2 3.61671 106.791 14.4922
5648 1 5.43483 106.785 15.7799
5687 1 7.25451 106.798 13.2073
11851 2 9.07295 106.791 14.4922
11852 2 6.34431 108.368 14.503
5334 1 8.16247 108.362 15.7906
5369 1 9.98207 108.374 13.2182
11518 2 11.8005 108.368 14.503
5367 1 10.8911 106.785 15.7799
5022 1 15.4383 108.374 13.2182
5368 1 12.7107 106.798 13.2073
11543 2 14.5292 106.791 14.4922
5017 1 13.6187 108.362 15.7906
5039 1 18.167 106.798 13.2073
11185 2 17.2568 108.368 14.503
5016 1 16.3473 106.785 15.7799
4686 1 20.8945 108.374 13.2182
5895 1 21.8035 106.785 15.7799
11184 2 19.9854 106.791 14.4922
4677 1 19.0749 108.362 15.7906
5897 1 1.79722 109.95 13.2281
12111 2 0.887222 111.521 14.5217
5611 1 2.70543 111.517 15.8092
5653 1 4.52492 111.526 13.237
12110 2 3.61574 109.945 14.5128
5651 1 5.43392 109.94 15.8004
5652 1 7.25346 109.95 13.2281
11815 2 6.34346 111.521 14.5217
11854 2 9.07197 109.945 14.5128
5333 1 8.16167 111.517 15.8092
5338 1 9.98115 111.526 13.237
11517 2 11.7997 111.521 14.5217
5332 1 10.8902 109.94 15.8004
5371 1 12.7097 109.95 13.2281
5021 1 15.4374 111.526 13.237
11516 2 14.5282 109.945 14.5128
4994 1 13.6179 111.517 15.8092
5020 1 18.1659 109.95 13.2281
11170 2 17.2559 111.521 14.5217
5019 1 16.3464 109.94 15.8004
4679 1 20.8936 111.526 13.237
5866 1 21.8026 109.94 15.8004
11187 2 19.9845 109.945 14.5128
4676 1 19.0741 111.517 15.8092
5868 1 1.79643 113.102 13.2449
12076 2 0.886603 114.675 14.5362
5610 1 2.70485 114.672 15.8237
5615 1 4.52425 114.678 13.2517
12113 2 3.615 113.098 14.5295
5609 1 5.43323 113.095 15.817
5655 1 7.25267 113.102 13.2449
11813 2 9.07124 113.098 14.5295
11814 2 6.34284 114.675 14.5362
5294 1 8.16109 114.672 15.8237
5337 1 9.98048 114.678 13.2517
11486 2 11.7991 114.675 14.5362
5335 1 10.8895 113.095 15.817
4998 1 15.4367 114.678 13.2517
5336 1 12.7089 113.102 13.2449
11519 2 14.5275 113.098 14.5295
4993 1 13.6173 114.672 15.8237
5023 1 18.1651 113.102 13.2449
11169 2 17.2553 114.675 14.5362
4992 1 16.3457 113.095 15.817
4678 1 20.893 114.678 13.2517
11168 2 19.9837 113.098 14.5295
5867 1 21.8019 113.095 15.817
4661 1 19.0736 114.672 15.8237
5869 1 1.79588 116.254 13.2575
12075 2 0.886202 117.829 14.5468
5571 1 2.70448 117.828 15.8342
5614 1 4.52381 117.83 13.2623
12074 2 3.61449 116.252 14.542
5612 1 5.43276 116.25 15.8294
5613 1 7.25212 116.254 13.2575
11770 2 6.34244 117.829 14.5468
11816 2 9.07073 116.252 14.542
5293 1 8.16072 117.828 15.8342
5298 1 9.98005 117.83 13.2623
11485 2 11.7987 117.829 14.5468
5292 1 10.889 116.25 15.8294
4997 1 15.4363 117.83 13.2623
5339 1 12.7084 116.254 13.2575
11484 2 14.527 116.252 14.542
4962 1 13.617 117.828 15.8342
4996 1 18.1646 116.254 13.2575
11146 2 17.2549 117.829 14.5468
4995 1 16.3452 116.25 15.8294
4663 1 20.8925 117.83 13.2623
11171 2 19.9832 116.252 14.542
5838 1 21.8015 116.25 15.8294
4660 1 19.0732 117.828 15.8342
5840 1 1.79556 119.406 13.2661
12040 2 0.886011 120.982 14.5532
5570 1 2.70431 120.983 15.8406
5575 1 4.5236 120.982 13.2688
12077 2 3.6142 119.406 14.5505
5569 1 5.43249 119.405 15.8379
5616 1 7.2518 119.406 13.2661
11768 2 9.07044 119.406 14.5505
11769 2 6.34225 120.982 14.5532
5247 1 8.16054 120.983 15.8406
5297 1 9.97984 120.982 13.2688
11446 2 11.7985 120.982 14.5532
5295 1 10.8887 119.405 15.8379
5296 1 12.708 119.406 13.2661
4966 1 15.4361 120.982 13.2688
11487 2 14.5267 119.406 14.5505
4961 1 13.6168 120.983 15.8406
4999 1 18.1643 119.406 13.2661
11145 2 17.2547 120.982 14.5532
4960 1 16.345 119.405 15.8379
4662 1 20.8923 120.982 13.2688
11144 2 19.9829 119.406 14.5505
5839 1 21.8012 119.405 15.8379
4637 1 19.073 120.983 15.8406
5841 1 1.79546 122.558 13.2705
12039 2 0.886024 124.136 14.5555
5532 1 2.70432 124.138 15.8429
5574 1 4.52361 124.134 13.2711
12038 2 3.61411 122.559 14.5549
5572 1 5.43241 122.561 15.8423
5573 1 7.2517 122.558 13.2705
11724 2 6.34226 124.136 14.5555
11771 2 9.07035 122.559 14.5549
5246 1 8.16056 124.138 15.8429
5251 1 9.97985 124.134 13.2711
11445 2 11.7985 124.136 14.5555
5245 1 10.8886 122.561 15.8423
4965 1 15.4361 124.134 13.2711
5299 1 12.7079 122.558 13.2705
11444 2 14.5266 122.559 14.5549
4922 1 13.6168 124.138 15.8429
4964 1 18.1642 122.558 13.2705
11114 2 17.2547 124.136 14.5555
4963 1 16.3449 122.561 15.8423
4639 1 20.8923 124.134 13.2711
11147 2 19.9828 122.559 14.5549
5810 1 21.8011 122.561 15.8423
4636 1 19.073 124.138 15.8429
5812 1 1.79557 125.711 13.2708
12008 2 0.886238 127.29 14.5538
5531 1 2.70453 127.294 15.8412
12041 2 3.61423 125.713 14.5552
5530 1 5.43252 125.716 15.8426
5536 1 4.52383 127.287 13.2694
5576 1 7.25181 125.711 13.2708
11722 2 9.07046 125.713 14.5552
11723 2 6.34248 127.29 14.5538
5200 1 8.16077 127.294 15.8412
5248 1 10.8888 125.716 15.8426
5250 1 9.98007 127.287 13.2694
11399 2 11.7987 127.29 14.5538
5249 1 12.7081 125.711 13.2708
11447 2 14.5267 125.713 14.5552
4926 1 15.4363 127.287 13.2694
4921 1 13.617 127.294 15.8412
4967 1 18.1643 125.711 13.2708
4920 1 16.345 125.716 15.8426
11113 2 17.255 127.29 14.5538
11112 2 19.9829 125.713 14.5552
5811 1 21.8012 125.716 15.8426
4638 1 20.8925 127.287 13.2694
4605 1 19.0732 127.294 15.8412
5813 1 1.79591 128.863 13.267
12006 2 3.61454 128.867 14.5514
5533 1 5.43282 128.871 15.8388
5534 1 7.25215 128.863 13.267
11725 2 9.07078 128.867 14.5514
5198 1 10.8891 128.871 15.8388
5252 1 12.7084 128.863 13.267
11397 2 14.527 128.867 14.5514
4924 1 18.1646 128.863 13.267
4923 1 16.3453 128.871 15.8388
11115 2 19.9833 128.867 14.5514
5786 1 21.8015 128.871 15.8388
5788 1 1.79646 132.015 13.259
12007 2 0.886657 130.444 14.5479
5500 1 2.70492 130.449 15.8354
5535 1 4.52428 130.439 13.2635
12009 2 3.61506 132.02 14.5435
5498 1 5.43331 132.026 15.8309
5537 1 7.2527 132.015 13.259
11682 2 9.0713 132.02 14.5435
11684 2 6.34289 130.444 14.5479
5199 1 8.16116 130.449 15.8354
5204 1 9.98052 130.439 13.2635
11398 2 11.7991 130.444 14.5479
5201 1 10.8896 132.026 15.8309
4925 1 15.4368 130.439 13.2635
5202 1 12.7089 132.015 13.259
11400 2 14.5275 132.02 14.5435
4876 1 13.6174 130.449 15.8354
4927 1 18.1652 132.015 13.259
11075 2 17.2554 130.444 14.5479
4874 1 16.3458 132.026 15.8309
4607 1 20.893 130.439 13.2635
11073 2 19.9838 132.02 14.5435
5787 1 21.802 132.026 15.8309
4604 1 19.0736 130.449 15.8354
5789 1 1.79725 135.167 13.2469
11984 2 0.887282 133.597 14.538
5499 1 2.70551 133.604 15.8255
5504 1 4.52494 133.591 13.2534
11982 2 3.61579 135.174 14.5314
5501 1 5.434 135.181 15.819
5502 1 7.25348 135.167 13.2469
11683 2 6.34352 133.597 14.538
11685 2 9.07203 135.174 14.5314
5160 1 8.16175 133.604 15.8255
5203 1 9.98118 133.591 13.2534
11352 2 11.7998 133.597 14.538
5158 1 10.8902 135.181 15.819
4880 1 15.4374 133.591 13.2534
5205 1 12.7097 135.167 13.2469
11350 2 14.5283 135.174 14.5314
4875 1 13.618 133.604 15.8255
4878 1 18.166 135.167 13.2469
11074 2 17.256 133.597 14.538
4877 1 16.3465 135.181 15.819
4606 1 20.8937 133.591 13.2534
11076 2 19.9845 135.174 14.5314
5770 1 21.8027 135.181 15.819
4569 1 19.0742 133.604 15.8255
5772 1 1.79826 138.318 13.2306
11983 2 0.888123 136.751 14.5239
5476 1 2.70631 136.759 15.8114
5503 1 4.52584 136.743 13.2392
11985 2 3.61675 138.327 14.5153
5474 1 5.4349 138.336 15.8029
5505 1 7.2545 138.318 13.2306
11650 2 9.07298 138.327 14.5153
11652 2 6.34436 136.751 14.5239
5159 1 8.16255 136.759 15.8114
5164 1 9.98208 136.743 13.2392
11351 2 11.8006 136.751 14.5239
5161 1 10.8911 138.336 15.8029
4879 1 15.4383 136.743 13.2392
5162 1 12.7107 138.318 13.2306
11353 2 14.5292 138.327 14.5153
4831 1 13.6188 136.759 15.8114
4881 1 18.167 138.318 13.2306
11035 2 17.2568 136.751 14.5239
4829 1 16.3474 138.336 15.8029
4571 1 20.8946 136.743 13.2392
11033 2 19.9855 138.327 14.5153
5771 1 21.8036 138.336 15.8029
4568 1 19.075 136.759 15.8114
5773 1 1.79953 141.47 13.2101
11968 2 0.88919 139.904 14.5056
5475 1 2.70732 139.913 15.7933
5480 1 4.52698 139.894 13.2209
11966 2 3.61793 141.48 14.495
5477 1 5.43603 141.49 15.7827
5478 1 7.25577 141.47 13.2101
11651 2 6.34543 139.904 14.5056
11653 2 9.07417 141.48 14.495
5128 1 8.16355 139.913 15.7933
5163 1 9.98322 139.894 13.2209
11312 2 11.8017 139.904 14.5056
5126 1 10.8923 141.49 15.7827
4835 1 15.4395 139.894 13.2209
5165 1 12.712 141.47 13.2101
11310 2 14.5304 141.48 14.495
4830 1 13.6198 139.913 15.7933
4833 1 18.1682 141.47 13.2101
11034 2 17.2579 139.904 14.5056
4832 1 16.3485 141.49 15.7827
4570 1 20.8957 139.894 13.2209
11036 2 19.9866 141.48 14.495
5762 1 21.8047 141.49 15.7827
4533 1 19.076 139.913 15.7933
5764 1 1.80106 144.621 13.1855
11967 2 0.890498 143.056 14.4833
5460 1 2.70856 143.068 15.7711
5479 1 4.52838 143.046 13.1983
11969 2 3.61937 144.633 14.4705
5458 1 5.43739 144.644 15.7585
5481 1 7.2573 144.621 13.1855
11626 2 9.07561 144.633 14.4705
11628 2 6.34674 143.056 14.4833
5127 1 8.16479 143.068 15.7711
5132 1 9.98462 143.046 13.1983
11311 2 11.803 143.056 14.4833
5129 1 10.8936 144.644 15.7585
4834 1 15.4409 143.046 13.1983
5130 1 12.7135 144.621 13.1855
11313 2 14.5318 144.633 14.4705
4793 1 13.621 143.068 15.7711
4836 1 18.1698 144.621 13.1855
10996 2 17.2592 143.056 14.4833
4791 1 16.3499 144.644 15.7585
4535 1 20.8971 143.046 13.1983
10994 2 19.9881 144.633 14.4705
5763 1 21.8061 144.644 15.7585
4532 1 19.0773 143.068 15.7711
5765 1 1.80287 147.772 13.1567
11960 2 0.892067 146.209 14.4568
5459 1 2.71005 146.221 15.7448
5464 1 4.53005 146.197 13.1716
11958 2 3.62107 147.785 14.442
5461 1 5.43902 147.798 15.7301
5462 1 7.25911 147.772 13.1567
11627 2 6.34831 146.209 14.4568
11629 2 9.07731 147.785 14.442
5104 1 8.16629 146.221 15.7448
5131 1 9.98628 146.197 13.1716
11280 2 11.8045 146.209 14.4568
5102 1 10.8953 147.798 15.7301
4797 1 15.4425 146.197 13.1716
5133 1 12.7153 147.772 13.1567
11278 2 14.5336 147.785 14.442
4792 1 13.6225 146.221 15.7448
4795 1 18.1716 147.772 13.1567
10995 2 17.2608 146.209 14.4568
4794 1 16.3515 147.798 15.7301
4534 1 20.8988 146.197 13.1716
10997 2 19.9898 147.785 14.442
5761 1 21.8077 147.798 15.7301
4498 1 19.0788 146.221 15.7448
11959 2 0.893918 149.361 14.4262
5449 1 2.71183 149.374 15.7144
1827 1 1.80498 150.922 13.1237
5463 1 4.532 149.347 13.1407
7825 2 3.62308 150.936 14.4094
1585 1 5.44095 150.95 15.6978
11609 2 6.35016 149.361 14.4262
5103 1 8.16806 149.374 15.7144
1616 1 7.26122 150.922 13.1237
7530 2 9.07932 150.936 14.4094
5105 1 9.98824 149.347 13.1407
11279 2 11.8064 149.361 14.4262
1296 1 10.8972 150.95 15.6978
4796 1 15.4445 149.347 13.1407
4760 1 13.6243 149.374 15.7144
1297 1 12.7175 150.922 13.1237
7208 2 14.5356 150.936 14.4094
10961 2 17.2626 149.361 14.4262
952 1 18.1737 150.922 13.1237
937 1 16.3534 150.95 15.6978
4499 1 20.9007 149.347 13.1407
4497 1 19.0805 149.374 15.7144
6841 2 19.9918 150.936 14.4094
1826 1 21.8097 150.95 15.6978
5646 1 0.888789 102.037 18.3142
12144 2 1.79821 103.623 17.04
11849 2 4.52695 102.045 17.0264
5644 1 3.61634 103.615 18.3277
5362 1 6.34503 102.037 18.3142
11847 2 7.25445 103.623 17.04
5363 1 9.07258 103.615 18.3277
11538 2 9.98319 102.045 17.0264
5014 1 11.8013 102.037 18.3142
11182 2 15.4394 102.045 17.0264
11539 2 12.7107 103.623 17.04
5012 1 14.5288 103.615 18.3277
4682 1 17.2575 102.037 18.3142
11180 2 18.1669 103.623 17.04
10880 2 20.8957 102.045 17.0264
4683 1 19.9851 103.615 18.3277
5645 1 0.887719 105.194 18.3402
11848 2 4.52578 105.201 17.0527
5330 1 6.34396 105.194 18.3402
11514 2 9.98201 105.201 17.0527
5013 1 11.8002 105.194 18.3402
11181 2 15.4383 105.201 17.0527
4674 1 17.2564 105.194 18.3402
10879 2 20.8945 105.201 17.0527
12108 2 1.79716 106.779 17.0643
5607 1 0.886875 108.351 18.3624
11811 2 4.52484 108.357 17.075
5647 1 3.61539 106.772 18.3518
11850 2 7.2534 106.779 17.0643
5328 1 9.07163 106.772 18.3518
5329 1 6.34311 108.351 18.3624
11513 2 9.98108 108.357 17.075
4990 1 11.7994 108.351 18.3624
11166 2 15.4373 108.357 17.075
11512 2 12.7096 106.779 17.0643
5015 1 14.5279 106.772 18.3518
11183 2 18.1659 106.779 17.0643
4673 1 17.2556 108.351 18.3624
10878 2 20.8936 108.357 17.075
4672 1 19.9841 106.772 18.3518
12109 2 1.79634 109.935 17.0847
5606 1 0.886233 111.509 18.3806
11810 2 4.52413 111.513 17.0934
5605 1 3.61465 109.93 18.372
11809 2 7.25258 109.935 17.0847
5290 1 6.34247 111.509 18.3806
5331 1 9.07089 109.93 18.372
11482 2 9.98037 111.513 17.0934
4989 1 11.7987 111.509 18.3806
11165 2 15.4366 111.513 17.0934
11515 2 12.7088 109.935 17.0847
4988 1 14.5271 109.93 18.372
11164 2 18.1651 109.935 17.0847
4658 1 17.2549 111.509 18.3806
10871 2 20.8928 111.513 17.0934
4675 1 19.9834 109.93 18.372
12072 2 1.79573 113.091 17.1011
5567 1 0.885773 114.667 18.3949
11766 2 4.52361 114.67 17.1078
5608 1 3.6141 113.088 18.3883
11812 2 7.25197 113.091 17.1011
5288 1 9.07034 113.088 18.3883
5289 1 6.34201 114.667 18.3949
11481 2 9.97985 114.67 17.1078
4958 1 11.7982 114.667 18.3949
11142 2 15.4361 114.67 17.1078
11480 2 12.7082 113.091 17.1011
4991 1 14.5266 113.088 18.3883
11167 2 18.1644 113.091 17.1011
4657 1 17.2545 114.667 18.3949
10870 2 20.8923 114.67 17.1078
4656 1 19.9828 113.088 18.3883
12073 2 1.79531 116.248 17.1135
5566 1 0.885482 117.825 18.4052
11765 2 4.52328 117.826 17.1182
5565 1 3.61373 116.246 18.4006
11764 2 7.25154 116.248 17.1135
5243 1 6.34172 117.825 18.4052
5291 1 9.06996 116.246 18.4006
11442 2 9.97952 117.826 17.1182
4957 1 11.798 117.825 18.4052
11141 2 15.4358 117.826 17.1182
11483 2 12.7078 116.248 17.1135
4956 1 14.5262 116.246 18.4006
11140 2 18.164 116.248 17.1135
4634 1 17.2542 117.825 18.4052
10855 2 20.892 117.826 17.1182
4659 1 19.9824 116.246 18.4006
12036 2 1.79507 119.405 17.1218
5528 1 0.885353 120.984 18.4116
11720 2 4.52313 120.983 17.1245
5568 1 3.61352 119.404 18.4089
11767 2 7.25131 119.405 17.1218
5241 1 9.06976 119.404 18.4089
5242 1 6.34159 120.984 18.4116
11441 2 9.97937 120.983 17.1245
4918 1 11.7978 120.984 18.4116
11110 2 15.4356 120.983 17.1245
11440 2 12.7075 119.405 17.1218
4959 1 14.526 119.404 18.4089
11143 2 18.1638 119.405 17.1218
4633 1 17.2541 120.984 18.4116
10854 2 20.8918 120.983 17.1245
4632 1 19.9822 119.404 18.4089
12037 2 1.795 122.562 17.1262
5527 1 0.88538 124.142 18.4139
11719 2 4.52316 124.14 17.1268
5526 1 3.61347 122.563 18.4132
11718 2 7.25124 122.562 17.1262
5196 1 6.34162 124.142 18.4139
5244 1 9.06971 122.563 18.4132
11395 2 9.97939 124.14 17.1268
4917 1 11.7979 124.142 18.4139
11109 2 15.4356 124.14 17.1268
11443 2 12.7075 122.562 17.1262
4916 1 14.5259 122.563 18.4132
11108 2 18.1637 122.562 17.1262
4602 1 17.2541 124.142 18.4139
10831 2 20.8919 124.14 17.1268
4635 1 19.9822 122.563 18.4132
12004 2 1.79511 125.719 17.1265
5496 1 0.885562 127.3 18.4122
5529 1 3.61357 125.721 18.4135
11680 2 4.52335 127.297 17.1251
11721 2 7.25135 125.719 17.1265
5194 1 9.06981 125.721 18.4135
5195 1 6.3418 127.3 18.4122
11394 2 9.97959 127.297 17.1251
4872 1 11.798 127.3 18.4122
11393 2 12.7076 125.719 17.1265
4919 1 14.526 125.721 18.4135
11071 2 15.4358 127.297 17.1251
11111 2 18.1638 125.719 17.1265
4601 1 17.2543 127.3 18.4122
4600 1 19.9823 125.721 18.4135
10830 2 20.8921 127.297 17.1251
12005 2 1.79539 128.875 17.1227
5494 1 3.61383 128.88 18.4098
11678 2 7.25163 128.875 17.1227
5197 1 9.07007 128.88 18.4098
11396 2 12.7079 128.875 17.1227
4870 1 14.5263 128.88 18.4098
11069 2 18.1641 128.875 17.1227
4603 1 19.9825 128.88 18.4098
11980 2 1.79584 132.032 17.1149
5495 1 0.885899 130.459 18.4065
11679 2 4.52371 130.454 17.1193
5497 1 3.61425 132.038 18.4021
11681 2 7.25208 132.032 17.1149
5154 1 9.07048 132.038 18.4021
5156 1 6.34214 130.459 18.4065
11348 2 9.97995 130.454 17.1193
4871 1 11.7984 130.459 18.4065
11070 2 15.4362 130.454 17.1193
11346 2 12.7083 132.032 17.1149
4873 1 14.5267 132.038 18.4021
11072 2 18.1646 132.032 17.1149
4566 1 17.2546 130.459 18.4065
10803 2 20.8924 130.454 17.1193
4564 1 19.983 132.038 18.4021
11981 2 1.79647 135.188 17.1031
5472 1 0.886395 133.617 18.3967
11648 2 4.52425 133.61 17.1095
5470 1 3.61483 135.196 18.3903
11646 2 7.25271 135.188 17.1031
5155 1 6.34263 133.617 18.3967
5157 1 9.07106 135.196 18.3903
11347 2 9.98049 133.61 17.1095
4827 1 11.7989 133.617 18.3967
11031 2 15.4367 133.61 17.1095
11349 2 12.709 135.188 17.1031
4825 1 14.5273 135.196 18.3903
11029 2 18.1652 135.188 17.1031
4565 1 17.2551 133.617 18.3967
10802 2 20.893 133.61 17.1095
4567 1 19.9835 135.196 18.3903
11964 2 1.7973 138.345 17.0872
5471 1 0.887059 136.775 18.3829
11647 2 4.52498 136.767 17.0956
5473 1 3.61558 138.354 18.3745
11649 2 7.25353 138.345 17.0872
5122 1 9.07182 138.354 18.3745
5124 1 6.3433 136.775 18.3829
11308 2 9.98122 136.767 17.0956
4826 1 11.7995 136.775 18.3829
11030 2 15.4375 136.767 17.0956
11306 2 12.7098 138.345 17.0872
4828 1 14.5281 138.354 18.3745
11032 2 18.166 138.345 17.0872
4530 1 17.2558 136.775 18.3829
10775 2 20.8937 136.767 17.0956
4528 1 19.9843 138.354 18.3745
11965 2 1.79832 141.501 17.0672
5456 1 0.887902 139.932 18.3651
11624 2 4.5259 139.923 17.0777
5454 1 3.61652 141.511 18.3547
11622 2 7.25456 141.501 17.0672
5123 1 6.34414 139.932 18.3651
5125 1 9.07275 141.511 18.3547
11307 2 9.98214 139.923 17.0777
4789 1 11.8004 139.932 18.3651
10992 2 15.4384 139.923 17.0777
11309 2 12.7108 141.501 17.0672
4787 1 14.529 141.511 18.3547
10990 2 18.167 141.501 17.0672
4529 1 17.2566 139.932 18.3651
10774 2 20.8946 139.923 17.0777
4531 1 19.9852 141.511 18.3547
11956 2 1.79957 144.656 17.0432
5455 1 0.888943 143.089 18.3433
11623 2 4.52703 143.078 17.0557
5457 1 3.61766 144.668 18.3309
11625 2 7.25581 144.656 17.0432
5098 1 9.0739 144.668 18.3309
5100 1 6.34518 143.089 18.3433
11276 2 9.98327 143.078 17.0557
4788 1 11.8014 143.089 18.3433
10991 2 15.4395 143.078 17.0557
11274 2 12.712 144.656 17.0432
4790 1 14.5301 144.668 18.3309
10993 2 18.1683 144.656 17.0432
4495 1 17.2577 143.089 18.3433
10747 2 20.8957 143.078 17.0557
4493 1 19.9864 144.668 18.3309
11957 2 1.80107 147.811 17.0152
5448 1 0.890205 146.246 18.3175
11608 2 4.5284 146.233 17.0297
5446 1 3.61905 147.824 18.3031
11606 2 7.2573 147.811 17.0152
5099 1 6.34644 146.246 18.3175
5101 1 9.07529 147.824 18.3031
11275 2 9.98464 146.233 17.0297
4759 1 11.8027 146.246 18.3175
10960 2 15.4409 146.233 17.0297
11277 2 12.7135 147.811 17.0152
4757 1 14.5315 147.824 18.3031
10958 2 18.1698 147.811 17.0152
4494 1 17.2589 146.246 18.3175
10746 2 20.8971 146.233 17.0297
4496 1 19.9878 147.824 18.3031
5447 1 0.891722 149.402 18.2878
7791 2 1.80285 150.965 16.9832
11607 2 4.53004 149.388 16.9997
1584 1 3.62071 150.979 18.2714
5081 1 6.34796 149.402 18.2878
7529 2 7.25909 150.965 16.9832
1265 1 9.07695 150.979 18.2714
11249 2 9.98628 149.388 16.9997
4758 1 11.8042 149.402 18.2878
10959 2 15.4425 149.388 16.9997
7185 2 12.7153 150.965 16.9832
936 1 14.5332 150.979 18.2714
4464 1 17.2604 149.402 18.2878
6840 2 18.1716 150.965 16.9832
10719 2 20.8988 149.388 16.9997
585 1 19.9894 150.979 18.2714
11845 2 2.70731 102.028 19.5988
5643 1 1.79693 103.599 20.8995
5326 1 4.52548 102.02 20.8863
11846 2 5.43494 103.607 19.6121
11510 2 8.16355 102.028 19.5988
5324 1 7.25317 103.599 20.8995
5010 1 9.98172 102.02 20.8863
11508 2 10.8912 103.607 19.6121
4670 1 15.438 102.02 20.8863
11178 2 13.6198 102.028 19.5988
5011 1 12.7094 103.599 20.8995
4668 1 18.1656 103.599 20.8995
11179 2 16.3474 103.607 19.6121
4400 1 20.8942 102.02 20.8863
10877 2 19.076 102.028 19.5988
12106 2 21.8037 103.607 19.6121
11807 2 2.70638 105.187 19.6245
5325 1 4.52468 105.179 20.9117
11509 2 8.16262 105.187 19.6245
4986 1 9.98091 105.179 20.9117
4669 1 15.4372 105.179 20.9117
11162 2 13.6189 105.187 19.6245
4399 1 20.8934 105.179 20.9117
10876 2 19.0751 105.187 19.6245
5603 1 1.79623 106.76 20.9231
11806 2 2.70565 108.345 19.6464
5286 1 4.52406 108.34 20.9334
11805 2 5.43411 106.766 19.6359
5327 1 7.25246 106.76 20.9231
11478 2 8.16189 108.345 19.6464
4985 1 9.98029 108.34 20.9334
11511 2 10.8903 106.766 19.6359
4654 1 15.4365 108.34 20.9334
4984 1 12.7087 106.76 20.9231
11161 2 13.6181 108.345 19.6464
4671 1 18.1649 106.76 20.9231
11160 2 16.3466 106.766 19.6359
12107 2 21.8028 106.766 19.6359
4398 1 20.8928 108.34 20.9334
10869 2 19.0744 108.345 19.6464
5604 1 1.79569 109.92 20.9429
11762 2 2.7051 111.505 19.6645
5285 1 4.52359 111.501 20.9514
11808 2 5.43347 109.925 19.6559
5284 1 7.25193 109.92 20.9429
11477 2 8.16134 111.505 19.6645
4954 1 9.97983 111.501 20.9514
11476 2 10.8897 109.925 19.6559
4653 1 15.4361 111.501 20.9514
4987 1 12.7082 109.92 20.9429
11138 2 13.6176 111.505 19.6645
4652 1 18.1644 109.92 20.9429
11163 2 16.3459 109.925 19.6559
12070 2 21.8022 109.925 19.6559
4391 1 20.8923 111.501 20.9514
10868 2 19.0738 111.505 19.6645
5563 1 1.7953 113.081 20.9589
11761 2 2.70471 114.664 19.6786
5239 1 4.52327 114.662 20.9654
11760 2 5.433 113.084 19.672
5287 1 7.25153 113.081 20.9589
11438 2 8.16095 114.664 19.6786
4953 1 9.97951 114.662 20.9654
11479 2 10.8892 113.084 19.672
4630 1 15.4357 114.662 20.9654
4952 1 12.7078 113.081 20.9589
11137 2 13.6172 114.664 19.6786
4655 1 18.164 113.081 20.9589
11136 2 16.3455 113.084 19.672
12071 2 21.8017 113.084 19.672
4390 1 20.892 114.662 20.9654
10853 2 19.0734 114.664 19.6786
5564 1 1.79504 116.242 20.971
11716 2 2.70447 117.824 19.6888
5238 1 4.52307 117.823 20.9755
11763 2 5.43269 116.244 19.6842
5237 1 7.25127 116.242 20.971
11437 2 8.16071 117.824 19.6888
4914 1 9.97931 117.823 20.9755
11436 2 10.8889 116.244 19.6842
4629 1 15.4355 117.823 20.9755
4955 1 12.7075 116.242 20.971
11106 2 13.6169 117.824 19.6888
4628 1 18.1638 116.242 20.971
11139 2 16.3452 116.244 19.6842
12034 2 21.8014 116.244 19.6842
4375 1 20.8918 117.823 20.9755
10852 2 19.0732 117.824 19.6888
5524 1 1.7949 119.404 20.9792
11715 2 2.70437 120.984 19.6951
5192 1 4.523 120.984 20.9818
11714 2 5.43252 119.404 19.6925
5240 1 7.25114 119.404 20.9792
11391 2 8.1606 120.984 19.6951
4913 1 9.97924 120.984 20.9818
11439 2 10.8888 119.404 19.6925
4598 1 15.4355 120.984 20.9818
4912 1 12.7074 119.404 20.9792
11105 2 13.6168 120.984 19.6951
4631 1 18.1636 119.404 20.9792
11104 2 16.345 119.404 19.6925
12035 2 21.8012 119.404 19.6925
4374 1 20.8917 120.984 20.9818
10829 2 19.0731 120.984 19.6951
5525 1 1.79488 122.565 20.9834
11676 2 2.7044 124.144 19.6974
5191 1 4.52304 124.146 20.9841
11717 2 5.43249 122.564 19.6968
5190 1 7.25112 122.565 20.9834
11390 2 8.16064 124.144 19.6974
4868 1 9.97928 124.146 20.9841
11389 2 10.8887 122.564 19.6968
4597 1 15.4355 124.146 20.9841
4915 1 12.7074 122.565 20.9834
11067 2 13.6169 124.144 19.6974
4596 1 18.1636 122.565 20.9834
11107 2 16.345 122.564 19.6968
12002 2 21.8012 122.564 19.6968
4352 1 20.8918 124.146 20.9841
10828 2 19.0731 124.144 19.6974
5492 1 1.79498 125.727 20.9837
11675 2 2.70457 127.304 19.6957
11674 2 5.43259 125.724 19.6971
5152 1 4.52319 127.307 20.9824
5193 1 7.25122 125.727 20.9837
11344 2 8.16081 127.304 19.6957
11392 2 10.8888 125.724 19.6971
4867 1 9.97943 127.307 20.9824
4866 1 12.7075 125.727 20.9837
4562 1 15.4357 127.307 20.9824
11066 2 13.617 127.304 19.6957
4599 1 18.1637 125.727 20.9837
11065 2 16.3451 125.724 19.6971
12003 2 21.8013 125.724 19.6971
4351 1 20.8919 127.307 20.9824
10801 2 19.0733 127.304 19.6957
5493 1 1.79519 128.888 20.9801
11677 2 5.43282 128.884 19.6934
5150 1 7.25143 128.888 20.9801
11342 2 10.8891 128.884 19.6934
4869 1 12.7077 128.888 20.9801
4560 1 18.1639 128.888 20.9801
11068 2 16.3453 128.884 19.6934
11978 2 21.8015 128.884 19.6934
5468 1 1.79552 132.049 20.9725
11644 2 2.70487 130.464 19.6901
5151 1 4.52346 130.469 20.9768
11642 2 5.43319 132.043 19.6857
5153 1 7.25176 132.049 20.9725
11343 2 8.16111 130.464 19.6901
4823 1 9.9797 130.469 20.9768
11345 2 10.8894 132.043 19.6857
4561 1 15.4359 130.469 20.9768
4821 1 12.708 132.049 20.9725
11027 2 13.6173 130.464 19.6901
4563 1 18.1642 132.049 20.9725
11025 2 16.3457 132.043 19.6857
11979 2 21.8019 132.043 19.6857
4328 1 20.8922 130.469 20.9768
10800 2 19.0736 130.464 19.6901
5469 1 1.79598 135.21 20.9609
11643 2 2.70531 133.623 19.6804
5120 1 4.52385 133.63 20.9672
11645 2 5.43371 135.203 19.6741
5118 1 7.25221 135.21 20.9609
11304 2 8.16155 133.623 19.6804
4822 1 9.98009 133.63 20.9672
11302 2 10.8899 135.203 19.6741
4526 1 15.4363 133.63 20.9672
4824 1 12.7085 135.21 20.9609
11026 2 13.6178 133.623 19.6804
4524 1 18.1647 135.21 20.9609
11028 2 16.3462 135.203 19.6741
11962 2 21.8024 135.203 19.6741
4327 1 20.8926 133.63 20.9672
10773 2 19.074 133.623 19.6804
5452 1 1.79656 138.371 20.9455
11620 2 2.7059 136.783 19.6668
5119 1 4.52437 136.791 20.9537
11618 2 5.43437 138.362 19.6584
5121 1 7.2528 138.371 20.9455
11303 2 8.16214 136.783 19.6668
4785 1 9.98061 136.791 20.9537
11305 2 10.8906 138.362 19.6584
4525 1 15.4368 136.791 20.9537
4783 1 12.709 138.371 20.9455
10988 2 13.6184 136.783 19.6668
4527 1 18.1653 138.371 20.9455
10986 2 16.3468 138.362 19.6584
11963 2 21.8031 138.362 19.6584
4304 1 20.8931 136.791 20.9537
10772 2 19.0746 136.783 19.6668
5453 1 1.79728 141.531 20.926
11619 2 2.70665 139.942 19.6491
5096 1 4.52502 139.951 20.9362
11621 2 5.4352 141.521 19.6388
5094 1 7.25352 141.531 20.926
11272 2 8.16288 139.942 19.6491
4784 1 9.98126 139.951 20.9362
11270 2 10.8914 141.521 19.6388
4491 1 15.4375 139.951 20.9362
4786 1 12.7098 141.531 20.926
10987 2 13.6191 139.942 19.6491
4489 1 18.166 141.531 20.926
10989 2 16.3477 141.521 19.6388
11954 2 21.8039 141.521 19.6388
4303 1 20.8937 139.951 20.9362
10745 2 19.0754 139.942 19.6491
5444 1 1.79817 144.691 20.9027
11604 2 2.70756 143.1 19.6276
5095 1 4.52582 143.111 20.9149
11602 2 5.43621 144.679 19.6153
5097 1 7.25441 144.691 20.9027
11271 2 8.1638 143.1 19.6276
4755 1 9.98206 143.111 20.9149
11273 2 10.8925 144.679 19.6153
4490 1 15.4383 143.111 20.9149
4753 1 12.7106 144.691 20.9027
10956 2 13.62 143.1 19.6276
4492 1 18.1669 144.691 20.9027
10954 2 16.3487 144.679 19.6153
11955 2 21.8049 144.679 19.6153
4280 1 20.8945 143.111 20.9149
10744 2 19.0763 143.1 19.6276
5445 1 1.79926 147.85 20.8756
11603 2 2.70868 146.258 19.6021
5080 1 4.52681 146.271 20.8897
11605 2 5.43744 147.837 19.5879
5078 1 7.25549 147.85 20.8756
11248 2 8.16492 146.258 19.6021
4754 1 9.98304 146.271 20.8897
11246 2 10.8937 147.837 19.5879
4463 1 15.4393 146.271 20.8897
4756 1 12.7117 147.85 20.8756
10955 2 13.6212 146.258 19.6021
4461 1 18.168 147.85 20.8756
10957 2 16.3499 147.837 19.5879
11953 2 21.8062 147.837 19.5879
4279 1 20.8955 146.271 20.8897
10718 2 19.0774 146.258 19.6021
11593 2 2.71003 149.415 19.5727
1546 1 1.80058 151.008 20.8446
5079 1 4.528 149.429 20.8606
7492 2 5.43893 150.993 19.5566
11247 2 8.16627 149.415 19.5727
1264 1 7.25682 151.008 20.8446
4730 1 9.98424 149.429 20.8606
7184 2 10.8952 150.993 19.5566
4462 1 15.4405 149.429 20.8606
10929 2 13.6225 149.415 19.5727
913 1 12.7131 151.008 20.8446
584 1 18.1693 151.008 20.8446
6825 2 16.3514 150.993 19.5566
4256 1 20.8967 149.429 20.8606
10717 2 19.0787 149.415 19.5727
7790 2 21.8076 150.993 19.5566
5322 1 2.70622 102.003 23.4576
11803 2 0.887928 102.011 22.1705
5323 1 5.43407 103.584 23.4705
11801 2 3.6157 103.592 22.1835
4982 1 8.16246 102.003 23.4576
11506 2 6.34417 102.011 22.1705
11507 2 9.07194 103.592 22.1835
11158 2 11.8004 102.011 22.1705
4980 1 10.8903 103.584 23.4705
4666 1 13.6187 102.003 23.4576
11156 2 14.5282 103.592 22.1835
10874 2 17.2566 102.011 22.1705
4667 1 16.3465 103.584 23.4705
4397 1 19.0749 102.003 23.4576
5601 1 21.8028 103.584 23.4705
10875 2 19.9844 103.592 22.1835
5282 1 2.70572 105.165 23.4825
11802 2 0.887274 105.172 22.1956
4981 1 8.16195 105.165 23.4825
11474 2 6.34351 105.172 22.1956
11157 2 11.7998 105.172 22.1956
4650 1 13.6182 105.165 23.4825
10866 2 17.256 105.172 22.1956
4396 1 19.0744 105.165 23.4825
5281 1 2.70534 108.329 23.5038
11758 2 0.886777 108.334 22.2171
5280 1 5.43363 106.747 23.4936
11804 2 3.61513 106.753 22.2068
4950 1 8.16158 108.329 23.5038
11472 2 9.07137 106.753 22.2068
11473 2 6.34302 108.334 22.2171
4983 1 10.8899 106.747 23.4936
11134 2 11.7993 108.334 22.2171
4649 1 13.6178 108.329 23.5038
11159 2 14.5276 106.753 22.2068
4648 1 16.3461 106.747 23.4936
10865 2 17.2555 108.334 22.2171
5602 1 21.8023 106.747 23.4936
4389 1 19.0741 108.329 23.5038
10864 2 19.9838 106.753 22.2068
5235 1 2.70507 111.492 23.5213
11757 2 0.886411 111.496 22.2348
5283 1 5.43331 109.91 23.513
11756 2 3.6147 109.915 22.2264
4949 1 8.16131 111.492 23.5213
11434 2 6.34265 111.496 22.2348
11475 2 9.07094 109.915 22.2264
4948 1 10.8896 109.91 23.513
11133 2 11.7989 111.496 22.2348
4626 1 13.6176 111.492 23.5213
11132 2 14.5272 109.915 22.2264
4651 1 16.3458 109.91 23.513
10850 2 17.2551 111.496 22.2348
5561 1 21.802 109.91 23.513
4388 1 19.0738 111.492 23.5213
10867 2 19.9834 109.915 22.2264
5234 1 2.7049 114.656 23.5351
11712 2 0.886161 114.659 22.2487
5233 1 5.43309 113.074 23.5287
11759 2 3.61439 113.078 22.2423
4910 1 8.16114 114.656 23.5351
11432 2 9.07063 113.078 22.2423
11433 2 6.3424 114.659 22.2487
4951 1 10.8893 113.074 23.5287
11102 2 11.7986 114.659 22.2487
4625 1 13.6174 114.656 23.5351
11135 2 14.5269 113.078 22.2423
4624 1 16.3456 113.074 23.5287
10849 2 17.2549 114.659 22.2487
5562 1 21.8018 113.074 23.5287
4373 1 19.0736 114.656 23.5351
10848 2 19.9831 113.078 22.2423
5188 1 2.7048 117.821 23.5451
11711 2 0.886016 117.822 22.2588
5236 1 5.43296 116.239 23.5406
11710 2 3.6142 116.24 22.2542
4909 1 8.16104 117.821 23.5451
11387 2 6.34225 117.822 22.2588
11435 2 9.07043 116.24 22.2542
4908 1 10.8892 116.239 23.5406
11101 2 11.7985 117.822 22.2588
4594 1 13.6173 117.821 23.5451
11100 2 14.5267 116.24 22.2542
4627 1 16.3454 116.239 23.5406
10826 2 17.2547 117.822 22.2588
5522 1 21.8017 116.239 23.5406
4372 1 19.0735 117.821 23.5451
10851 2 19.9829 116.24 22.2542
5187 1 2.70478 120.985 23.5512
11672 2 0.885969 120.985 22.265
5186 1 5.4329 119.403 23.5487
11713 2 3.6141 119.403 22.2624
4864 1 8.16102 120.985 23.5512
11385 2 9.07034 119.403 22.2624
11386 2 6.34221 120.985 22.265
4911 1 10.8891 119.403 23.5487
11063 2 11.7984 120.985 22.265
4593 1 13.6173 120.985 23.5512
11103 2 14.5266 119.403 22.2624
4592 1 16.3454 119.403 23.5487
10825 2 17.2547 120.985 22.265
5523 1 21.8016 119.403 23.5487
4350 1 19.0735 120.985 23.5512
10824 2 19.9828 119.403 22.2624
5148 1 2.70484 124.15 23.5535
11671 2 0.886017 124.148 22.2672
5189 1 5.43292 122.568 23.5529
11670 2 3.6141 122.566 22.2666
4863 1 8.16108 124.15 23.5535
11340 2 6.34226 124.148 22.2672
11388 2 9.07034 122.566 22.2666
4862 1 10.8892 122.568 23.5529
11062 2 11.7985 124.148 22.2672
4558 1 13.6173 124.15 23.5535
11061 2 14.5266 122.566 22.2666
4595 1 16.3454 122.568 23.5529
10798 2 17.2547 124.148 22.2672
5490 1 21.8016 122.568 23.5529
4349 1 19.0736 124.15 23.5535
10827 2 19.9828 122.566 22.2666
5147 1 2.70497 127.314 23.5519
11640 2 0.886159 127.311 22.2656
5146 1 5.43301 125.732 23.5532
11673 2 3.6142 125.729 22.2669
11338 2 9.07043 125.729 22.2669
4819 1 8.16121 127.314 23.5519
11339 2 6.3424 127.311 22.2656
4865 1 10.8893 125.732 23.5532
11023 2 11.7986 127.311 22.2656
11064 2 14.5267 125.729 22.2669
4557 1 13.6174 127.314 23.5519
4556 1 16.3455 125.732 23.5532
10797 2 17.2549 127.311 22.2656
5491 1 21.8017 125.732 23.5532
10796 2 19.9829 125.729 22.2669
4326 1 19.0737 127.314 23.5519
5149 1 5.43318 128.897 23.5496
11638 2 3.61438 128.892 22.2633
11341 2 9.07062 128.892 22.2633
4817 1 10.8894 128.897 23.5496
11021 2 14.5269 128.892 22.2633
4559 1 16.3457 128.897 23.5496
5466 1 21.8019 128.897 23.5496
10799 2 19.9831 128.892 22.2633
5116 1 2.70517 130.479 23.5464
11639 2 0.886394 130.474 22.26
5114 1 5.43341 132.061 23.5422
11641 2 3.61467 132.055 22.2558
4818 1 8.16141 130.479 23.5464
11298 2 9.07091 132.055 22.2558
11300 2 6.34263 130.474 22.26
4820 1 10.8897 132.061 23.5422
11022 2 11.7989 130.474 22.26
4522 1 13.6176 130.479 23.5464
11024 2 14.5271 132.055 22.2558
4520 1 16.3459 132.061 23.5422
10770 2 17.2551 130.474 22.26
5467 1 21.8021 132.061 23.5422
4325 1 19.0739 130.479 23.5464
10768 2 19.9834 132.055 22.2558
5115 1 2.70544 133.643 23.537
11616 2 0.886727 133.636 22.2505
5117 1 5.43373 135.225 23.5308
11614 2 3.61505 135.218 22.2443
4781 1 8.16168 133.643 23.537
11299 2 6.34296 133.636 22.2505
11301 2 9.07129 135.218 22.2443
4779 1 10.89 135.225 23.5308
10984 2 11.7992 133.636 22.2505
4521 1 13.6179 133.643 23.537
10982 2 14.5275 135.218 22.2443
4523 1 16.3462 135.225 23.5308
10769 2 17.2554 133.636 22.2505
5450 1 21.8024 135.225 23.5308
4302 1 19.0742 133.643 23.537
10771 2 19.9838 135.218 22.2443
5092 1 2.7058 136.807 23.5237
11615 2 0.887161 136.799 22.2372
5090 1 5.43413 138.389 23.5157
11617 2 3.61554 138.38 22.229
4780 1 8.16204 136.807 23.5237
11266 2 9.07178 138.38 22.229
11268 2 6.3434 136.799 22.2372
4782 1 10.8904 138.389 23.5157
10983 2 11.7996 136.799 22.2372
4487 1 13.6183 136.807 23.5237
10985 2 14.528 138.38 22.229
4485 1 16.3466 138.389 23.5157
10742 2 17.2559 136.799 22.2372
5451 1 21.8028 138.389 23.5157
4301 1 19.0745 136.807 23.5237
10740 2 19.9843 138.38 22.229
5091 1 2.70624 139.97 23.5066
11600 2 0.887707 139.961 22.2199
5093 1 5.43462 141.552 23.4967
11598 2 3.61615 141.542 22.2098
4751 1 8.16248 139.97 23.5066
11267 2 6.34395 139.961 22.2199
11269 2 9.07238 141.542 22.2098
4749 1 10.8909 141.552 23.4967
10952 2 11.8002 139.961 22.2199
4486 1 13.6187 139.97 23.5066
10950 2 14.5286 141.542 22.2098
4488 1 16.3471 141.552 23.4967
10741 2 17.2564 139.961 22.2199
5442 1 21.8033 141.552 23.4967
4278 1 19.075 139.97 23.5066
10743 2 19.9849 141.542 22.2098
5076 1 2.70678 143.133 23.4857
11599 2 0.888381 143.122 22.1988
5074 1 5.43522 144.715 23.4739
11601 2 3.61689 144.703 22.1868
4750 1 8.16302 143.133 23.4857
11242 2 9.07313 144.703 22.1868
11244 2 6.34462 143.122 22.1988
4752 1 10.8915 144.715 23.4739
10951 2 11.8009 143.122 22.1988
4459 1 13.6193 143.133 23.4857
10953 2 14.5294 144.703 22.1868
4457 1 16.3477 144.715 23.4739
10715 2 17.2571 143.122 22.1988
5443 1 21.8039 144.715 23.4739
4277 1 19.0755 143.133 23.4857
10713 2 19.9856 144.703 22.1868
5075 1 2.70745 146.296 23.4611
11592 2 0.889206 146.283 22.1739
5077 1 5.43596 147.876 23.4474
11590 2 3.61781 147.863 22.16
4729 1 8.16369 146.296 23.4611
11243 2 6.34544 146.283 22.1739
11245 2 9.07404 147.863 22.16
4727 1 10.8922 147.876 23.4474
10928 2 11.8017 146.283 22.1739
4458 1 13.6199 146.296 23.4611
10926 2 14.5303 147.863 22.16
4460 1 16.3484 147.876 23.4474
10714 2 17.2579 146.283 22.1739
5441 1 21.8047 147.876 23.4474
4255 1 19.0762 146.296 23.4611
10716 2 19.9865 147.863 22.16
5065 1 2.70828 149.457 23.4328
11591 2 0.890218 149.443 22.1452
1225 1 5.43689 151.037 23.4172
7491 2 3.61893 151.022 22.1295
4728 1 8.16452 149.457 23.4328
11225 2 6.34646 149.443 22.1452
7153 2 9.07517 151.022 22.1295
10927 2 11.8027 149.443 22.1452
912 1 10.8931 151.037 23.4172
4436 1 13.6208 149.457 23.4328
6824 2 14.5314 151.022 22.1295
10692 2 17.2589 149.443 22.1452
569 1 16.3494 151.037 23.4172
4254 1 19.077 149.457 23.4328
1545 1 21.8056 151.037 23.4172
6521 2 19.9876 151.022 22.1295
11800 2 1.79681 103.576 24.7542
5278 1 0.887333 101.985 26.0282
11466 2 2.70648 101.977 27.3116
11470 2 4.52512 101.994 24.7414
11467 2 5.43457 103.56 27.324
5276 1 3.61535 103.568 26.0408
11468 2 7.25304 103.576 24.7542
4978 1 6.34357 101.985 26.0282
11126 2 8.16272 101.977 27.3116
4979 1 9.07159 103.568 26.0408
11154 2 9.98135 101.994 24.7414
4646 1 11.7998 101.985 26.0282
11124 2 10.8908 103.56 27.324
10862 2 15.4376 101.994 24.7414
11155 2 12.7093 103.576 24.7542
10858 2 13.619 101.977 27.3116
4644 1 14.5278 103.568 26.0408
10860 2 18.1655 103.576 24.7542
4394 1 17.256 101.985 26.0282
10859 2 16.3471 103.56 27.324
10656 2 20.8938 101.994 24.7414
10653 2 19.0752 101.977 27.3116
11752 2 21.8033 103.56 27.324
4395 1 19.9841 103.568 26.0408
5277 1 0.887144 105.151 26.0525
11426 2 2.70644 105.144 27.3356
11469 2 4.52476 105.158 24.7661
4946 1 6.34338 105.151 26.0525
11125 2 8.16268 105.144 27.3356
11130 2 9.981 105.158 24.7661
4645 1 11.7996 105.151 26.0525
10861 2 15.4372 105.158 24.7661
10842 2 13.6189 105.144 27.3356
4386 1 17.2559 105.151 26.0525
10655 2 20.8935 105.158 24.7661
10652 2 19.0752 105.144 27.3356
11754 2 1.79651 106.741 24.777
5231 1 0.887026 108.317 26.0733
11425 2 2.70644 108.312 27.3562
5279 1 3.6152 106.734 26.0634
11430 2 4.52451 108.323 24.7871
11424 2 5.43455 106.728 27.3464
11471 2 7.25275 106.741 24.777
4944 1 9.07144 106.734 26.0634
4945 1 6.34326 108.317 26.0733
11094 2 8.16268 108.312 27.3562
4622 1 11.7995 108.317 26.0733
11129 2 9.98075 108.323 24.7871
11127 2 10.8908 106.728 27.3464
11128 2 12.709 106.741 24.777
4647 1 14.5277 106.734 26.0634
10846 2 15.437 108.323 24.7871
10841 2 13.6189 108.312 27.3562
10863 2 18.1652 106.741 24.777
4385 1 17.2557 108.317 26.0733
10840 2 16.347 106.728 27.3464
4384 1 19.9839 106.734 26.0634
10654 2 20.8932 108.323 24.7871
11753 2 21.8033 106.728 27.3464
10645 2 19.0752 108.312 27.3562
5230 1 0.886959 111.484 26.0905
11755 2 1.7963 109.906 24.7962
11379 2 2.70646 111.48 27.3733
5229 1 3.61511 109.901 26.0824
11429 2 4.52434 111.488 24.8044
11427 2 5.43457 109.896 27.3652
4906 1 6.3432 111.484 26.0905
4947 1 9.07134 109.901 26.0824
11428 2 7.25254 109.906 24.7962
11093 2 8.1627 111.48 27.3733
4621 1 11.7994 111.484 26.0905
11098 2 9.98058 111.488 24.8044
11092 2 10.8908 109.896 27.3652
4620 1 14.5276 109.901 26.0824
10845 2 15.4368 111.488 24.8044
11131 2 12.7088 109.906 24.7962
10818 2 13.6189 111.48 27.3733
4370 1 17.2557 111.484 26.0905
10844 2 18.165 109.906 24.7962
10843 2 16.347 109.896 27.3652
4387 1 19.9838 109.901 26.0824
10647 2 20.8931 111.488 24.8044
11706 2 21.8033 109.896 27.3652
10644 2 19.0752 111.48 27.3733
5184 1 0.886932 114.651 26.1041
11708 2 1.79617 113.071 24.8117
11378 2 2.70651 114.649 27.3867
5232 1 3.61506 113.068 26.0978
11383 2 4.52424 114.654 24.8181
11377 2 5.4346 113.064 27.3804
4904 1 9.0713 113.068 26.0978
4905 1 6.34317 114.651 26.1041
11431 2 7.2524 113.071 24.8117
11055 2 8.16275 114.649 27.3867
4590 1 11.7994 114.651 26.1041
11097 2 9.98048 114.654 24.8181
11095 2 10.8908 113.064 27.3804
4623 1 14.5275 113.068 26.0978
10822 2 15.4367 114.654 24.8181
11096 2 12.7086 113.071 24.8117
10817 2 13.619 114.649 27.3867
4369 1 17.2556 114.651 26.1041
10847 2 18.1649 113.071 24.8117
10816 2 16.3471 113.064 27.3804
4368 1 19.9838 113.068 26.0978
10646 2 20.893 114.654 24.8181
11707 2 21.8033 113.064 27.3804
10630 2 19.0752 114.649 27.3867
5183 1 0.886941 117.819 26.1139
11709 2 1.79609 116.237 24.8235
5182 1 3.61505 116.235 26.1095
11382 2 4.5242 117.82 24.828
4860 1 6.34318 117.819 26.1139
4907 1 9.07129 116.235 26.1095
11381 2 7.25233 116.237 24.8235
4589 1 11.7994 117.819 26.1139
11059 2 9.98043 117.82 24.828
4588 1 14.5275 116.235 26.1095
10821 2 15.4367 117.82 24.828
11099 2 12.7086 116.237 24.8235
4347 1 17.2557 117.819 26.1139
10820 2 18.1648 116.237 24.8235
4371 1 19.9838 116.235 26.1095
10632 2 20.8929 117.82 24.828
5144 1 0.886981 120.986 26.1199
11668 2 1.79608 119.403 24.8315
5185 1 3.61508 119.402 26.1174
11336 2 4.52421 120.986 24.8341
4858 1 9.07131 119.402 26.1174
4859 1 6.34322 120.986 26.1199
11384 2 7.25231 119.403 24.8315
4554 1 11.7995 120.986 26.1199
11058 2 9.98044 120.986 24.8341
4591 1 14.5276 119.402 26.1174
10794 2 15.4367 120.986 24.8341
11057 2 12.7086 119.403 24.8315
4346 1 17.2557 120.986 26.1199
10823 2 18.1648 119.403 24.8315
4345 1 19.9838 119.402 26.1174
10631 2 20.8929 120.986 24.8341
5143 1 0.887051 124.154 26.1222
11669 2 1.79611 122.569 24.8357
5142 1 3.61513 122.57 26.1215
11335 2 4.52427 124.152 24.8363
4815 1 6.34329 124.154 26.1222
4861 1 9.07137 122.57 26.1215
11334 2 7.25235 122.569 24.8357
4553 1 11.7995 124.154 26.1222
11019 2 9.98051 124.152 24.8363
4552 1 14.5276 122.57 26.1215
10793 2 15.4367 124.152 24.8363
11060 2 12.7086 122.569 24.8357
4323 1 17.2558 124.154 26.1222
10792 2 18.1648 122.569 24.8357
4348 1 19.9838 122.57 26.1215
10616 2 20.893 124.152 24.8363
11636 2 1.7962 125.735 24.836
5112 1 0.887151 127.321 26.1206
5145 1 3.61522 125.738 26.1218
11296 2 4.52438 127.318 24.8347
4813 1 9.07145 125.738 26.1218
11337 2 7.25244 125.735 24.836
4814 1 6.34339 127.321 26.1206
4518 1 11.7996 127.321 26.1206
11018 2 9.98062 127.318 24.8347
4555 1 14.5277 125.738 26.1218
11017 2 12.7087 125.735 24.836
10766 2 15.4369 127.318 24.8347
10795 2 18.1649 125.735 24.836
4322 1 17.2559 127.321 26.1206
4321 1 19.9839 125.738 26.1218
10615 2 20.8931 127.318 24.8347
11637 2 1.79634 128.901 24.8324
5110 1 3.61533 128.905 26.1184
4816 1 9.07157 128.905 26.1184
11294 2 7.25258 128.901 24.8324
4516 1 14.5278 128.905 26.1184
11020 2 12.7088 128.901 24.8324
10764 2 18.1651 128.901 24.8324
4324 1 19.984 128.905 26.1184
5111 1 0.88728 130.489 26.1152
11612 2 1.79653 132.067 24.8251
5113 1 3.61547 132.072 26.111
11295 2 4.52455 130.484 24.8292
4775 1 9.07171 132.072 26.111
4777 1 6.34352 130.489 26.1152
11297 2 7.25277 132.067 24.8251
4517 1 11.7998 130.489 26.1152
10980 2 9.98079 130.484 24.8292
4519 1 14.528 132.072 26.111
10765 2 15.437 130.484 24.8292
10978 2 12.709 132.067 24.8251
4299 1 17.256 130.489 26.1152
10767 2 18.1652 132.067 24.8251
4297 1 19.9842 132.072 26.111
10600 2 20.8933 130.484 24.8292
5088 1 0.887438 133.656 26.106
11613 2 1.79678 135.232 24.8139
5086 1 3.61565 135.24 26.0999
11264 2 4.52477 133.649 24.8199
4776 1 6.34368 133.656 26.106
4778 1 9.07189 135.24 26.0999
11262 2 7.25301 135.232 24.8139
4483 1 11.7999 133.656 26.106
10979 2 9.981 133.649 24.8199
4481 1 14.5281 135.24 26.0999
10738 2 15.4372 133.649 24.8199
10981 2 12.7093 135.232 24.8139
4298 1 17.2562 133.656 26.106
10736 2 18.1655 135.232 24.8139
4300 1 19.9844 135.24 26.0999
10599 2 20.8935 133.649 24.8199
5087 1 0.887628 136.823 26.093
11596 2 1.79708 138.397 24.7988
5089 1 3.61586 138.406 26.0851
11263 2 4.52504 136.815 24.8068
4745 1 9.07209 138.406 26.0851
4747 1 6.34387 136.823 26.093
11265 2 7.25332 138.397 24.7988
4482 1 11.8001 136.823 26.093
10948 2 9.98128 136.815 24.8068
4484 1 14.5283 138.406 26.0851
10737 2 15.4375 136.815 24.8068
10946 2 12.7096 138.397 24.7988
4275 1 17.2563 136.823 26.093
10739 2 18.1658 138.397 24.7988
4273 1 19.9846 138.406 26.0851
10584 2 20.8938 136.815 24.8068
5072 1 0.887854 139.99 26.0762
11597 2 1.79745 141.562 24.78
5070 1 3.6161 141.573 26.0665
11240 2 4.52538 139.98 24.7899
4746 1 6.34409 139.99 26.0762
4748 1 9.07234 141.573 26.0665
11238 2 7.25369 141.562 24.78
4455 1 11.8003 139.99 26.0762
10947 2 9.98161 139.98 24.7899
4453 1 14.5286 141.573 26.0665
10711 2 15.4379 139.98 24.7899
10949 2 12.7099 141.562 24.78
4274 1 17.2566 139.99 26.0762
10709 2 18.1662 141.562 24.78
4276 1 19.9848 141.573 26.0665
10583 2 20.8941 139.98 24.7899
5071 1 0.888127 143.156 26.0558
11588 2 1.79791 144.726 24.7575
5073 1 3.61641 144.738 26.0442
11239 2 4.52579 143.144 24.7693
4723 1 9.07264 144.738 26.0442
4725 1 6.34437 143.156 26.0558
11241 2 7.25415 144.726 24.7575
4454 1 11.8006 143.156 26.0558
10924 2 9.98203 143.144 24.7693
4456 1 14.5289 144.738 26.0442
10710 2 15.4383 143.144 24.7693
10922 2 12.7104 144.726 24.7575
4252 1 17.2568 143.156 26.0558
10712 2 18.1666 144.726 24.7575
4250 1 19.9851 144.738 26.0442
10568 2 20.8945 143.144 24.7693
5064 1 0.888465 146.321 26.0317
11589 2 1.79848 147.89 24.7314
5062 1 3.61679 147.903 26.0184
11224 2 4.5263 146.308 24.7449
4724 1 6.3447 146.321 26.0317
4726 1 9.07302 147.903 26.0184
11222 2 7.25471 147.89 24.7314
4435 1 11.8009 146.321 26.0317
10923 2 9.98253 146.308 24.7449
4433 1 14.5293 147.903 26.0184
10691 2 15.4388 146.308 24.7449
10925 2 12.711 147.89 24.7314
4251 1 17.2572 146.321 26.0317
10689 2 18.1672 147.89 24.7314
4253 1 19.9855 147.903 26.0184
10567 2 20.895 146.308 24.7449
5063 1 0.888897 149.485 26.0041
7447 2 1.79919 151.052 24.7016
11223 2 4.52693 149.471 24.7169
1224 1 3.61728 151.067 25.989
7113 2 5.43608 151.082 27.2729
4708 1 6.34514 149.485 26.0041
881 1 9.07352 151.067 25.989
7152 2 7.25543 151.052 24.7016
4434 1 11.8014 149.485 26.0041
10905 2 9.98317 149.471 24.7169
6800 2 10.8923 151.082 27.2729
10690 2 15.4394 149.471 24.7169
568 1 14.5298 151.067 25.989
6801 2 12.7117 151.052 24.7016
4233 1 17.2576 149.485 26.0041
6520 2 18.1679 151.052 24.7016
6505 2 16.3486 151.082 27.2729
10552 2 20.8956 149.471 24.7169
297 1 19.986 151.067 25.989
7446 2 21.8048 151.082 27.2729
11422 2 0.888357 101.959 29.8807
5275 1 1.79709 103.552 28.6101
4942 1 4.52515 101.968 28.5978
11420 2 3.6166 103.544 29.8929
11122 2 6.3446 101.959 29.8807
4940 1 7.25333 103.552 28.6101
11123 2 9.07284 103.544 29.8929
4642 1 9.98139 101.968 28.5978
10838 2 11.8008 101.959 29.8807
4382 1 15.4376 101.968 28.5978
4643 1 12.7096 103.552 28.6101
10836 2 14.5291 103.544 29.8929
10650 2 17.2571 101.959 29.8807
4380 1 18.1658 103.552 28.6101
4208 1 20.8939 101.968 28.5978
10651 2 19.9853 103.544 29.8929
11421 2 0.88861 105.129 29.9043
4941 1 4.52527 105.137 28.6216
11090 2 6.34485 105.129 29.9043
4618 1 9.98151 105.137 28.6216
10837 2 11.8011 105.129 29.9043
4381 1 15.4377 105.137 28.6216
10642 2 17.2573 105.129 29.9043
4207 1 20.894 105.137 28.6216
5227 1 1.79722 106.721 28.6323
11375 2 0.888847 108.3 29.9245
4902 1 4.5254 108.306 28.642
11423 2 3.61685 106.715 29.9148
4943 1 7.25346 106.721 28.6323
11088 2 9.07309 106.715 29.9148
11089 2 6.34509 108.3 29.9245
4617 1 9.98164 108.306 28.642
10814 2 11.8013 108.3 29.9245
4366 1 15.4379 108.306 28.642
4616 1 12.7097 106.721 28.6323
10839 2 14.5293 106.715 29.9148
4383 1 18.1659 106.721 28.6323
10641 2 17.2576 108.3 29.9245
4206 1 20.8941 108.306 28.642
10640 2 19.9856 106.715 29.9148
5228 1 1.79735 109.891 28.6509
11374 2 0.889058 111.472 29.9412
4901 1 4.52553 111.476 28.6589
11373 2 3.61708 109.886 29.9333
4900 1 7.25359 109.891 28.6509
11051 2 6.3453 111.472 29.9412
11091 2 9.07331 109.886 29.9333
4586 1 9.98177 111.476 28.6589
10813 2 11.8015 111.472 29.9412
4365 1 15.438 111.476 28.6589
4619 1 12.7098 109.891 28.6509
10812 2 14.5296 109.886 29.9333
4364 1 18.1661 109.891 28.6509
10627 2 17.2578 111.472 29.9412
4199 1 20.8942 111.476 28.6589
10643 2 19.9858 109.886 29.9333
5180 1 1.79747 113.061 28.666
11328 2 0.889239 114.643 29.9544
4856 1 4.52565 114.646 28.6722
11376 2 3.61727 113.058 29.9483
4903 1 7.25371 113.061 28.666
11049 2 9.07351 113.058 29.9483
11050 2 6.34548 114.643 29.9544
4585 1 9.98189 114.646 28.6722
10786 2 11.8017 114.643 29.9544
4343 1 15.4381 114.646 28.6722
4584 1 12.71 113.061 28.666
10815 2 14.5297 113.058 29.9483
4367 1 18.1662 113.061 28.666
10626 2 17.258 114.643 29.9544
4198 1 20.8944 114.646 28.6722
10625 2 19.986 113.058 29.9483
11332 2 2.70656 117.818 27.3964
5181 1 1.79759 116.231 28.6775
11327 2 0.889389 117.815 29.964
11380 2 5.43465 116.233 27.392
4855 1 4.52576 117.817 28.6819
11326 2 3.61744 116.229 29.9597
11054 2 8.1628 117.818 27.3964
4854 1 7.25383 116.231 28.6775
11011 2 6.34563 117.815 29.964
11052 2 9.07368 116.229 29.9597
11053 2 10.8909 116.233 27.392
4550 1 9.982 117.817 28.6819
10785 2 11.8019 117.815 29.964
10790 2 13.619 117.818 27.3964
4342 1 15.4382 117.817 28.6819
4587 1 12.7101 116.231 28.6775
10784 2 14.5299 116.229 29.9597
10819 2 16.3471 116.233 27.392
4341 1 18.1663 116.231 28.6775
10611 2 17.2581 117.815 29.964
11666 2 21.8034 116.233 27.392
10629 2 19.0753 117.818 27.3964
4187 1 20.8945 117.817 28.6819
10628 2 19.9862 116.229 29.9597
11331 2 2.70663 120.987 27.4024
5140 1 1.79769 119.402 28.6853
11288 2 0.889509 120.987 29.9699
11330 2 5.43471 119.402 27.3998
4811 1 4.52585 120.987 28.6878
11329 2 3.61757 119.401 29.9674
11015 2 8.16287 120.987 27.4024
4857 1 7.25393 119.402 28.6853
11009 2 9.07381 119.401 29.9674
11010 2 6.34575 120.987 29.9699
11056 2 10.891 119.402 27.3998
4549 1 9.98209 120.987 28.6878
10758 2 11.802 120.987 29.9699
10789 2 13.6191 120.987 27.4024
4319 1 15.4383 120.987 28.6878
4548 1 12.7102 119.402 28.6853
10787 2 14.53 119.401 29.9674
10788 2 16.3472 119.402 27.3998
4344 1 18.1664 119.402 28.6853
10610 2 17.2582 120.987 29.9699
11667 2 21.8034 119.402 27.3998
10614 2 19.0753 120.987 27.4024
4186 1 20.8946 120.987 28.6878
10609 2 19.9863 119.401 29.9674
11292 2 2.70671 124.156 27.4046
5141 1 1.79778 122.572 28.6894
11287 2 0.889599 124.16 29.9721
11333 2 5.43479 122.571 27.4039
4810 1 4.52594 124.158 28.69
11286 2 3.61768 122.574 29.9714
11014 2 8.16295 124.156 27.4046
4809 1 7.25402 122.572 28.6894
10972 2 6.34584 124.16 29.9721
11012 2 9.07392 122.574 29.9714
11013 2 10.891 122.571 27.4039
4514 1 9.98218 124.158 28.69
10757 2 11.8021 124.16 29.9721
10762 2 13.6192 124.156 27.4046
4318 1 15.4384 124.158 28.69
4551 1 12.7103 122.572 28.6894
10756 2 14.5302 122.574 29.9714
10791 2 16.3473 122.571 27.4039
4317 1 18.1665 122.572 28.6894
10595 2 17.2583 124.16 29.9721
11634 2 21.8035 122.571 27.4039
10613 2 19.0754 124.156 27.4046
4175 1 20.8947 124.158 28.69
10612 2 19.9864 122.574 29.9714
11291 2 2.70679 127.325 27.403
5108 1 1.79786 125.743 28.6897
11256 2 0.889659 127.332 29.9705
11290 2 5.43487 125.74 27.4043
11289 2 3.61775 125.746 29.9718
4773 1 4.52601 127.328 28.6885
10976 2 8.16303 127.325 27.403
4812 1 7.2541 125.743 28.6897
10970 2 9.07399 125.746 29.9718
10971 2 6.3459 127.332 29.9705
11016 2 10.8911 125.74 27.4043
4513 1 9.98225 127.328 28.6885
10730 2 11.8021 127.332 29.9705
10761 2 13.6193 127.325 27.403
4512 1 12.7103 125.743 28.6897
10759 2 14.5302 125.746 29.9718
4295 1 15.4385 127.328 28.6885
10760 2 16.3473 125.74 27.4043
4320 1 18.1666 125.743 28.6897
10594 2 17.2584 127.332 29.9705
11635 2 21.8036 125.74 27.4043
10598 2 19.0755 127.325 27.403
10593 2 19.9865 125.746 29.9718
4174 1 20.8947 127.328 28.6885
5109 1 1.79792 128.914 28.6863
11293 2 5.43496 128.909 27.4008
11254 2 3.6178 128.918 29.9684
4771 1 7.25416 128.914 28.6863
10973 2 9.07404 128.918 29.9684
10974 2 10.8912 128.909 27.4008
4515 1 12.7104 128.914 28.6863
10728 2 14.5303 128.918 29.9684
10763 2 16.3474 128.909 27.4008
4293 1 18.1666 128.914 28.6863
11610 2 21.8037 128.909 27.4008
10596 2 19.9865 128.918 29.9684
11260 2 2.70689 130.494 27.3977
5084 1 1.79798 132.084 28.6791
11255 2 0.889688 130.504 29.9653
11258 2 5.43506 132.078 27.3936
4772 1 4.52607 130.499 28.6832
11257 2 3.61781 132.09 29.9613
10975 2 8.16313 130.494 27.3977
4774 1 7.25421 132.084 28.6791
10938 2 9.07405 132.09 29.9613
10940 2 6.34593 130.504 29.9653
10977 2 10.8913 132.078 27.3936
4479 1 9.98231 130.499 28.6832
10729 2 11.8022 130.504 29.9653
10734 2 13.6194 130.494 27.3977
4294 1 15.4385 130.499 28.6832
4477 1 12.7105 132.084 28.6791
10731 2 14.5303 132.09 29.9613
10732 2 16.3475 132.078 27.3936
4296 1 18.1667 132.084 28.6791
10579 2 17.2584 130.504 29.9653
11611 2 21.8038 132.078 27.3936
10597 2 19.0756 130.494 27.3977
4163 1 20.8948 130.499 28.6832
10577 2 19.9865 132.09 29.9613
11259 2 2.70699 133.662 27.3885
5085 1 1.79801 135.254 28.6682
11232 2 0.889684 133.676 29.9563
4743 1 4.52612 133.669 28.6741
11230 2 3.61779 135.261 29.9504
11261 2 5.43517 135.247 27.3826
10944 2 8.16323 133.662 27.3885
4741 1 7.25425 135.254 28.6682
10939 2 6.34592 133.676 29.9563
10941 2 9.07403 135.261 29.9504
4478 1 9.98235 133.669 28.6741
10703 2 11.8022 133.676 29.9563
10942 2 10.8914 135.247 27.3826
10733 2 13.6195 133.662 27.3885
4271 1 15.4386 133.669 28.6741
4480 1 12.7105 135.254 28.6682
10701 2 14.5303 135.261 29.9504
4269 1 18.1667 135.254 28.6682
10578 2 17.2584 133.676 29.9563
10735 2 16.3476 135.247 27.3826
10582 2 19.0757 133.662 27.3885
11594 2 21.8039 135.247 27.3826
4162 1 20.8948 133.669 28.6741
10580 2 19.9865 135.261 29.9504
5068 1 1.79804 138.424 28.6536
11231 2 0.889644 136.847 29.9437
11236 2 2.70711 136.831 27.3757
4742 1 4.52615 136.839 28.6614
11233 2 3.61773 138.433 29.936
11234 2 5.43529 138.415 27.3678
4744 1 7.25427 138.424 28.6536
10914 2 9.07397 138.433 29.936
10916 2 6.34588 136.847 29.9437
10943 2 8.16334 136.831 27.3757
4451 1 9.98238 136.839 28.6614
10702 2 11.8021 136.847 29.9437
10945 2 10.8915 138.415 27.3678
4270 1 15.4386 136.839 28.6614
4449 1 12.7105 138.424 28.6536
10704 2 14.5302 138.433 29.936
10707 2 13.6196 136.831 27.3757
4272 1 18.1668 138.424 28.6536
10563 2 17.2584 136.847 29.9437
10705 2 16.3478 138.415 27.3678
11595 2 21.804 138.415 27.3678
4151 1 20.8949 136.839 28.6614
10561 2 19.9864 138.433 29.936
10581 2 19.0758 136.831 27.3757
5069 1 1.79805 141.593 28.6354
11216 2 0.88957 140.018 29.9274
11235 2 2.70723 139.999 27.3591
4721 1 4.52616 140.009 28.645
11214 2 3.61764 141.604 29.9179
11237 2 5.43542 141.583 27.3494
4719 1 7.25428 141.593 28.6354
10915 2 6.34581 140.018 29.9274
10917 2 9.07388 141.604 29.9179
10920 2 8.16347 139.999 27.3591
4450 1 9.9824 140.009 28.645
10683 2 11.802 140.018 29.9274
10918 2 10.8917 141.583 27.3494
4248 1 15.4386 140.009 28.645
4452 1 12.7105 141.593 28.6354
10681 2 14.5301 141.604 29.9179
10706 2 13.6197 139.999 27.3591
4246 1 18.1668 141.593 28.6354
10562 2 17.2583 140.018 29.9274
10708 2 16.3479 141.583 27.3494
11586 2 21.8041 141.583 27.3494
4150 1 20.8949 140.009 28.645
10564 2 19.9864 141.604 29.9179
10566 2 19.0759 139.999 27.3591
5060 1 1.79805 144.762 28.6137
11215 2 0.889462 143.189 29.9076
11220 2 2.70738 143.167 27.3389
4720 1 4.52617 143.178 28.625
11217 2 3.61752 144.774 29.8964
11218 2 5.43558 144.75 27.3274
4722 1 7.25429 144.762 28.6137
10898 2 9.07376 144.774 29.8964
10900 2 6.3457 143.189 29.9076
10919 2 8.16362 143.167 27.3389
4431 1 9.98241 143.178 28.625
10682 2 11.8019 143.189 29.9076
10921 2 10.8918 144.75 27.3274
4247 1 15.4386 143.178 28.625
4429 1 12.7105 144.762 28.6137
10684 2 14.53 144.774 29.8964
10687 2 13.6199 143.167 27.3389
4249 1 18.1668 144.762 28.6137
10548 2 17.2582 143.189 29.9076
10685 2 16.3481 144.75 27.3274
11587 2 21.8043 144.75 27.3274
4139 1 20.8949 143.178 28.625
10546 2 19.9862 144.774 29.8964
10565 2 19.0761 143.167 27.3389
5061 1 1.79807 147.93 28.5884
11208 2 0.88933 146.359 29.8843
11219 2 2.70756 146.334 27.3151
4707 1 4.52618 146.346 28.6015
11206 2 3.61738 147.944 29.8714
11221 2 5.43579 147.917 27.3019
4705 1 7.25431 147.93 28.5884
10899 2 6.34557 146.359 29.8843
10901 2 9.07362 147.944 29.8714
10904 2 8.1638 146.334 27.3151
4430 1 9.98241 146.346 28.6015
10671 2 11.8018 146.359 29.8843
10902 2 10.892 147.917 27.3019
4232 1 15.4387 146.346 28.6015
4432 1 12.7105 147.93 28.5884
10669 2 14.5299 147.944 29.8714
10686 2 13.62 146.334 27.3151
4230 1 18.1668 147.93 28.5884
10547 2 17.258 146.359 29.8843
10688 2 16.3483 147.917 27.3019
11585 2 21.8045 147.917 27.3019
4138 1 20.8949 146.346 28.6015
10549 2 19.9861 147.944 29.8714
10551 2 19.0763 146.334 27.3151
11207 2 0.889192 149.529 29.8576
11209 2 2.70781 149.5 27.2878
1178 1 1.79813 151.098 28.5598
4706 1 4.52621 149.514 28.5745
7112 2 3.61725 151.113 29.8431
10889 2 6.34543 149.529 29.8576
10903 2 8.16405 149.5 27.2878
880 1 7.25437 151.098 28.5598
6769 2 9.07349 151.113 29.8431
4416 1 9.98245 149.514 28.5745
10670 2 11.8017 149.529 29.8576
4231 1 15.4387 149.514 28.5745
10672 2 13.6203 149.5 27.2878
545 1 12.7106 151.098 28.5598
6504 2 14.5297 151.113 29.8431
10537 2 17.2579 149.529 29.8576
296 1 18.1668 151.098 28.5598
4127 1 20.8949 149.514 28.5745
10550 2 19.0765 149.5 27.2878
6297 2 19.986 151.113 29.8431
4938 1 2.70728 101.95 31.1664
11419 2 1.79921 103.528 32.4607
11086 2 4.52706 101.941 32.4487
4939 1 5.43561 103.536 31.1785
4614 1 8.16352 101.95 31.1664
11084 2 7.25545 103.528 32.4607
10834 2 9.9833 101.941 32.4487
4612 1 10.8918 103.536 31.1785
4378 1 13.6198 101.95 31.1664
10638 2 15.4395 101.941 32.4487
10835 2 12.7117 103.528 32.4607
4379 1 16.3481 103.536 31.1785
10636 2 18.1679 103.528 32.4607
4205 1 19.076 101.95 31.1664
10528 2 20.8958 101.941 32.4487
5225 1 21.8043 103.536 31.1785
4898 1 2.70769 105.122 31.1898
11371 2 1.79969 106.702 32.4823
11085 2 4.52758 105.115 32.4719
4613 1 8.16393 105.122 31.1898
11087 2 7.25593 106.702 32.4823
10810 2 9.98382 105.115 32.4719
4362 1 13.6202 105.122 31.1898
10637 2 15.4401 105.115 32.4719
10808 2 12.7122 106.702 32.4823
10639 2 18.1684 106.702 32.4823
4204 1 19.0764 105.122 31.1898
10527 2 20.8963 105.115 32.4719
4897 1 2.70805 108.295 31.2098
4896 1 5.436 106.708 31.2002
11047 2 4.52803 108.289 32.4918
4582 1 8.16429 108.295 31.2098
4615 1 10.8922 106.708 31.2002
10809 2 9.98427 108.289 32.4918
4361 1 13.6205 108.295 31.2098
10623 2 15.4405 108.289 32.4918
4360 1 16.3485 106.708 31.2002
5226 1 21.8047 106.708 31.2002
4197 1 19.0768 108.295 31.2098
10526 2 20.8967 108.289 32.4918
4852 1 2.70836 111.468 31.2264
11372 2 1.80011 109.876 32.5005
4899 1 5.43633 109.881 31.2186
11046 2 4.5284 111.463 32.5083
4581 1 8.1646 111.468 31.2264
11045 2 7.25635 109.876 32.5005
4580 1 10.8926 109.881 31.2186
10782 2 9.98464 111.463 32.5083
4339 1 13.6208 111.468 31.2264
10622 2 15.4409 111.463 32.5083
10811 2 12.7126 109.876 32.5005
4363 1 16.3488 109.881 31.2186
10621 2 18.1688 109.876 32.5005
5178 1 21.805 109.881 31.2186
4196 1 19.0771 111.468 31.2264
10523 2 20.8971 111.463 32.5083
4851 1 2.70861 114.641 31.2395
11324 2 1.80045 113.051 32.5152
4850 1 5.43661 113.054 31.2334
11007 2 4.52871 114.638 32.5213
4546 1 8.16485 114.641 31.2395
11048 2 7.25669 113.051 32.5152
4583 1 10.8929 113.054 31.2334
10781 2 9.98495 114.638 32.5213
4338 1 13.6211 114.641 31.2395
10607 2 15.4412 114.638 32.5213
10780 2 12.7129 113.051 32.5152
4337 1 16.3491 113.054 31.2334
10624 2 18.1692 113.051 32.5152
5179 1 21.8053 113.054 31.2334
4185 1 19.0773 114.641 31.2395
10522 2 20.8974 114.638 32.5213
4807 1 2.70881 117.814 31.249
11325 2 1.80072 116.226 32.5265
4853 1 5.43684 116.228 31.2447
11006 2 4.52894 117.813 32.5307
4545 1 8.16505 117.814 31.249
11005 2 7.25695 116.226 32.5265
4544 1 10.8931 116.228 31.2447
10754 2 9.98518 117.813 32.5307
4315 1 13.6213 117.814 31.249
10606 2 15.4414 117.813 32.5307
10783 2 12.7132 116.226 32.5265
4340 1 16.3493 116.228 31.2447
10605 2 18.1694 116.226 32.5265
5138 1 21.8056 116.228 31.2447
4184 1 19.0775 117.814 31.249
10519 2 20.8977 117.813 32.5307
4806 1 2.70896 120.988 31.2549
11284 2 1.80092 119.401 32.5341
4805 1 5.43701 119.401 31.2524
10968 2 4.52911 120.988 32.5366
4510 1 8.1652 120.988 31.2549
11008 2 7.25715 119.401 32.5341
4547 1 10.8933 119.401 31.2524
10753 2 9.98535 120.988 32.5366
4314 1 13.6214 120.988 31.2549
10591 2 15.4416 120.988 32.5366
10752 2 12.7134 119.401 32.5341
4313 1 16.3495 119.401 31.2524
10608 2 18.1696 119.401 32.5341
5139 1 21.8057 119.401 31.2524
4173 1 19.0777 120.988 31.2549
10518 2 20.8978 120.988 32.5366
4769 1 2.70906 124.162 31.2571
11285 2 1.80105 122.576 32.5381
4808 1 5.43713 122.575 31.2565
10967 2 4.52921 124.164 32.5387
4509 1 8.1653 124.162 31.2571
10966 2 7.25729 122.576 32.5381
4508 1 10.8934 122.575 31.2565
10726 2 9.98545 124.164 32.5387
4291 1 13.6215 124.162 31.2571
10590 2 15.4417 124.164 32.5387
10755 2 12.7135 122.576 32.5381
4316 1 16.3496 122.575 31.2565
10589 2 18.1698 122.576 32.5381
5106 1 21.8058 122.575 31.2565
4172 1 19.0778 124.162 31.2571
10515 2 20.8979 124.164 32.5387
11252 2 1.80112 125.751 32.5384
4768 1 2.7091 127.335 31.2556
4767 1 5.43721 125.748 31.2568
10936 2 4.52925 127.339 32.5372
10969 2 7.25736 125.751 32.5384
4475 1 8.16534 127.335 31.2556
4511 1 10.8934 125.748 31.2568
10725 2 9.98549 127.339 32.5372
10724 2 12.7136 125.751 32.5384
4290 1 13.6216 127.335 31.2556
10575 2 15.4417 127.339 32.5372
4289 1 16.3497 125.748 31.2568
10592 2 18.1698 125.751 32.5384
5107 1 21.8059 125.748 31.2568
4161 1 19.0778 127.335 31.2556
10514 2 20.898 127.339 32.5372
11253 2 1.80112 128.926 32.5351
4770 1 5.43723 128.922 31.2534
10934 2 7.25736 128.926 32.5351
4473 1 10.8935 128.922 31.2534
10727 2 12.7136 128.926 32.5351
4292 1 16.3497 128.922 31.2534
10573 2 18.1698 128.926 32.5351
5082 1 21.8059 128.922 31.2534
4739 1 2.7091 130.509 31.2504
11228 2 1.80105 132.101 32.5281
4737 1 5.43719 132.096 31.2464
10935 2 4.52922 130.514 32.532
4474 1 8.16534 130.509 31.2504
10937 2 7.25729 132.101 32.5281
4476 1 10.8934 132.096 31.2464
10699 2 9.98545 130.514 32.532
4267 1 13.6216 130.509 31.2504
10574 2 15.4417 130.514 32.532
10697 2 12.7135 132.101 32.5281
4265 1 16.3497 132.096 31.2464
10576 2 18.1698 132.101 32.5281
5083 1 21.8059 132.096 31.2464
4160 1 19.0778 130.509 31.2504
10511 2 20.8979 130.514 32.532
4738 1 2.70904 133.682 31.2415
11229 2 1.80092 135.276 32.5174
4740 1 5.43711 135.269 31.2357
10912 2 4.52911 133.689 32.5232
4447 1 8.16528 133.682 31.2415
10910 2 7.25715 135.276 32.5174
4445 1 10.8933 135.269 31.2357
10698 2 9.98535 133.689 32.5232
4266 1 13.6215 133.682 31.2415
10559 2 15.4416 133.689 32.5232
10700 2 12.7134 135.276 32.5174
4268 1 16.3496 135.269 31.2357
10557 2 18.1696 135.276 32.5174
5066 1 21.8058 135.269 31.2357
4149 1 19.0778 133.682 31.2415
10510 2 20.8978 133.689 32.5232
4717 1 2.70892 136.855 31.2289
11212 2 1.8007 138.451 32.5032
4715 1 5.43696 138.442 31.2213
10911 2 4.52894 136.863 32.5108
4446 1 8.16516 136.855 31.2289
10913 2 7.25694 138.451 32.5032
4448 1 10.8932 138.442 31.2213
10679 2 9.98517 136.863 32.5108
4244 1 13.6214 136.855 31.2289
10558 2 15.4414 136.863 32.5108
10677 2 12.7132 138.451 32.5032
4242 1 16.3494 138.442 31.2213
10560 2 18.1694 138.451 32.5032
5067 1 21.8057 138.442 31.2213
4148 1 19.0776 136.855 31.2289
10507 2 20.8977 136.863 32.5108
4716 1 2.70874 140.028 31.2128
11213 2 1.8004 141.625 32.4855
4718 1 5.43675 141.614 31.2034
10896 2 4.52868 140.038 32.4948
4427 1 8.16498 140.028 31.2128
10894 2 7.25664 141.625 32.4855
4425 1 10.893 141.614 31.2034
10678 2 9.98492 140.038 32.4948
4243 1 13.6212 140.028 31.2128
10544 2 15.4412 140.038 32.4948
10680 2 12.7129 141.625 32.4855
4245 1 16.3492 141.614 31.2034
10542 2 18.1691 141.625 32.4855
5058 1 21.8055 141.614 31.2034
4137 1 19.0775 140.028 31.2128
10506 2 20.8974 140.038 32.4948
4703 1 2.7085 143.201 31.1932
11204 2 1.80002 144.799 32.4643
4701 1 5.43647 144.786 31.1821
10895 2 4.52834 143.212 32.4753
4426 1 8.16474 143.201 31.1932
10897 2 7.25626 144.799 32.4643
4428 1 10.8927 144.786 31.1821
10667 2 9.98458 143.212 32.4753
4228 1 13.621 143.201 31.1932
10543 2 15.4408 143.212 32.4753
10665 2 12.7125 144.799 32.4643
4226 1 16.349 144.786 31.1821
10545 2 18.1687 144.799 32.4643
5059 1 21.8052 144.786 31.1821
4136 1 19.0772 143.201 31.1932
10503 2 20.8971 143.212 32.4753
4702 1 2.7082 146.372 31.1701
11205 2 1.79957 147.972 32.4398
4704 1 5.43615 147.958 31.1574
10888 2 4.52792 146.385 32.4524
4415 1 8.16444 146.372 31.1701
10886 2 7.25581 147.972 32.4398
4413 1 10.8924 147.958 31.1574
10666 2 9.98416 146.385 32.4524
4227 1 13.6207 146.372 31.1701
10536 2 15.4404 146.385 32.4524
10668 2 12.712 147.972 32.4398
4229 1 16.3486 147.958 31.1574
10534 2 18.1683 147.972 32.4398
5057 1 21.8049 147.958 31.1574
4126 1 19.0769 146.372 31.1701
10502 2 20.8966 146.385 32.4524
4694 1 2.70785 149.543 31.1438
7066 2 1.79905 151.144 32.412
10887 2 4.52743 149.558 32.4263
841 1 5.43579 151.128 31.1294
4414 1 8.16409 149.543 31.1438
6768 2 7.25529 151.144 32.412
10660 2 9.98367 149.558 32.4263
544 1 10.892 151.128 31.1294
4217 1 13.6203 149.543 31.1438
10535 2 15.4399 149.558 32.4263
6481 2 12.7115 151.144 32.412
281 1 16.3483 151.128 31.1294
6296 2 18.1678 151.144 32.412
4125 1 19.0766 149.543 31.1438
10499 2 20.8961 149.558 32.4263
1177 1 21.8045 151.128 31.1294
4894 1 0.890034 101.932 33.7339
11082 2 2.71018 101.923 35.0156
4892 1 3.6185 103.52 33.7458
11083 2 5.43868 103.511 35.0274
4610 1 6.34627 101.932 33.7339
10806 2 8.16641 101.923 35.0156
4611 1 9.07474 103.52 33.7458
4358 1 11.8025 101.932 33.7339
10804 2 10.8949 103.511 35.0274
10634 2 13.6227 101.923 35.0156
4356 1 14.531 103.52 33.7458
4202 1 17.2587 101.932 33.7339
10635 2 16.3512 103.511 35.0274
10525 2 19.0789 101.923 35.0156
11369 2 21.8074 103.511 35.0274
4203 1 19.9872 103.52 33.7458
4893 1 0.890699 105.107 33.7569
11043 2 2.71092 105.1 35.0385
11041 2 5.43937 106.689 35.0487
4895 1 3.61911 106.695 33.7672
4578 1 6.34694 105.107 33.7569
10805 2 8.16716 105.1 35.0385
4576 1 9.07535 106.695 33.7672
4357 1 11.8032 105.107 33.7569
10807 2 10.8956 106.689 35.0487
10619 2 13.6234 105.1 35.0385
4359 1 14.5316 106.695 33.7672
4194 1 17.2594 105.107 33.7569
10617 2 16.3518 106.689 35.0487
10524 2 19.0796 105.1 35.0385
11370 2 21.8081 106.689 35.0487
4192 1 19.9878 106.695 33.7672
4848 1 0.891263 108.283 33.7767
11042 2 2.71155 108.277 35.0581
4577 1 6.3475 108.283 33.7767
10778 2 8.16779 108.277 35.0581
4335 1 11.8037 108.283 33.7767
10618 2 13.624 108.277 35.0581
4193 1 17.26 108.283 33.7767
10521 2 19.0803 108.277 35.0581
4847 1 0.891726 111.459 33.793
11003 2 2.71207 111.455 35.0744
4846 1 3.61963 109.871 33.7853
11044 2 5.43994 109.866 35.0667
4542 1 6.34796 111.459 33.793
4579 1 9.07586 109.871 33.7853
10777 2 8.16831 111.455 35.0744
4334 1 11.8042 111.459 33.793
10776 2 10.8962 109.866 35.0667
4333 1 14.5321 109.871 33.7853
10603 2 13.6245 111.455 35.0744
4182 1 17.2604 111.459 33.793
10620 2 16.3524 109.866 35.0667
11322 2 21.8087 109.866 35.0667
4195 1 19.9883 109.871 33.7853
10520 2 19.0808 111.455 35.0744
4803 1 0.892094 114.636 33.806
11002 2 2.71247 114.633 35.0873
4849 1 3.62004 113.047 33.7999
11001 2 5.4404 113.044 35.0813
4540 1 9.07628 113.047 33.7999
4541 1 6.34833 114.636 33.806
10750 2 8.16871 114.633 35.0873
4311 1 11.8046 114.636 33.806
10779 2 10.8966 113.044 35.0813
4336 1 14.5325 113.047 33.7999
10602 2 13.625 114.633 35.0873
4181 1 17.2608 114.636 33.806
10601 2 16.3529 113.044 35.0813
11323 2 21.8091 113.044 35.0813
4180 1 19.9888 113.047 33.7999
10517 2 19.0812 114.633 35.0873
4802 1 0.892372 117.812 33.8154
10964 2 2.71278 117.811 35.0966
4801 1 3.62036 116.224 33.8111
11004 2 5.44076 116.222 35.0924
4506 1 6.34861 117.812 33.8154
4543 1 9.0766 116.224 33.8111
10749 2 8.16902 117.811 35.0966
4310 1 11.8048 117.812 33.8154
10748 2 10.897 116.222 35.0924
4309 1 14.5328 116.224 33.8111
10587 2 13.6253 117.811 35.0966
4170 1 17.2611 117.812 33.8154
10604 2 16.3532 116.222 35.0924
11282 2 21.8095 116.222 35.0924
4183 1 19.9891 116.224 33.8111
10516 2 19.0815 117.811 35.0966
4765 1 0.892563 120.989 33.8212
10963 2 2.71299 120.989 35.1024
4804 1 3.6206 119.401 33.8187
10962 2 5.44101 119.4 35.1
4504 1 9.07684 119.401 33.8187
4505 1 6.3488 120.989 33.8212
10722 2 8.16922 120.989 35.1024
4287 1 11.805 120.989 33.8212
10751 2 10.8973 119.4 35.1
4312 1 14.5331 119.401 33.8187
10586 2 13.6255 120.989 35.1024
4169 1 17.2613 120.989 33.8212
10585 2 16.3535 119.4 35.1
11283 2 21.8097 119.4 35.1
4168 1 19.9893 119.401 33.8187
10513 2 19.0817 120.989 35.1024
4764 1 0.89267 124.166 33.8233
10932 2 2.7131 124.168 35.1045
4763 1 3.62075 122.577 33.8227
10965 2 5.44117 122.578 35.1039
4471 1 6.34891 124.166 33.8233
4507 1 9.07698 122.577 33.8227
10721 2 8.16933 124.168 35.1045
4286 1 11.8051 124.166 33.8233
10720 2 10.8974 122.578 35.1039
4285 1 14.5332 122.577 33.8227
10571 2 13.6256 124.168 35.1045
4158 1 17.2614 124.166 33.8233
10588 2 16.3536 122.578 35.1039
11250 2 21.8099 122.578 35.1039
4171 1 19.9895 122.577 33.8227
10512 2 19.0818 124.168 35.1045
4735 1 0.892694 127.342 33.8218
10931 2 2.71311 127.346 35.1031
4766 1 3.62081 125.754 33.823
10930 2 5.44123 125.757 35.1042
4469 1 9.07705 125.754 33.823
4470 1 6.34893 127.342 33.8218
10695 2 8.16935 127.346 35.1031
10723 2 10.8975 125.757 35.1042
4263 1 11.8052 127.342 33.8218
4288 1 14.5333 125.754 33.823
10570 2 13.6256 127.346 35.1031
10569 2 16.3537 125.757 35.1042
4157 1 17.2614 127.342 33.8218
11251 2 21.8099 125.757 35.1042
4156 1 19.9895 125.754 33.823
10509 2 19.0818 127.346 35.1031
4733 1 3.62079 128.931 33.8197
10933 2 5.4412 128.935 35.101
4472 1 9.07703 128.931 33.8197
10693 2 10.8974 128.935 35.101
4261 1 14.5333 128.931 33.8197
10572 2 16.3537 128.935 35.101
11226 2 21.8099 128.935 35.101
4159 1 19.9895 128.931 33.8197
4734 1 0.892631 130.519 33.8167
10908 2 2.71303 130.524 35.0979
4736 1 3.62069 132.107 33.8128
10906 2 5.44106 132.113 35.094
4441 1 9.07692 132.107 33.8128
4443 1 6.34887 130.519 33.8167
10694 2 8.16926 130.524 35.0979
4262 1 11.8051 130.519 33.8167
10696 2 10.8973 132.113 35.094
4264 1 14.5332 132.107 33.8128
10555 2 13.6255 130.524 35.0979
4146 1 17.2613 130.519 33.8167
10553 2 16.3535 132.113 35.094
11227 2 21.8098 132.113 35.094
4144 1 19.9894 132.107 33.8128
10508 2 19.0817 130.524 35.0979
4713 1 0.892478 133.695 33.8079
10907 2 2.71284 133.702 35.0892
4711 1 3.62049 135.284 33.8022
10909 2 5.44082 135.291 35.0835
4442 1 6.34872 133.695 33.8079
4444 1 9.07672 135.284 33.8022
10675 2 8.16908 133.702 35.0892
4240 1 11.805 133.695 33.8079
10673 2 10.8971 135.291 35.0835
4238 1 14.533 135.284 33.8022
10554 2 13.6253 133.702 35.0892
4145 1 17.2612 133.695 33.8079
10556 2 16.3533 135.291 35.0835
11210 2 21.8095 135.291 35.0835
4147 1 19.9892 135.284 33.8022
10505 2 19.0816 133.702 35.0892
4712 1 0.89223 136.872 33.7956
10892 2 2.71254 136.88 35.0769
4714 1 3.62019 138.46 33.7881
10890 2 5.44047 138.469 35.0695
4421 1 9.07642 138.46 33.7881
4423 1 6.34847 136.872 33.7956
10674 2 8.16878 136.88 35.0769
10676 2 10.8967 138.469 35.0695
4239 1 11.8047 136.872 33.7956
10540 2 13.625 136.88 35.0769
4241 1 14.5327 138.46 33.7881
10538 2 16.3529 138.469 35.0695
4134 1 17.2609 136.872 33.7956
10504 2 19.0813 136.88 35.0769
4132 1 19.9889 138.46 33.7881
11211 2 21.8092 138.469 35.0695
10891 2 2.71213 140.057 35.0611
4699 1 0.891878 140.048 33.7797
10893 2 5.44 141.646 35.052
4697 1 3.61978 141.636 33.7705
10663 2 8.16837 140.057 35.0611
4424 1 9.07602 141.636 33.7705
4422 1 6.34812 140.048 33.7797
10661 2 10.8962 141.646 35.052
4224 1 11.8044 140.048 33.7797
10539 2 13.6246 140.057 35.0611
4222 1 14.5323 141.636 33.7705
10541 2 16.3525 141.646 35.052
4133 1 17.2606 140.048 33.7797
10501 2 19.0808 140.057 35.0611
4135 1 19.9885 141.636 33.7705
11202 2 21.8087 141.646 35.052
4698 1 0.891418 143.223 33.7604
10884 2 2.7116 143.235 35.0419
4700 1 3.61927 144.811 33.7494
10882 2 5.4394 144.823 35.031
4409 1 9.0755 144.811 33.7494
4411 1 6.34766 143.223 33.7604
10662 2 8.16784 143.235 35.0419
4223 1 11.8039 143.223 33.7604
10664 2 10.8956 144.823 35.031
4225 1 14.5317 144.811 33.7494
10532 2 13.6241 143.235 35.0419
4123 1 17.2601 143.223 33.7604
10530 2 16.3519 144.823 35.031
11203 2 21.8081 144.823 35.031
4121 1 19.988 144.811 33.7494
10500 2 19.0803 143.235 35.0419
4693 1 0.890846 146.398 33.7377
10883 2 2.71094 146.411 35.0194
4691 1 3.61864 147.986 33.7251
10885 2 5.43868 148 35.0069
4410 1 6.34708 146.398 33.7377
4412 1 9.07488 147.986 33.7251
10659 2 8.16718 146.411 35.0194
4216 1 11.8033 146.398 33.7377
10657 2 10.8949 148 35.0069
4214 1 14.5311 147.986 33.7251
10531 2 13.6234 146.411 35.0194
10533 2 16.3512 148 35.0069
4122 1 17.2596 146.398 33.7377
10498 2 19.0797 146.411 35.0194
4124 1 19.9874 147.986 33.7251
11201 2 21.8074 148 35.0069
10881 2 2.71015 149.588 34.9936
4692 1 0.890166 149.573 33.7118
6729 2 5.43783 151.175 34.9796
840 1 3.61791 151.16 33.6977
513 1 9.07414 151.16 33.6977
10658 2 8.16639 149.588 34.9936
4404 1 6.3464 149.573 33.7118
6480 2 10.8941 151.175 34.9796
4215 1 11.8026 149.573 33.7118
280 1 14.5304 151.16 33.6977
10529 2 13.6226 149.588 34.9936
6281 2 16.3503 151.175 34.9796
4116 1 17.2589 149.573 33.7118
105 1 19.9866 151.16 33.6977
7065 2 21.8065 151.175 34.9796
10497 2 19.0789 149.588 34.9936
12670 2 0.894008 101.905 37.5812
4891 1 1.80205 103.503 36.3119
4574 1 4.52972 101.914 36.3002
12668 2 3.62261 103.495 37.593
12639 2 6.35025 101.905 37.5812
12640 2 9.07884 103.495 37.593
4572 1 7.25829 103.503 36.3119
12606 2 11.8065 101.905 37.5812
4354 1 9.98596 101.914 36.3002
4190 1 15.4422 101.914 36.3002
12604 2 14.5351 103.495 37.593
4355 1 12.7145 103.503 36.3119
12575 2 17.2627 101.905 37.5812
4188 1 18.1708 103.503 36.3119
4112 1 20.8984 101.914 36.3002
12576 2 19.9913 103.495 37.593
12669 2 0.894926 105.085 37.6039
4844 1 1.80285 106.682 36.3331
4573 1 4.53059 105.093 36.3229
12671 2 3.62345 106.675 37.6141
12636 2 6.35116 105.085 37.6039
12634 2 9.07968 106.675 37.6141
4575 1 7.25909 106.682 36.3331
12605 2 11.8074 105.085 37.6039
4331 1 9.98683 105.093 36.3229
4189 1 15.4431 105.093 36.3229
12607 2 14.5359 106.675 37.6141
4329 1 12.7153 106.682 36.3331
12572 2 17.2636 105.085 37.6039
4191 1 18.1716 106.682 36.3331
4111 1 20.8993 105.093 36.3229
12570 2 19.9922 106.675 37.6141
12666 2 0.895692 108.266 37.6234
4538 1 4.53131 108.272 36.3425
12635 2 6.35193 108.266 37.6234
12602 2 11.8082 108.266 37.6234
4330 1 9.98755 108.272 36.3425
4178 1 15.4438 108.272 36.3425
12571 2 17.2644 108.266 37.6234
4110 1 20.9 108.272 36.3425
12665 2 0.896315 111.447 37.6396
4845 1 1.8035 109.861 36.351
12664 2 3.62414 109.856 37.6319
4537 1 4.5319 111.451 36.3587
12632 2 6.35255 111.447 37.6396
12637 2 9.08038 109.856 37.6319
4536 1 7.25974 109.861 36.351
12601 2 11.8088 111.447 37.6396
4307 1 9.98814 111.451 36.3587
12600 2 14.5366 109.856 37.6319
4177 1 15.4444 111.451 36.3587
4332 1 12.716 109.861 36.351
12568 2 17.265 111.447 37.6396
4176 1 18.1722 109.861 36.351
12573 2 19.9929 109.856 37.6319
4109 1 20.9006 111.451 36.3587
12662 2 0.896802 114.628 37.6524
4799 1 1.80403 113.041 36.3655
12667 2 3.62469 113.037 37.6464
4502 1 4.53236 114.63 36.3715
12630 2 9.08093 113.037 37.6464
12631 2 6.35304 114.628 37.6524
4539 1 7.26027 113.041 36.3655
12598 2 11.8093 114.628 37.6524
4306 1 9.9886 114.63 36.3715
12603 2 14.5372 113.037 37.6464
4166 1 15.4448 114.63 36.3715
4305 1 12.7165 113.041 36.3655
12567 2 17.2655 114.628 37.6524
4179 1 18.1727 113.041 36.3655
12566 2 19.9934 113.037 37.6464
4108 1 20.9011 114.63 36.3715
12661 2 0.897161 117.809 37.6616
4800 1 1.80443 116.22 36.3766
12660 2 3.62512 116.218 37.6574
4501 1 4.5327 117.81 36.3808
12628 2 6.3534 117.809 37.6616
12633 2 9.08136 116.218 37.6574
4500 1 7.26067 116.22 36.3766
12597 2 11.8096 117.809 37.6616
4283 1 9.98894 117.81 36.3808
12596 2 14.5376 116.218 37.6574
4165 1 15.4452 117.81 36.3808
4308 1 12.7169 116.22 36.3766
12564 2 17.2659 117.809 37.6616
4164 1 18.1731 116.22 36.3766
12569 2 19.9938 116.218 37.6574
4107 1 20.9014 117.81 36.3808
12658 2 0.897397 120.99 37.6673
4761 1 1.80471 119.4 36.3841
12663 2 3.62541 119.4 37.6649
4467 1 4.53293 120.99 36.3865
12626 2 9.08165 119.4 37.6649
12627 2 6.35364 120.99 37.6673
4503 1 7.26095 119.4 36.3841
12594 2 11.8099 120.99 37.6673
4282 1 9.98917 120.99 36.3865
12599 2 14.5379 119.4 37.6649
4154 1 15.4454 120.99 36.3865
4281 1 12.7172 119.4 36.3841
12563 2 17.2661 120.99 37.6673
4167 1 18.1734 119.4 36.3841
12562 2 19.9941 119.4 37.6649
4106 1 20.9016 120.99 36.3865
12657 2 0.897513 124.172 37.6695
4762 1 1.80488 122.58 36.3881
12656 2 3.62559 122.581 37.6689
4466 1 4.53304 124.17 36.3887
12624 2 6.35375 124.172 37.6695
12629 2 9.08183 122.581 37.6689
4465 1 7.26112 122.58 36.3881
12593 2 11.81 124.172 37.6695
4259 1 9.98928 124.17 36.3887
12592 2 14.5381 122.581 37.6689
4153 1 15.4455 124.17 36.3887
4284 1 12.7174 122.58 36.3881
12560 2 17.2662 124.172 37.6695
4152 1 18.1736 122.58 36.3881
12565 2 19.9943 122.581 37.6689
4105 1 20.9018 124.17 36.3887
4731 1 1.80494 125.76 36.3884
12654 2 0.897509 127.353 37.668
12659 2 3.62565 125.762 37.6692
4439 1 4.53305 127.349 36.3872
12622 2 9.08188 125.762 37.6692
4468 1 7.26118 125.76 36.3884
12623 2 6.35375 127.353 37.668
12590 2 11.81 127.353 37.668
4258 1 9.98929 127.349 36.3872
12595 2 14.5381 125.762 37.6692
4257 1 12.7174 125.76 36.3884
4142 1 15.4455 127.349 36.3872
4155 1 18.1737 125.76 36.3884
12559 2 17.2662 127.353 37.668
12558 2 19.9944 125.762 37.6692
4104 1 20.9018 127.349 36.3872
4732 1 1.80489 128.939 36.3851
12652 2 3.62558 128.944 37.6659
12625 2 9.08182 128.944 37.6659
4437 1 7.26113 128.939 36.3851
12588 2 14.5381 128.944 37.6659
4260 1 12.7174 128.939 36.3851
4140 1 18.1736 128.939 36.3851
12561 2 19.9943 128.944 37.6659
12653 2 0.897382 130.534 37.663
4709 1 1.80472 132.119 36.3783
12655 2 3.62539 132.125 37.6591
4438 1 4.53294 130.529 36.3821
12618 2 9.08163 132.125 37.6591
12620 2 6.35362 130.534 37.663
4440 1 7.26096 132.119 36.3783
12589 2 11.8099 130.534 37.663
4236 1 9.98917 130.529 36.3821
12591 2 14.5379 132.125 37.6591
4141 1 15.4454 130.529 36.3821
4234 1 12.7172 132.119 36.3783
12556 2 17.2661 130.534 37.663
4143 1 18.1734 132.119 36.3783
12554 2 19.9941 132.125 37.6591
4103 1 20.9017 130.529 36.3821
12650 2 0.897128 133.715 37.6543
4710 1 1.80443 135.298 36.3678
12648 2 3.62507 135.306 37.6487
4419 1 4.53271 133.709 36.3735
12619 2 6.35337 133.715 37.6543
12621 2 9.08131 135.306 37.6487
4417 1 7.26066 135.298 36.3678
12586 2 11.8096 133.715 37.6543
4235 1 9.98895 133.709 36.3735
12584 2 14.5375 135.306 37.6487
4130 1 15.4452 133.709 36.3735
4237 1 12.7169 135.298 36.3678
12555 2 17.2658 133.715 37.6543
4128 1 18.1731 135.298 36.3678
12557 2 19.9938 135.306 37.6487
4102 1 20.9014 133.709 36.3735
12649 2 0.896739 136.896 37.6421
4695 1 1.804 138.478 36.3538
12651 2 3.62461 138.487 37.6347
4418 1 4.53235 136.888 36.3613
12614 2 9.08085 138.487 37.6347
12616 2 6.35298 136.896 37.6421
4420 1 7.26024 138.478 36.3538
12585 2 11.8092 136.896 37.6421
4220 1 9.98859 136.888 36.3613
12587 2 14.5371 138.487 37.6347
4129 1 15.4448 136.888 36.3613
4218 1 12.7165 138.478 36.3538
12552 2 17.2655 136.896 37.6421
4131 1 18.1727 138.478 36.3538
12550 2 19.9933 138.487 37.6347
4101 1 20.9011 136.888 36.3613
12646 2 0.896205 140.077 37.6265
4696 1 1.80344 141.657 36.3364
12644 2 3.624 141.667 37.6174
4407 1 4.53186 140.067 36.3455
12615 2 6.35244 140.077 37.6265
12617 2 9.08024 141.667 37.6174
4405 1 7.25968 141.657 36.3364
12582 2 11.8087 140.077 37.6265
4219 1 9.9881 140.067 36.3455
12580 2 14.5365 141.667 37.6174
4119 1 15.4443 140.067 36.3455
4221 1 12.7159 141.657 36.3364
12551 2 17.2649 140.077 37.6265
4117 1 18.1722 141.657 36.3364
12553 2 19.9927 141.667 37.6174
4100 1 20.9006 140.067 36.3455
12645 2 0.895518 143.258 37.6074
4689 1 1.80272 144.835 36.3156
12647 2 3.62323 144.848 37.5966
4406 1 4.53122 143.246 36.3264
12610 2 9.07947 144.848 37.5966
12612 2 6.35176 143.258 37.6074
4408 1 7.25896 144.835 36.3156
12581 2 11.808 143.258 37.6074
4212 1 9.98746 143.246 36.3264
12583 2 14.5357 144.848 37.5966
4118 1 15.4437 143.246 36.3264
4210 1 12.7152 144.835 36.3156
12548 2 17.2642 143.258 37.6074
4120 1 18.1714 144.835 36.3156
12546 2 19.9919 144.848 37.5966
4099 1 20.8999 143.246 36.3264
12643 2 0.894668 146.438 37.5851
4690 1 1.80185 148.014 36.2916
12641 2 3.6223 148.028 37.5727
4403 1 4.53043 146.425 36.304
12611 2 6.35091 146.438 37.5851
12613 2 9.07854 148.028 37.5727
4401 1 7.25809 148.014 36.2916
12579 2 11.8071 146.438 37.5851
4211 1 9.98667 146.425 36.304
12577 2 14.5348 148.028 37.5727
4115 1 15.4429 146.425 36.304
4213 1 12.7143 148.014 36.2916
12547 2 17.2634 146.438 37.5851
4113 1 18.1706 148.014 36.2916
12549 2 19.991 148.028 37.5727
4098 1 20.8991 146.425 36.304
12642 2 0.893649 149.618 37.5595
794 1 1.80082 151.192 36.2645
4402 1 4.52947 149.603 36.2784
12609 2 6.34989 149.618 37.5595
512 1 7.25706 151.192 36.2645
12578 2 11.8061 149.618 37.5595
4209 1 9.98571 149.603 36.2784
4114 1 15.442 149.603 36.2784
257 1 12.7133 151.192 36.2645
12545 2 17.2624 149.618 37.5595
104 1 18.1695 151.192 36.2645
4097 1 20.8982 149.603 36.2784
16409 1 2.71391 101.896 38.8652
23951 2 1.80724 103.478 40.1573
16407 1 0.898855 101.877 41.4289
18295 1 5.44255 103.487 38.8769
18294 1 3.62754 103.47 41.4406
22015 2 4.53483 101.886 40.1456
16255 1 8.17014 101.896 38.8652
18200 1 9.08378 103.47 41.4406
23922 2 7.26348 103.478 40.1573
16233 1 6.35509 101.877 41.4289
18207 1 10.8988 103.487 38.8769
15999 1 11.8113 101.877 41.4289
21817 2 9.99107 101.886 40.1456
16001 1 13.6264 101.896 38.8652
18024 1 14.54 103.47 41.4406
23800 2 12.7197 103.478 40.1573
21567 2 15.4473 101.886 40.1456
18025 1 16.355 103.487 38.8769
23592 2 18.176 103.478 40.1573
15673 1 17.2676 101.877 41.4289
18312 1 21.8113 103.487 38.8769
15718 1 19.0826 101.896 38.8652
17753 1 19.9963 103.47 41.4406
21232 2 20.9035 101.886 40.1456
18296 1 2.71492 105.078 38.8878
18288 1 0.899948 105.063 41.4516
23952 2 1.80819 106.662 40.1784
18297 1 5.44348 106.669 38.898
18286 1 3.62854 106.655 41.4617
23920 2 4.53586 105.07 40.1682
18205 1 8.17115 105.078 38.8878
18201 1 6.35619 105.063 41.4516
18202 1 9.08478 106.655 41.4617
23918 2 7.26443 106.662 40.1784
18203 1 10.8997 106.669 38.898
18018 1 11.8124 105.063 41.4516
23801 2 9.9921 105.07 40.1682
18026 1 13.6274 105.078 38.8878
18016 1 14.541 106.655 41.4617
23590 2 15.4483 105.07 40.1682
23802 2 12.7207 106.662 40.1784
18027 1 16.356 106.669 38.898
17754 1 17.2687 105.063 41.4516
23588 2 18.1769 106.662 40.1784
18310 1 21.8122 106.669 38.898
17757 1 19.0836 105.078 38.8878
17755 1 19.9973 106.655 41.4617
23292 2 20.9046 105.07 40.1682
18292 1 2.71576 108.26 38.9073
18287 1 0.900856 108.248 41.471
23919 2 4.53671 108.254 40.1877
18204 1 8.17199 108.26 38.9073
18193 1 6.35709 108.248 41.471
18017 1 11.8133 108.248 41.471
23797 2 9.99295 108.254 40.1877
18022 1 13.6282 108.26 38.9073
23589 2 15.4492 108.254 40.1877
17748 1 17.2696 108.248 41.471
17756 1 19.0845 108.26 38.9073
23291 2 20.9054 108.254 40.1877
18291 1 2.71644 111.442 38.9234
23948 2 1.80896 109.846 40.1962
18277 1 0.901591 111.434 41.4871
18290 1 5.44423 109.851 38.9157
18289 1 3.62936 109.841 41.4795
23912 2 4.53741 111.438 40.2038
18197 1 8.17267 111.442 38.9234
18191 1 9.0856 109.841 41.4795
23921 2 7.2652 109.846 40.1962
18192 1 6.35783 111.434 41.4871
18206 1 10.9005 109.851 38.9157
18006 1 11.8141 111.434 41.4871
23796 2 9.99365 111.438 40.2038
18021 1 13.6289 111.442 38.9234
18019 1 14.5418 109.841 41.4795
23795 2 12.7214 109.846 40.1962
23582 2 15.4499 111.438 40.2038
18020 1 16.3567 109.851 38.9157
23591 2 18.1777 109.846 40.1962
17747 1 17.2703 111.434 41.4871
18311 1 21.8129 109.851 38.9157
17751 1 19.0852 111.442 38.9234
17746 1 19.9981 109.841 41.4795
23290 2 20.9061 111.438 40.2038
18281 1 2.71697 114.625 38.9361
23949 2 1.80958 113.03 40.2106
18276 1 0.902162 114.62 41.4998
18293 1 5.44484 113.034 38.9302
18275 1 3.63002 113.027 41.4939
23911 2 4.53795 114.622 40.2165
18196 1 8.1732 114.625 38.9361
18194 1 9.08625 113.027 41.4939
23910 2 7.26582 113.03 40.2106
18177 1 6.3584 114.62 41.4998
18195 1 10.9011 113.034 38.9302
18005 1 11.8146 114.62 41.4998
23785 2 9.99419 114.622 40.2165
18010 1 13.6294 114.625 38.9361
18004 1 14.5425 113.027 41.4939
23798 2 12.7221 113.03 40.2106
23581 2 15.4504 114.622 40.2165
18023 1 16.3573 113.034 38.9302
23580 2 18.1783 113.03 40.2106
17734 1 17.2709 114.62 41.4998
18308 1 21.8136 113.034 38.9302
17750 1 19.0857 114.625 38.9361
17749 1 19.9987 113.027 41.4939
23283 2 20.9067 114.622 40.2165
18280 1 2.71735 117.808 38.9453
18265 1 0.902578 117.806 41.509
23944 2 1.81005 116.214 40.2215
18279 1 5.4453 116.216 38.9412
18278 1 3.63051 116.213 41.5048
23897 2 4.53835 117.807 40.2257
18181 1 8.17359 117.808 38.9453
18175 1 9.08675 116.213 41.5048
18176 1 6.35882 117.806 41.509
23913 2 7.26629 116.214 40.2215
18198 1 10.9015 116.216 38.9412
17986 1 11.8151 117.806 41.509
23784 2 9.99459 117.807 40.2257
18009 1 13.6298 117.808 38.9453
18007 1 14.543 116.213 41.5048
23566 2 15.4508 117.807 40.2257
23783 2 12.7225 116.214 40.2215
18008 1 16.3578 116.216 38.9412
17733 1 17.2713 117.806 41.509
23583 2 18.1788 116.214 40.2215
18309 1 21.814 116.216 38.9412
17737 1 19.0861 117.808 38.9453
17732 1 19.9992 116.213 41.5048
23282 2 20.9071 117.807 40.2257
18269 1 2.7176 120.991 38.9511
18264 1 0.902845 120.992 41.5147
23945 2 1.81038 119.399 40.229
18282 1 5.44561 119.399 38.9486
18263 1 3.63085 119.399 41.5123
23896 2 4.53861 120.991 40.2314
18180 1 8.17384 120.991 38.9511
18154 1 6.35908 120.992 41.5147
18178 1 9.08709 119.399 41.5123
23895 2 7.26661 119.399 40.229
18179 1 10.9019 119.399 38.9486
17985 1 11.8153 120.992 41.5147
23765 2 9.99484 120.991 40.2314
17990 1 13.6301 120.991 38.9511
17984 1 14.5433 119.399 41.5123
23565 2 15.4511 120.991 40.2314
23786 2 12.7229 119.399 40.229
18011 1 16.3581 119.399 38.9486
17712 1 17.2716 120.992 41.5147
23564 2 18.1791 119.399 40.229
18306 1 21.8143 119.399 38.9486
17736 1 19.0863 120.991 38.9511
17735 1 19.9996 119.399 41.5123
23267 2 20.9073 120.991 40.2314
18268 1 2.71772 124.174 38.9532
18253 1 0.902965 124.178 41.5168
23940 2 1.81056 122.583 40.2329
18267 1 5.4458 122.582 38.9526
18266 1 3.63104 122.585 41.5162
23881 2 4.53872 124.176 40.2335
18158 1 8.17396 124.174 38.9532
18152 1 9.08728 122.585 41.5162
18153 1 6.3592 124.178 41.5168
23898 2 7.2668 122.583 40.2329
18182 1 10.902 122.582 38.9526
17958 1 11.8154 124.178 41.5168
23764 2 9.99496 124.176 40.2335
17989 1 13.6302 124.174 38.9532
17987 1 14.5435 122.585 41.5162
23542 2 15.4512 124.176 40.2335
23763 2 12.723 122.583 40.2329
17988 1 16.3583 122.582 38.9526
17711 1 17.2717 124.178 41.5168
23567 2 18.1793 122.583 40.2329
18307 1 21.8145 122.582 38.9526
17715 1 19.0864 124.174 38.9532
17710 1 19.9998 122.585 41.5162
23266 2 20.9074 124.176 40.2335
18257 1 2.71771 127.357 38.9517
18252 1 0.902939 127.364 41.5153
23941 2 1.81061 125.768 40.2332
18270 1 5.44585 125.765 38.9529
18251 1 3.63109 125.771 41.5165
23880 2 4.5387 127.36 40.2321
18157 1 8.17395 127.357 38.9517
18130 1 6.35918 127.364 41.5153
18155 1 9.08733 125.771 41.5165
23879 2 7.26685 125.768 40.2332
18156 1 10.9021 125.765 38.9529
17957 1 11.8154 127.364 41.5153
23738 2 9.99494 127.36 40.2321
17962 1 13.6302 127.357 38.9517
17956 1 14.5436 125.771 41.5165
23541 2 15.4512 127.36 40.2321
23766 2 12.7231 125.768 40.2332
17991 1 16.3583 125.765 38.9529
17682 1 17.2717 127.364 41.5153
23540 2 18.1793 125.768 40.2332
18304 1 21.8146 125.765 38.9529
17714 1 19.0864 127.357 38.9517
17713 1 19.9998 125.771 41.5165
23243 2 20.9074 127.36 40.2321
23936 2 1.81052 128.952 40.23
18255 1 5.44577 128.948 38.9497
18254 1 3.63099 128.957 41.5133
18128 1 9.08723 128.957 41.5133
23882 2 7.26676 128.952 40.23
18159 1 10.902 128.948 38.9497
17959 1 14.5435 128.957 41.5133
23736 2 12.723 128.952 40.23
17960 1 16.3582 128.948 38.9497
23543 2 18.1792 128.952 40.23
18305 1 21.8145 128.948 38.9497
17680 1 19.9997 128.957 41.5133
18256 1 2.71756 130.539 38.9467
18241 1 0.902763 130.55 41.5103
23937 2 1.81029 132.137 40.2232
18258 1 5.44555 132.131 38.9428
23865 2 4.53855 130.544 40.227
18239 1 3.63074 132.143 41.5065
18134 1 8.1738 130.539 38.9467
18129 1 6.359 130.55 41.5103
18131 1 9.08698 132.143 41.5065
23863 2 7.26653 132.137 40.2232
18132 1 10.9018 132.131 38.9428
17923 1 11.8152 130.55 41.5103
23737 2 9.99478 130.544 40.227
17961 1 13.63 130.539 38.9467
23510 2 15.451 130.544 40.227
17921 1 14.5432 132.143 41.5065
23739 2 12.7228 132.137 40.2232
17963 1 16.358 132.131 38.9428
17681 1 17.2715 130.55 41.5103
23508 2 18.179 132.137 40.2232
17685 1 19.0863 130.539 38.9467
18302 1 21.8143 132.131 38.9428
23242 2 20.9073 130.544 40.227
17683 1 19.9995 132.143 41.5065
18245 1 2.71727 133.722 38.9381
18240 1 0.902433 133.736 41.5018
23932 2 1.80991 135.321 40.2128
18243 1 5.44519 135.313 38.9325
18242 1 3.63033 135.328 41.4961
23864 2 4.53824 133.729 40.2185
18133 1 8.17351 133.722 38.9381
18104 1 9.08656 135.328 41.4961
18106 1 6.35867 133.736 41.5018
23866 2 7.26615 135.321 40.2128
18135 1 10.9014 135.313 38.9325
17922 1 11.8149 133.736 41.5018
23710 2 9.99448 133.729 40.2185
17927 1 13.6297 133.722 38.9381
17924 1 14.5428 135.328 41.4961
23509 2 15.4507 133.729 40.2185
23708 2 12.7224 135.321 40.2128
17925 1 16.3577 135.313 38.9325
17644 1 17.2711 133.736 41.5018
23511 2 18.1786 135.321 40.2128
18303 1 21.8139 135.313 38.9325
17684 1 19.086 133.722 38.9381
17642 1 19.999 135.328 41.4961
23211 2 20.907 133.729 40.2185
18244 1 2.71683 136.905 38.926
18229 1 0.90194 136.921 41.4897
23933 2 1.80938 138.505 40.199
18246 1 5.44467 138.496 38.9186
18227 1 3.62975 138.514 41.4823
23849 2 4.53778 136.913 40.2063
18110 1 8.17307 136.905 38.926
18105 1 6.35818 136.921 41.4897
18107 1 9.08599 138.514 41.4823
23847 2 7.26561 138.505 40.199
18108 1 10.9009 138.496 38.9186
17887 1 11.8144 136.921 41.4897
23709 2 9.99402 136.913 40.2063
17926 1 13.6293 136.905 38.926
17885 1 14.5422 138.514 41.4823
23471 2 15.4503 136.913 40.2063
23711 2 12.7219 138.505 40.199
17928 1 16.3572 138.496 38.9186
17643 1 17.2707 136.921 41.4897
23469 2 18.1781 138.505 40.199
18300 1 21.8134 138.496 38.9186
17647 1 19.0855 136.905 38.926
17645 1 19.9985 138.514 41.4823
23210 2 20.9065 136.913 40.2063
18233 1 2.71624 140.087 38.9104
18228 1 0.901273 140.107 41.4741
23928 2 1.80867 141.689 40.1817
18231 1 5.44399 141.678 38.9013
18230 1 3.62899 141.7 41.465
23848 2 4.53716 140.097 40.1907
18109 1 8.17247 140.087 38.9104
18080 1 9.08523 141.7 41.465
18082 1 6.35751 140.107 41.4741
23850 2 7.26491 141.689 40.1817
18111 1 10.9002 141.678 38.9013
17886 1 11.8137 140.107 41.4741
23682 2 9.9934 140.097 40.1907
17891 1 13.6287 140.087 38.9104
17888 1 14.5415 141.7 41.465
23470 2 15.4496 140.097 40.1907
23680 2 12.7211 141.689 40.1817
17889 1 16.3565 141.678 38.9013
17599 1 17.27 140.107 41.4741
23472 2 18.1774 141.689 40.1817
18301 1 21.8127 141.678 38.9013
17646 1 19.085 140.087 38.9104
17597 1 19.9977 141.7 41.465
23171 2 20.9059 140.097 40.1907
18232 1 2.71547 143.269 38.8914
18218 1 0.900421 143.293 41.4551
23929 2 1.80778 144.873 40.161
18234 1 5.44313 144.86 38.8806
18216 1 3.62804 144.885 41.4444
23833 2 4.53637 143.281 40.1718
18086 1 8.17171 143.269 38.8914
18081 1 6.35666 143.293 41.4551
18083 1 9.08428 144.885 41.4444
23831 2 7.26402 144.873 40.161
18084 1 10.8994 144.86 38.8806
17852 1 11.8129 143.293 41.4551
23681 2 9.99261 143.281 40.1718
17890 1 13.6279 143.269 38.8914
17850 1 14.5405 144.885 41.4444
23431 2 15.4488 143.281 40.1718
23683 2 12.7203 144.873 40.161
17892 1 16.3556 144.86 38.8806
17598 1 17.2691 143.293 41.4551
23429 2 18.1765 144.873 40.161
18298 1 21.8118 144.86 38.8806
17602 1 19.0842 143.269 38.8914
17600 1 19.9968 144.885 41.4444
23170 2 20.9051 143.281 40.1718
18222 1 2.71451 146.451 38.8691
18217 1 0.89937 146.478 41.4328
23925 2 1.80671 148.056 40.1371
18220 1 5.44208 148.042 38.8567
18219 1 3.62689 148.071 41.4205
23832 2 4.53539 146.464 40.1495
18085 1 8.17075 146.451 38.8691
18060 1 9.08312 148.071 41.4205
18062 1 6.35561 146.478 41.4328
23834 2 7.26295 148.056 40.1371
18087 1 10.8983 148.042 38.8567
17851 1 11.8118 146.478 41.4328
23655 2 9.99163 146.464 40.1495
17856 1 13.627 146.451 38.8691
17853 1 14.5394 148.071 41.4205
23430 2 15.4479 146.464 40.1495
23653 2 12.7192 148.056 40.1371
17854 1 16.3546 148.042 38.8567
17555 1 17.2681 146.478 41.4328
23432 2 18.1754 148.056 40.1371
18299 1 21.8108 148.042 38.8567
17601 1 19.0832 146.451 38.8691
17553 1 19.9956 148.071 41.4205
23124 2 20.9041 146.464 40.1495
18221 1 2.71336 149.633 38.8436
18211 1 0.898107 149.663 41.4074
23818 2 4.53422 149.648 40.124
18063 1 8.1696 149.633 38.8436
18061 1 6.35435 149.663 41.4074
17821 1 11.8106 149.663 41.4074
23654 2 9.99046 149.648 40.124
17855 1 13.6258 149.633 38.8436
23392 2 15.4467 149.648 40.124
17554 1 17.2668 149.663 41.4074
17556 1 19.0821 149.633 38.8436
23123 2 20.9029 149.648 40.124
18284 1 1.81328 103.453 44.0031
22001 2 2.72017 101.868 42.7087
23915 2 5.44886 103.461 42.7204
16231 1 4.54082 101.858 43.9914
18199 1 7.26952 103.453 44.0031
21815 2 8.17641 101.868 42.7087
23799 2 10.9051 103.461 42.7204
15969 1 9.99705 101.858 43.9914
18013 1 12.7258 103.453 44.0031
15671 1 15.4533 101.858 43.9914
21529 2 13.6327 101.868 42.7087
17752 1 18.182 103.453 44.0031
23585 2 16.3613 103.461 42.7204
23950 2 21.8176 103.461 42.7204
15339 1 20.9095 101.858 43.9914
21230 2 19.0889 101.868 42.7087
18285 1 1.8143 106.642 44.0243
23916 2 2.72126 105.055 42.7314
18189 1 4.54193 105.047 44.0141
23917 2 5.44985 106.648 42.7415
18187 1 7.27054 106.642 44.0243
23793 2 8.17749 105.055 42.7314
18014 1 9.99817 105.047 44.0141
23791 2 10.9061 106.648 42.7415
17744 1 15.4544 105.047 44.0141
18015 1 12.7268 106.642 44.0243
23586 2 13.6337 105.055 42.7314
17742 1 18.183 106.642 44.0243
23587 2 16.3623 106.648 42.7415
23946 2 21.8186 106.648 42.7415
17412 1 20.9106 105.047 44.0141
23289 2 19.09 105.055 42.7314
23908 2 2.72216 108.242 42.7508
18188 1 4.54286 108.236 44.0336
23792 2 8.1784 108.242 42.7508
18002 1 9.9991 108.236 44.0336
17743 1 15.4553 108.236 44.0336
23578 2 13.6346 108.242 42.7508
17411 1 20.9116 108.236 44.0336
23288 2 19.0909 108.242 42.7508
18273 1 1.81514 109.831 44.0421
23907 2 2.72289 111.429 42.767
23906 2 5.45066 109.836 42.7593
18173 1 4.54361 111.425 44.0497
18190 1 7.27138 109.831 44.0421
23781 2 8.17913 111.429 42.767
23794 2 10.9069 109.836 42.7593
18001 1 9.99985 111.425 44.0497
18000 1 12.7276 109.831 44.0421
17730 1 15.4561 111.425 44.0497
23577 2 13.6354 111.429 42.767
17745 1 18.1839 109.831 44.0421
23576 2 16.3631 109.836 42.7593
23947 2 21.8194 109.836 42.7593
17410 1 20.9123 111.425 44.0497
23281 2 19.0916 111.429 42.767
18274 1 1.81581 113.02 44.0565
23893 2 2.72346 114.617 42.7796
23909 2 5.45132 113.023 42.7737
18172 1 4.5442 114.614 44.0624
18171 1 7.27205 113.02 44.0565
23780 2 8.1797 114.617 42.7796
23779 2 10.9076 113.023 42.7737
17982 1 10.0004 114.614 44.0624
18003 1 12.7283 113.02 44.0565
17729 1 15.4567 114.614 44.0624
23562 2 13.6359 114.617 42.7796
17728 1 18.1845 113.02 44.0565
23579 2 16.3638 113.023 42.7737
23942 2 21.82 113.023 42.7737
17403 1 20.9129 114.614 44.0624
23280 2 19.0922 114.617 42.7796
18261 1 1.81632 116.209 44.0675
23892 2 2.72388 117.804 42.7889
18150 1 4.54463 117.803 44.0717
23891 2 5.45181 116.211 42.7847
18174 1 7.27256 116.209 44.0675
23761 2 8.18012 117.804 42.7889
17981 1 10.0009 117.803 44.0717
23782 2 10.908 116.211 42.7847
17708 1 15.4571 117.803 44.0717
17980 1 12.7288 116.209 44.0675
23561 2 13.6364 117.804 42.7889
17731 1 18.185 116.209 44.0675
23560 2 16.3643 116.211 42.7847
23943 2 21.8205 116.211 42.7847
17402 1 20.9133 117.803 44.0717
23265 2 19.0926 117.804 42.7889
18262 1 1.81667 119.398 44.0749
23877 2 2.72415 120.992 42.7945
18149 1 4.54491 120.993 44.0773
23894 2 5.45215 119.398 42.7921
18148 1 7.27291 119.398 44.0749
23760 2 8.18039 120.992 42.7945
17954 1 10.0011 120.993 44.0773
23759 2 10.9084 119.398 42.7921
17707 1 15.4574 120.993 44.0773
17983 1 12.7291 119.398 44.0749
23538 2 13.6366 120.992 42.7945
17706 1 18.1854 119.398 44.0749
23563 2 16.3646 119.398 42.7921
23938 2 21.8209 119.398 42.7921
17387 1 20.9136 120.993 44.0773
23264 2 19.0929 120.992 42.7945
18249 1 1.81687 122.587 44.0788
23876 2 2.72427 124.18 42.7967
18126 1 4.54502 124.182 44.0795
23875 2 5.45235 122.586 42.796
18151 1 7.2731 122.587 44.0788
23734 2 8.18051 124.18 42.7967
17953 1 10.0013 124.182 44.0795
23762 2 10.9086 122.586 42.796
17678 1 15.4575 124.182 44.0795
17952 1 12.7293 122.587 44.0788
23537 2 13.6367 124.18 42.7967
17709 1 18.1856 122.587 44.0788
23536 2 16.3648 122.586 42.796
23939 2 21.8211 122.586 42.796
17386 1 20.9137 124.182 44.0795
23241 2 19.093 124.18 42.7967
18250 1 1.81691 125.776 44.0792
23861 2 2.72424 127.367 42.7952
18125 1 4.54499 127.371 44.078
23878 2 5.45239 125.773 42.7964
18124 1 7.27315 125.776 44.0792
23733 2 8.18048 127.367 42.7952
17919 1 10.0012 127.371 44.078
23732 2 10.9086 125.773 42.7964
17677 1 15.4575 127.371 44.078
17955 1 12.7294 125.776 44.0792
23506 2 13.6367 127.367 42.7952
17676 1 18.1856 125.776 44.0792
23539 2 16.3649 125.773 42.7964
23934 2 21.8211 125.773 42.7964
17363 1 20.9137 127.371 44.078
23240 2 19.093 127.367 42.7952
18237 1 1.81679 128.965 44.076
23859 2 5.45229 128.961 42.7932
18127 1 7.27303 128.965 44.076
23735 2 10.9085 128.961 42.7932
17917 1 12.7293 128.965 44.076
17679 1 18.1855 128.965 44.076
23504 2 16.3648 128.961 42.7932
23935 2 21.821 128.961 42.7932
23860 2 2.72406 130.555 42.7902
18238 1 1.81652 132.155 44.0692
18102 1 4.5448 130.56 44.073
23862 2 5.45203 132.149 42.7864
23706 2 8.18029 130.555 42.7902
18100 1 7.27276 132.155 44.0692
17918 1 10.001 130.56 44.073
23704 2 10.9083 132.149 42.7864
17640 1 15.4573 130.56 44.073
23505 2 13.6365 130.555 42.7902
17920 1 12.729 132.155 44.0692
17638 1 18.1852 132.155 44.0692
23507 2 16.3645 132.149 42.7864
17362 1 20.9135 130.56 44.073
23209 2 19.0928 130.555 42.7902
23930 2 21.8207 132.149 42.7864
18225 1 1.81608 135.344 44.0588
23845 2 2.72372 133.742 42.7816
18101 1 4.54444 133.749 44.0644
23843 2 5.45161 135.336 42.776
18103 1 7.27232 135.344 44.0588
23705 2 8.17996 133.742 42.7816
17883 1 10.0007 133.749 44.0644
23707 2 10.9078 135.336 42.776
17639 1 15.4569 133.749 44.0644
17881 1 12.7286 135.344 44.0588
23467 2 13.6362 133.742 42.7816
17641 1 18.1848 135.344 44.0588
23465 2 16.3641 135.336 42.776
23931 2 21.8203 135.336 42.776
17331 1 20.9132 133.749 44.0644
23208 2 19.0924 133.742 42.7816
18226 1 1.81547 138.533 44.045
23844 2 2.72322 136.93 42.7695
18078 1 4.54392 136.938 44.0523
23846 2 5.45102 138.523 42.7622
18076 1 7.27171 138.533 44.045
23678 2 8.17946 136.93 42.7695
17882 1 10.0002 136.938 44.0523
23676 2 10.9073 138.523 42.7622
17595 1 15.4564 136.938 44.0523
17884 1 12.7279 138.533 44.045
23466 2 13.6357 136.93 42.7695
17593 1 18.1842 138.533 44.045
23468 2 16.3635 138.523 42.7622
23926 2 21.8197 138.523 42.7622
17330 1 20.9126 136.938 44.0523
23169 2 19.0919 136.93 42.7695
18214 1 1.81468 141.722 44.0276
23829 2 2.72255 140.117 42.7539
18077 1 4.54322 140.127 44.0367
23827 2 5.45026 141.711 42.7448
18079 1 7.27092 141.722 44.0276
23677 2 8.17878 140.117 42.7539
17848 1 9.99946 140.127 44.0367
23679 2 10.9065 141.711 42.7448
17594 1 15.4557 140.127 44.0367
17846 1 12.7272 141.722 44.0276
23427 2 13.635 140.117 42.7539
17596 1 18.1834 141.722 44.0276
23425 2 16.3627 141.711 42.7448
23927 2 21.819 141.711 42.7448
17291 1 20.9119 140.127 44.0367
23168 2 19.0913 140.117 42.7539
18215 1 1.81369 144.91 44.0069
23828 2 2.72169 143.304 42.7349
18058 1 4.54233 143.316 44.0177
23830 2 5.44931 144.898 42.7241
18056 1 7.26993 144.91 44.0069
23651 2 8.17793 143.304 42.7349
17847 1 9.99857 143.316 44.0177
23649 2 10.9056 144.898 42.7241
17551 1 15.4548 143.316 44.0177
17849 1 12.7262 144.91 44.0069
23426 2 13.6342 143.304 42.7349
17549 1 18.1824 144.91 44.0069
23428 2 16.3618 144.898 42.7241
23923 2 21.818 144.898 42.7241
17290 1 20.911 143.316 44.0177
23122 2 19.0904 143.304 42.7349
18210 1 1.8125 148.099 43.9828
23817 2 2.72065 146.491 42.7125
18057 1 4.54124 146.505 43.9953
23815 2 5.44817 148.085 42.7001
18059 1 7.26874 148.099 43.9828
23650 2 8.17689 146.491 42.7125
17820 1 9.99748 146.505 43.9953
23652 2 10.9044 148.085 42.7001
17550 1 15.4537 146.505 43.9953
17818 1 12.725 148.099 43.9828
23391 2 13.6331 146.491 42.7125
17552 1 18.1812 148.099 43.9828
23389 2 16.3606 148.085 42.7001
23924 2 21.8169 148.085 42.7001
17245 1 20.91 146.505 43.9953
23121 2 19.0894 146.491 42.7125
23816 2 2.7194 149.678 42.6869
18043 1 4.53995 149.694 43.9696
23628 2 8.17564 149.678 42.6869
17819 1 9.99619 149.694 43.9696
17512 1 15.4524 149.694 43.9696
23390 2 13.6319 149.678 42.6869
17244 1 20.9087 149.694 43.9696
23076 2 19.0881 149.678 42.6869
21999 2 0.906285 101.849 45.2705
16217 1 2.7273 101.839 46.5525
23914 2 3.63496 103.444 45.2823
18184 1 5.45598 103.436 46.5645
23788 2 9.0912 103.444 45.2823
21793 2 6.36252 101.849 45.2705
15967 1 8.18354 101.839 46.5525
21527 2 11.8188 101.849 45.2705
18012 1 10.9122 103.436 46.5645
23584 2 14.5474 103.444 45.2823
15633 1 13.6398 101.839 46.5525
21185 2 17.275 101.849 45.2705
17739 1 16.3685 103.436 46.5645
23285 2 20.0037 103.444 45.2823
18283 1 21.8247 103.436 46.5645
15337 1 19.096 101.839 46.5525
23904 2 0.907362 105.039 45.2934
18185 1 2.72838 105.032 46.5755
18271 1 0.000736645 106.628 46.5858
23902 2 3.63595 106.635 45.3036
18186 1 5.45698 106.628 46.5858
23789 2 6.3636 105.039 45.2934
23790 2 9.09219 106.635 45.3036
17998 1 8.18462 105.032 46.5755
23574 2 11.8198 105.039 45.2934
17996 1 10.9132 106.628 46.5858
23572 2 14.5484 106.635 45.3036
17740 1 13.6409 105.032 46.5755
23286 2 17.2761 105.039 45.2934
17741 1 16.3695 106.628 46.5858
23287 2 20.0047 106.635 45.3036
17409 1 19.0971 105.032 46.5755
23903 2 0.908267 108.23 45.3129
18169 1 2.72929 108.224 46.5952
23777 2 6.36451 108.23 45.3129
17997 1 8.18553 108.224 46.5952
23573 2 11.8207 108.23 45.3129
17726 1 13.6418 108.224 46.5952
23278 2 17.277 108.23 45.3129
17408 1 19.098 108.224 46.5952
23889 2 0.909007 111.421 45.3291
18168 1 2.73004 111.416 46.6114
18272 1 0.00156411 109.82 46.6037
18167 1 5.4578 109.82 46.6037
23905 2 3.63678 109.825 45.3214
23775 2 9.09302 109.825 45.3214
23776 2 6.36525 111.421 45.3291
17978 1 8.18627 111.416 46.6114
17999 1 10.914 109.82 46.6037
23558 2 11.8215 111.421 45.3291
23575 2 14.5493 109.825 45.3214
17725 1 13.6425 111.416 46.6114
17724 1 16.3703 109.82 46.6037
23277 2 17.2777 111.421 45.3291
23276 2 20.0055 109.825 45.3214
17401 1 19.0988 111.416 46.6114
23888 2 0.909587 114.611 45.3418
18146 1 2.73062 114.609 46.6241
18259 1 0.0022291 113.013 46.6182
23887 2 3.63744 113.016 45.3359
18170 1 5.45847 113.013 46.6182
23778 2 9.09367 113.016 45.3359
23757 2 6.36583 114.611 45.3418
17977 1 8.18686 114.609 46.6241
23557 2 11.8221 114.611 45.3418
17976 1 10.9147 113.013 46.6182
23556 2 14.5499 113.016 45.3359
17704 1 13.6431 114.609 46.6241
23262 2 17.2783 114.611 45.3418
17727 1 16.3709 113.013 46.6182
23279 2 20.0062 113.016 45.3359
17400 1 19.0993 114.609 46.6241
23873 2 0.91001 117.802 45.3511
18145 1 2.73105 117.801 46.6334
18260 1 0.00273515 116.205 46.6292
23890 2 3.63794 116.207 45.3469
18144 1 5.45897 116.205 46.6292
23755 2 9.09418 116.207 45.3469
23756 2 6.36625 117.802 45.3511
17950 1 8.18729 117.801 46.6334
23534 2 11.8225 117.802 45.3511
17979 1 10.9152 116.205 46.6292
23559 2 14.5504 116.207 45.3469
17703 1 13.6435 117.801 46.6334
23261 2 17.2787 117.802 45.3511
17702 1 16.3715 116.205 46.6292
23260 2 20.0067 116.207 45.3469
17385 1 19.0998 117.801 46.6334
23872 2 0.91028 120.993 45.3567
18122 1 2.73132 120.993 46.6391
18247 1 0.00308445 119.397 46.6367
23871 2 3.63828 119.397 45.3543
18147 1 5.45932 119.397 46.6367
23730 2 6.36652 120.993 45.3567
23758 2 9.09452 119.397 45.3543
17949 1 8.18756 120.993 46.6391
23533 2 11.8228 120.993 45.3567
17948 1 10.9156 119.397 46.6367
23532 2 14.5508 119.397 45.3543
17674 1 13.6438 120.993 46.6391
23238 2 17.279 120.993 45.3567
17705 1 16.3718 119.397 46.6367
23263 2 20.007 119.397 45.3543
17384 1 19.1 120.993 46.6391
23857 2 0.910396 124.184 45.3589
18121 1 2.73144 124.186 46.6412
18248 1 0.00327786 122.59 46.6406
23874 2 3.63848 122.588 45.3583
18120 1 5.45952 122.59 46.6406
23728 2 9.09471 122.588 45.3583
23729 2 6.36663 124.184 45.3589
17915 1 8.18767 124.186 46.6412
23502 2 11.8229 124.184 45.3589
17951 1 10.9158 122.59 46.6406
23535 2 14.551 122.588 45.3583
17673 1 13.6439 124.186 46.6412
23237 2 17.2791 124.184 45.3589
17672 1 16.372 122.59 46.6406
23236 2 20.0072 122.588 45.3583
17361 1 19.1002 124.186 46.6412
23856 2 0.910358 127.374 45.3574
18098 1 2.73139 127.378 46.6398
18235 1 0.00331498 125.782 46.6409
23855 2 3.63852 125.779 45.3586
18123 1 5.45955 125.782 46.6409
23702 2 6.3666 127.374 45.3574
23731 2 9.09475 125.779 45.3586
17914 1 8.18763 127.378 46.6398
23501 2 11.8228 127.374 45.3574
17913 1 10.9158 125.782 46.6409
23500 2 14.551 125.779 45.3586
17636 1 13.6439 127.378 46.6398
23206 2 17.2791 127.374 45.3574
17675 1 16.372 125.782 46.6409
23239 2 20.0072 125.779 45.3586
17360 1 19.1001 127.378 46.6398
18236 1 0.00319414 128.974 46.6377
23858 2 3.6384 128.97 45.3554
18096 1 5.45943 128.974 46.6377
23700 2 9.09464 128.97 45.3554
17916 1 10.9157 128.974 46.6377
23503 2 14.5509 128.97 45.3554
17634 1 16.3719 128.974 46.6377
23204 2 20.0071 128.97 45.3554
23841 2 0.910164 130.565 45.3524
18097 1 2.73119 130.57 46.6347
18223 1 0.00291246 132.167 46.6309
23839 2 3.63813 132.161 45.3485
18099 1 5.45915 132.167 46.6309
23701 2 6.3664 130.565 45.3524
23703 2 9.09436 132.161 45.3485
17879 1 8.18743 130.57 46.6347
23463 2 11.8226 130.565 45.3524
17877 1 10.9154 132.167 46.6309
23461 2 14.5506 132.161 45.3485
17635 1 13.6437 130.57 46.6347
23205 2 17.2789 130.565 45.3524
17637 1 16.3716 132.167 46.6309
23207 2 20.0068 132.161 45.3485
17329 1 19.0999 130.57 46.6347
23840 2 0.90981 133.756 45.3438
18074 1 2.73083 133.763 46.6261
18224 1 0.00246594 135.359 46.6205
23842 2 3.63769 135.351 45.3382
18072 1 5.4587 135.359 46.6205
23672 2 9.09393 135.351 45.3382
23674 2 6.36605 133.756 45.3438
17878 1 8.18707 133.763 46.6261
23462 2 11.8223 133.756 45.3438
17880 1 10.9149 135.359 46.6205
23464 2 14.5502 135.351 45.3382
17591 1 13.6433 133.763 46.6261
23166 2 17.2785 133.756 45.3438
17589 1 16.3712 135.359 46.6205
23164 2 20.0064 135.351 45.3382
17328 1 19.0995 133.763 46.6261
23825 2 0.90929 136.947 45.3317
18073 1 2.7303 136.955 46.614
18212 1 0.00184965 138.551 46.6066
23823 2 3.63709 138.542 45.3243
18075 1 5.45809 138.551 46.6066
23673 2 6.36553 136.947 45.3317
23675 2 9.09332 138.542 45.3243
17844 1 8.18654 136.955 46.614
23423 2 11.8218 136.947 45.3317
17842 1 10.9143 138.551 46.6066
23421 2 14.5496 138.542 45.3243
17590 1 13.6428 136.955 46.614
23165 2 17.278 136.947 45.3317
17592 1 16.3706 138.551 46.6066
23167 2 20.0058 138.542 45.3243
17289 1 19.099 136.955 46.614
23824 2 0.908599 140.137 45.316
18054 1 2.7296 140.147 46.5983
18213 1 0.00105788 141.744 46.5891
23826 2 3.63631 141.733 45.3069
18052 1 5.4573 141.744 46.5891
23645 2 9.09254 141.733 45.3069
23647 2 6.36484 140.137 45.316
17843 1 8.18583 140.147 46.5983
23422 2 11.8211 140.137 45.316
17845 1 10.9135 141.744 46.5891
23424 2 14.5488 141.733 45.3069
17547 1 13.6421 140.147 46.5983
23119 2 17.2773 140.137 45.316
17545 1 16.3698 141.744 46.5891
23117 2 20.005 141.733 45.3069
17288 1 19.0983 140.147 46.5983
23813 2 0.90773 143.328 45.2969
18053 1 2.72871 143.34 46.5791
18208 1 8.43348e-05 144.936 46.5682
23811 2 3.63535 144.923 45.286
18055 1 5.45632 144.936 46.5682
23646 2 6.36397 143.328 45.2969
23648 2 9.09158 144.923 45.286
17816 1 8.18495 143.34 46.5791
23387 2 11.8202 143.328 45.2969
17814 1 10.9126 144.936 46.5682
23385 2 14.5478 144.923 45.286
17546 1 13.6412 143.34 46.5791
23118 2 17.2764 143.328 45.2969
17548 1 16.3688 144.936 46.5682
23120 2 20.0041 144.923 45.286
17243 1 19.0974 143.34 46.5791
23812 2 0.906675 146.518 45.2743
18042 1 2.72765 146.532 46.5564
18209 1 -0.00107763 148.128 46.5439
23814 2 3.6342 148.114 45.2618
18040 1 5.45516 148.128 46.5439
23625 2 9.09043 148.114 45.2618
23627 2 6.36291 146.518 45.2743
17815 1 8.18388 146.532 46.5564
23386 2 11.8192 146.518 45.2743
17817 1 10.9114 148.128 46.5439
23388 2 14.5467 148.114 45.2618
17511 1 13.6401 146.532 46.5564
23075 2 17.2754 146.518 45.2743
17509 1 16.3676 148.128 46.5439
23073 2 20.0029 148.114 45.2618
17242 1 19.0964 146.532 46.5564
23806 2 0.905428 149.709 45.2485
18041 1 2.72639 149.725 46.5304
23626 2 6.36167 149.709 45.2485
17793 1 8.18263 149.725 46.5304
23356 2 11.8179 149.709 45.2485
17510 1 13.6389 149.725 46.5304
23074 2 17.2741 149.709 45.2485
17199 1 19.0951 149.725 46.5304
23900 2 1.82179 103.427 47.843
16215 1 0.914513 101.82 49.1125
21791 2 4.54938 101.83 47.831
18183 1 3.64315 103.418 49.1246
23787 2 7.27803 103.427 47.843
17993 1 9.09939 103.418 49.1246
15945 1 6.37075 101.82 49.1125
21497 2 10.0056 101.83 47.831
15631 1 11.827 101.82 49.1125
23569 2 12.7343 103.427 47.843
21183 2 15.4619 101.83 47.831
17738 1 14.5556 103.418 49.1246
23284 2 18.1905 103.427 47.843
15294 1 17.2832 101.82 49.1125
20855 2 20.9181 101.83 47.831
17405 1 20.0119 103.418 49.1246
23901 2 1.82274 106.621 47.8645
18165 1 0.915518 105.016 49.1358
23773 2 4.5504 105.024 47.8542
18163 1 3.64409 106.614 49.1462
23771 2 7.27898 106.621 47.8645
17994 1 6.37176 105.016 49.1358
17995 1 9.10032 106.614 49.1462
23570 2 10.0066 105.024 47.8542
17722 1 11.828 105.016 49.1358
23274 2 15.4629 105.024 47.8542
23571 2 12.7352 106.621 47.8645
17720 1 14.5566 106.614 49.1462
23272 2 18.1915 106.621 47.8645
17406 1 17.2842 105.016 49.1358
22932 2 20.9191 105.024 47.8542
17407 1 20.0128 106.614 49.1462
18164 1 0.916377 108.212 49.1557
23772 2 4.55127 108.218 47.8739
17974 1 6.37262 108.212 49.1557
23554 2 10.0075 108.218 47.8739
17721 1 11.8289 108.212 49.1557
23273 2 15.4638 108.218 47.8739
17398 1 17.2851 108.212 49.1557
22931 2 20.92 108.218 47.8739
23885 2 1.82353 109.815 47.8825
18142 1 0.917089 111.408 49.172
18166 1 3.64487 109.81 49.1643
23753 2 4.55199 111.412 47.8902
23774 2 7.27977 109.815 47.8825
17972 1 9.10111 109.81 49.1643
17973 1 6.37333 111.408 49.172
23553 2 10.0082 111.412 47.8902
17700 1 11.8296 111.408 49.172
23552 2 12.736 109.815 47.8825
17723 1 14.5573 109.81 49.1643
23258 2 15.4645 111.412 47.8902
23275 2 18.1922 109.815 47.8825
17397 1 17.2858 111.408 49.172
17396 1 20.0136 109.81 49.1643
22930 2 20.9207 111.412 47.8902
23886 2 1.82418 113.009 47.8971
18141 1 0.917653 114.603 49.1848
23752 2 4.55256 114.606 47.903
18140 1 3.64551 113.005 49.1789
23751 2 7.28042 113.009 47.8971
17975 1 9.10175 113.005 49.1789
17946 1 6.37389 114.603 49.1848
23530 2 10.0088 114.606 47.903
17699 1 11.8301 114.603 49.1848
23555 2 12.7367 113.009 47.8971
23257 2 15.465 114.606 47.903
17698 1 14.558 113.005 49.1789
23256 2 18.1929 113.009 47.8971
17382 1 17.2864 114.603 49.1848
22923 2 20.9213 114.606 47.903
17399 1 20.0142 113.005 49.1789
23869 2 1.82467 116.203 47.9081
18118 1 0.918068 117.799 49.1941
23726 2 4.55298 117.8 47.9123
18143 1 3.646 116.201 49.1899
23754 2 7.28091 116.203 47.9081
17944 1 9.10224 116.201 49.1899
17945 1 6.37431 117.799 49.1941
23529 2 10.0092 117.8 47.9123
17670 1 11.8305 117.799 49.1941
23234 2 15.4655 117.8 47.9123
23528 2 12.7371 116.203 47.9081
17701 1 14.5585 116.201 49.1899
23259 2 18.1934 116.203 47.9081
17381 1 17.2868 117.799 49.1941
22922 2 20.9217 117.8 47.9123
17380 1 20.0147 116.201 49.1899
23870 2 1.82501 119.397 47.9156
18117 1 0.918332 120.994 49.1998
23725 2 4.55324 120.994 47.918
18116 1 3.64634 119.396 49.1974
23724 2 7.28125 119.397 47.9156
17911 1 6.37457 120.994 49.1998
17947 1 9.10258 119.396 49.1974
23498 2 10.0095 120.994 47.918
17669 1 11.8308 120.994 49.1998
23233 2 15.4657 120.994 47.918
23531 2 12.7375 119.397 47.9156
17668 1 14.5588 119.396 49.1974
23232 2 18.1937 119.397 47.9156
17358 1 17.287 120.994 49.1998
22907 2 20.922 120.994 47.918
17383 1 20.0151 119.396 49.1974
23853 2 1.8252 122.591 47.9195
18094 1 0.918442 124.19 49.202
23698 2 4.55336 124.188 47.9201
18119 1 3.64653 122.592 49.2014
23727 2 7.28144 122.591 47.9195
17909 1 9.10276 122.592 49.2014
17910 1 6.37468 124.19 49.202
23497 2 10.0096 124.188 47.9201
17632 1 11.8309 124.19 49.202
23202 2 15.4658 124.188 47.9201
23496 2 12.7377 122.591 47.9195
17671 1 14.559 122.592 49.2014
23235 2 18.1939 122.591 47.9195
17357 1 17.2872 124.19 49.202
22906 2 20.9221 124.188 47.9201
17356 1 20.0152 122.592 49.2014
23854 2 1.82523 125.785 47.9198
18093 1 0.918398 127.385 49.2005
23697 2 4.55331 127.382 47.9187
18092 1 3.64656 125.788 49.2017
23696 2 7.28147 125.785 47.9198
17875 1 6.37464 127.385 49.2005
17912 1 9.1028 125.788 49.2017
23459 2 10.0096 127.382 47.9187
17631 1 11.8309 127.385 49.2005
23201 2 15.4658 127.382 47.9187
23499 2 12.7377 125.785 47.9198
17630 1 14.559 125.788 49.2017
23200 2 18.194 125.785 47.9198
17326 1 17.2871 127.385 49.2005
22883 2 20.922 127.382 47.9187
17359 1 20.0153 125.788 49.2017
23837 2 1.82511 128.979 47.9166
18095 1 3.64644 128.983 49.1984
23699 2 7.28135 128.979 47.9166
17873 1 9.10267 128.983 49.1984
23457 2 12.7376 128.979 47.9166
17633 1 14.5589 128.983 49.1984
23203 2 18.1938 128.979 47.9166
17324 1 20.0152 128.983 49.1984
18070 1 0.918196 130.581 49.1955
23838 2 1.82484 132.173 47.9098
23670 2 4.55311 130.576 47.9136
18068 1 3.64615 132.179 49.1916
17874 1 6.37443 130.581 49.1955
23668 2 7.28107 132.173 47.9098
17876 1 9.10239 132.179 49.1916
23458 2 10.0094 130.576 47.9136
17587 1 11.8307 130.581 49.1955
23162 2 15.4656 130.576 47.9136
23460 2 12.7373 132.173 47.9098
17585 1 14.5586 132.179 49.1916
17325 1 17.2869 130.581 49.1955
23160 2 18.1936 132.173 47.9098
22882 2 20.9218 130.576 47.9136
17327 1 20.0149 132.179 49.1916
23821 2 1.8244 135.367 47.8993
18069 1 0.917836 133.777 49.1868
23669 2 4.55276 133.77 47.905
18071 1 3.64571 135.374 49.1812
23671 2 7.28064 135.367 47.8993
17838 1 9.10195 135.374 49.1812
17840 1 6.37407 133.777 49.1868
23419 2 10.009 133.77 47.905
17586 1 11.8303 133.777 49.1868
23161 2 15.4652 133.77 47.905
23417 2 12.7369 135.367 47.8993
17588 1 14.5582 135.374 49.1812
23163 2 18.1931 135.367 47.8993
17286 1 17.2866 133.777 49.1868
22851 2 20.9215 133.77 47.905
17284 1 20.0144 135.374 49.1812
23822 2 1.8238 138.561 47.8853
18050 1 0.917315 136.972 49.1746
23643 2 4.55224 136.964 47.8928
18048 1 3.64511 138.57 49.1671
23641 2 7.28004 138.561 47.8853
17839 1 6.37355 136.972 49.1746
17841 1 9.10135 138.57 49.1671
23418 2 10.0085 136.964 47.8928
17543 1 11.8298 136.972 49.1746
23115 2 15.4647 136.964 47.8928
23420 2 12.7363 138.561 47.8853
17541 1 14.5576 138.57 49.1671
23113 2 18.1925 138.561 47.8853
17285 1 17.286 136.972 49.1746
22850 2 20.921 136.964 47.8928
17287 1 20.0138 138.57 49.1671
23809 2 1.82303 141.755 47.8678
18049 1 0.916633 140.168 49.1587
23642 2 4.55156 140.158 47.877
18051 1 3.64435 141.766 49.1495
23644 2 7.27927 141.755 47.8678
17810 1 9.10059 141.766 49.1495
17812 1 6.37287 140.168 49.1587
23383 2 10.0078 140.158 47.877
17542 1 11.8291 140.168 49.1587
23114 2 15.464 140.158 47.877
23381 2 12.7355 141.755 47.8678
17544 1 14.5568 141.766 49.1495
23116 2 18.1917 141.755 47.8678
17240 1 17.2853 140.168 49.1587
22811 2 20.9203 140.158 47.877
17238 1 20.0131 141.766 49.1495
23810 2 1.8221 144.949 47.8467
18038 1 0.91579 143.363 49.1393
23623 2 4.55071 143.352 47.8577
18036 1 3.64343 144.961 49.1283
23621 2 7.27834 144.949 47.8467
17811 1 6.37203 143.363 49.1393
17813 1 9.09967 144.961 49.1283
23382 2 10.0069 143.352 47.8577
17507 1 11.8283 143.363 49.1393
23071 2 15.4632 143.352 47.8577
23384 2 12.7346 144.949 47.8467
17505 1 14.5559 144.961 49.1283
23069 2 18.1908 144.949 47.8467
17239 1 17.2845 143.363 49.1393
22810 2 20.9194 143.352 47.8577
17241 1 20.0121 144.961 49.1283
23805 2 1.821 148.143 47.8222
18037 1 0.914786 146.559 49.1164
23622 2 4.54969 146.546 47.8349
18039 1 3.64234 148.157 49.1036
23624 2 7.27724 148.143 47.8222
17790 1 9.09858 148.157 49.1036
17792 1 6.37102 146.559 49.1164
23355 2 10.0059 146.546 47.8349
17506 1 11.8273 146.559 49.1164
23070 2 15.4622 146.546 47.8349
23353 2 12.7335 148.143 47.8222
17508 1 14.5548 148.157 49.1036
23072 2 18.1897 148.143 47.8222
17198 1 17.2835 146.559 49.1164
22767 2 20.9184 146.546 47.8349
17196 1 20.0111 148.157 49.1036
18031 1 0.913622 149.756 49.0899
23608 2 4.5485 149.74 47.8086
17791 1 6.36986 149.756 49.0899
23354 2 10.0047 149.74 47.8086
17476 1 11.8261 149.756 49.0899
23032 2 15.461 149.74 47.8086
17197 1 17.2823 149.756 49.0899
22766 2 20.9172 149.74 47.8086
21777 2 2.73694 101.811 50.3904
23899 2 0.00930549 103.41 50.4026
18161 1 1.831 103.401 51.6836
21775 2 0.925166 101.792 52.9486
23768 2 5.46554 103.41 50.4026
23767 2 3.65371 103.392 52.961
15943 1 4.55866 101.801 51.6713
21495 2 8.19318 101.811 50.3904
17992 1 7.28724 103.401 51.6836
23545 2 9.10995 103.392 52.961
21473 2 6.3814 101.792 52.9486
23568 2 10.9218 103.41 50.4026
15601 1 10.0149 101.801 51.6713
21143 2 11.8376 101.792 52.9486
21145 2 13.6494 101.811 50.3904
17717 1 12.7435 103.401 51.6836
23268 2 14.5662 103.392 52.961
15292 1 15.4711 101.801 51.6713
23269 2 16.378 103.41 50.4026
17404 1 18.1997 103.401 51.6836
20812 2 17.2939 101.792 52.9486
20853 2 19.1057 101.811 50.3904
22925 2 20.0224 103.392 52.961
14995 1 20.9274 101.801 51.6713
23769 2 2.73788 105.008 50.4139
23883 2 0.0101813 106.607 50.4243
18162 1 1.83184 106.6 51.7055
23745 2 0.925997 104.993 52.9725
23770 2 5.46642 106.607 50.4243
17970 1 4.55956 105.001 51.695
23743 2 3.6545 106.593 52.9831
23550 2 8.19412 105.008 50.4139
17968 1 7.28808 106.6 51.7055
23546 2 6.38224 104.993 52.9725
23547 2 9.11074 106.593 52.9831
23548 2 10.9227 106.607 50.4243
17718 1 10.0158 105.001 51.695
23250 2 11.8385 104.993 52.9725
23270 2 13.6504 105.008 50.4139
17394 1 15.472 105.001 51.695
17719 1 12.7443 106.6 51.7055
23248 2 14.567 106.593 52.9831
23271 2 16.3789 106.607 50.4243
17392 1 18.2006 106.6 51.7055
22926 2 17.2947 104.993 52.9725
22929 2 19.1066 105.008 50.4139
17067 1 20.9283 105.001 51.695
22927 2 20.0232 106.593 52.9831
23749 2 2.73869 108.206 50.4339
23744 2 0.926733 108.193 52.9928
17969 1 4.56034 108.2 51.7151
23549 2 8.19493 108.206 50.4339
23522 2 6.38297 108.193 52.9928
17696 1 10.0166 108.2 51.7151
23249 2 11.8392 108.193 52.9928
23254 2 13.6512 108.206 50.4339
17393 1 15.4728 108.2 51.7151
22918 2 17.2954 108.193 52.9928
22928 2 19.1074 108.206 50.4339
17066 1 20.9291 108.2 51.7151
18138 1 1.83257 109.799 51.7238
23884 2 0.0109276 109.804 50.4425
23748 2 2.73937 111.403 50.4503
23718 2 0.927361 111.394 53.0094
23746 2 3.65518 109.794 53.0015
23747 2 5.46717 109.804 50.4425
17942 1 4.561 111.399 51.7316
17971 1 7.28881 109.799 51.7238
23520 2 9.11142 109.794 53.0015
23526 2 8.19561 111.403 50.4503
23521 2 6.3836 111.394 53.0094
23551 2 10.9234 109.804 50.4425
17695 1 10.0172 111.399 51.7316
23226 2 11.8398 111.394 53.0094
17694 1 12.745 109.799 51.7238
23251 2 14.5677 109.794 53.0015
23253 2 13.6518 111.403 50.4503
17378 1 15.4735 111.399 51.7316
17395 1 18.2013 109.799 51.7238
23252 2 16.3796 109.804 50.4425
22917 2 17.2961 111.394 53.0094
22916 2 20.0239 109.794 53.0015
22921 2 19.1081 111.403 50.4503
17065 1 20.9297 111.399 51.7316
23867 2 0.0115393 113.002 50.4572
23722 2 2.73991 114.6 50.4632
18139 1 1.83317 112.998 51.7385
23717 2 0.927871 114.594 53.0224
23750 2 5.46778 113.002 50.4572
23716 2 3.65575 112.994 53.0164
17941 1 4.56154 114.597 51.7446
23525 2 8.19615 114.6 50.4632
17940 1 7.28941 112.998 51.7385
23523 2 9.11199 112.994 53.0164
23490 2 6.38411 114.594 53.0224
23524 2 10.924 113.002 50.4572
17666 1 10.0178 114.597 51.7446
23225 2 11.8403 114.594 53.0224
23230 2 13.6524 114.6 50.4632
17697 1 12.7456 112.998 51.7385
23224 2 14.5682 112.994 53.0164
17377 1 15.474 114.597 51.7446
23255 2 16.3803 113.002 50.4572
17376 1 18.2019 112.998 51.7385
22902 2 17.2966 114.594 53.0224
22920 2 19.1086 114.6 50.4632
22919 2 20.0245 112.994 53.0164
17058 1 20.9303 114.597 51.7446
23721 2 2.74031 117.797 50.4725
23868 2 0.0120116 116.199 50.4683
18114 1 1.83363 116.197 51.7497
23690 2 0.928251 117.795 53.0318
23720 2 5.46825 116.199 50.4683
17907 1 4.56193 117.796 51.7539
23719 2 3.6562 116.195 53.0276
23494 2 8.19655 117.797 50.4725
17943 1 7.28987 116.197 51.7497
23488 2 9.11243 116.195 53.0276
23489 2 6.38449 117.795 53.0318
23527 2 10.9245 116.199 50.4683
17665 1 10.0182 117.796 51.7539
23194 2 11.8407 117.795 53.0318
23229 2 13.6528 117.797 50.4725
17354 1 15.4744 117.796 51.7539
17664 1 12.7461 116.197 51.7497
23227 2 14.5687 116.195 53.0276
23228 2 16.3807 116.199 50.4683
17379 1 18.2023 116.197 51.7497
22901 2 17.297 117.795 53.0318
22905 2 19.109 117.797 50.4725
17057 1 20.9306 117.796 51.7539
22900 2 20.0249 116.195 53.0276
23694 2 2.74057 120.995 50.4783
23851 2 0.0123404 119.396 50.4759
18115 1 1.83396 119.396 51.7572
23689 2 0.928495 120.995 53.0376
23723 2 5.46858 119.396 50.4759
17906 1 4.56218 120.995 51.7597
23688 2 3.65651 119.395 53.0351
23493 2 8.19681 120.995 50.4783
17905 1 7.29019 119.396 51.7572
23451 2 6.38473 120.995 53.0376
23491 2 9.11275 119.395 53.0351
23492 2 10.9248 119.396 50.4759
17628 1 10.0184 120.995 51.7597
23193 2 11.841 120.995 53.0376
23198 2 13.653 120.995 50.4783
17353 1 15.4747 120.995 51.7597
17667 1 12.7464 119.396 51.7572
23192 2 14.569 119.395 53.0351
23231 2 16.3811 119.396 50.4759
17352 1 18.2027 119.396 51.7572
22878 2 17.2972 120.995 53.0376
22904 2 19.1093 120.995 50.4783
17042 1 20.9309 120.995 51.7597
22903 2 20.0252 119.395 53.0351
23693 2 2.74068 124.192 50.4804
23852 2 0.0125219 122.593 50.4798
18090 1 1.83414 122.594 51.7612
23662 2 0.928596 124.196 53.0397
23692 2 5.46876 122.593 50.4798
17871 1 4.56229 124.194 51.7618
23691 2 3.65668 122.596 53.0391
23455 2 8.19691 124.192 50.4804
17908 1 7.29037 122.594 51.7612
23449 2 9.11292 122.596 53.0391
23450 2 6.38483 124.196 53.0397
23495 2 10.925 122.593 50.4798
17627 1 10.0185 124.194 51.7618
23154 2 11.8411 124.196 53.0397
23197 2 13.6532 124.192 50.4804
17322 1 15.4748 124.194 51.7618
17626 1 12.7466 122.594 51.7612
23195 2 14.5692 122.596 53.0391
23196 2 16.3812 122.593 50.4798
17355 1 18.2029 122.594 51.7612
22877 2 17.2973 124.196 53.0397
22881 2 19.1094 124.192 50.4804
17041 1 20.931 124.194 51.7618
22876 2 20.0254 122.596 53.0391
23666 2 2.74063 127.389 50.4789
23835 2 0.0125533 125.79 50.4801
18091 1 1.83417 125.793 51.7615
23661 2 0.928552 127.396 53.0382
23695 2 5.46879 125.79 50.4801
17870 1 4.56224 127.393 51.7603
23660 2 3.65671 125.796 53.0394
23454 2 8.19687 127.389 50.4789
17869 1 7.2904 125.793 51.7615
23411 2 6.38479 127.396 53.0382
23452 2 9.11295 125.796 53.0394
23453 2 10.925 125.79 50.4801
17583 1 10.0185 127.393 51.7603
23153 2 11.841 127.396 53.0382
23158 2 13.6531 127.389 50.4789
17321 1 15.4747 127.393 51.7603
17629 1 12.7466 125.793 51.7615
23152 2 14.5692 125.796 53.0394
23199 2 16.3813 125.79 50.4801
17320 1 18.2029 125.793 51.7615
22846 2 17.2973 127.396 53.0382
22880 2 19.1093 127.389 50.4789
17018 1 20.931 127.393 51.7603
22879 2 20.0254 125.796 53.0394
23836 2 0.0124326 128.988 50.4769
18066 1 1.83404 128.992 51.7582
23664 2 5.46867 128.988 50.4769
23663 2 3.65659 128.997 53.0361
17872 1 7.29028 128.992 51.7582
23409 2 9.11283 128.997 53.0361
23456 2 10.9249 128.988 50.4769
17581 1 12.7465 128.992 51.7582
23155 2 14.5691 128.997 53.0361
23156 2 16.3811 128.988 50.4769
17323 1 18.2028 128.992 51.7582
22844 2 20.0253 128.997 53.0361
23665 2 2.74043 130.586 50.4739
23635 2 0.92836 130.597 53.0331
23819 2 0.0121586 132.185 50.47
18067 1 1.83377 132.191 51.7513
17836 1 4.56205 130.592 51.7552
23667 2 5.4684 132.185 50.47
23633 2 3.65633 132.197 53.0292
23415 2 8.19667 130.586 50.4739
23410 2 6.3846 130.597 53.0331
17834 1 7.29001 132.191 51.7513
23412 2 9.11257 132.197 53.0292
17582 1 10.0183 130.592 51.7552
23107 2 11.8408 130.597 53.0331
23413 2 10.9246 132.185 50.47
23157 2 13.6529 130.586 50.4739
17282 1 15.4745 130.592 51.7552
17584 1 12.7462 132.191 51.7513
23105 2 14.5688 132.197 53.0292
22845 2 17.2971 130.597 53.0331
23159 2 16.3809 132.185 50.47
17280 1 18.2025 132.191 51.7513
22849 2 19.1091 130.586 50.4739
17017 1 20.9308 130.592 51.7552
22847 2 20.025 132.197 53.0292
23639 2 2.74008 133.783 50.4652
23820 2 0.0117312 135.382 50.4595
18046 1 1.83335 135.39 51.7408
23634 2 0.928022 133.797 53.0244
23637 2 5.46797 135.382 50.4595
17835 1 4.5617 133.79 51.7465
23636 2 3.65592 135.398 53.0186
23414 2 8.19632 133.783 50.4652
17837 1 7.28959 135.39 51.7408
23373 2 9.11216 135.398 53.0186
23375 2 6.38426 133.797 53.0244
23416 2 10.9242 135.382 50.4595
17539 1 10.0179 133.79 51.7465
23106 2 11.8405 133.797 53.0244
23111 2 13.6526 133.783 50.4652
17281 1 15.4742 133.79 51.7465
17537 1 12.7458 135.39 51.7408
23108 2 14.5684 135.398 53.0186
23109 2 16.3804 135.382 50.4595
17283 1 18.2021 135.39 51.7408
22806 2 17.2967 133.797 53.0244
22848 2 19.1088 133.783 50.4652
16986 1 20.9304 133.79 51.7465
22804 2 20.0246 135.398 53.0186
23638 2 2.73958 136.981 50.4529
23807 2 0.0111517 138.579 50.4454
18047 1 1.83277 138.589 51.7266
23615 2 0.927542 136.998 53.0119
23640 2 5.46739 138.579 50.4454
17808 1 4.5612 136.989 51.7342
23613 2 3.65537 138.598 53.0043
23379 2 8.19582 136.981 50.4529
17806 1 7.28901 138.589 51.7266
23374 2 6.38378 136.998 53.0119
23376 2 9.11161 138.598 53.0043
23377 2 10.9236 138.579 50.4454
17538 1 10.0174 136.989 51.7342
23063 2 11.84 136.998 53.0119
23110 2 13.6521 136.981 50.4529
17236 1 15.4737 136.989 51.7342
17540 1 12.7453 138.589 51.7266
23061 2 14.5678 138.598 53.0043
23112 2 16.3799 138.579 50.4454
17234 1 18.2015 138.589 51.7266
22805 2 17.2963 136.998 53.0119
22809 2 19.1083 136.981 50.4529
16985 1 20.9299 136.989 51.7342
22807 2 20.0241 138.598 53.0043
23619 2 2.73893 140.178 50.4369
23808 2 0.0104231 141.777 50.4276
18034 1 1.83206 141.788 51.7088
23614 2 0.926927 140.199 52.9958
23617 2 5.46666 141.777 50.4276
17807 1 4.56055 140.188 51.7181
23616 2 3.65469 141.799 52.9863
23378 2 8.19516 140.178 50.4369
17809 1 7.2883 141.788 51.7088
23345 2 9.11093 141.799 52.9863
23347 2 6.38317 140.199 52.9958
23380 2 10.9229 141.777 50.4276
17503 1 10.0168 140.188 51.7181
23062 2 11.8394 140.199 52.9958
23067 2 13.6514 140.178 50.4369
17235 1 15.473 140.188 51.7181
17501 1 12.7445 141.788 51.7088
23064 2 14.5672 141.799 52.9863
23065 2 16.3791 141.777 50.4276
17237 1 18.2008 141.788 51.7088
22762 2 17.2956 140.199 52.9958
22808 2 19.1076 140.178 50.4369
16950 1 20.9293 140.188 51.7181
22760 2 20.0234 141.799 52.9863
23618 2 2.73812 143.375 50.4174
23803 2 0.00954982 144.974 50.4062
18035 1 1.83121 144.987 51.6872
23603 2 0.926188 143.399 52.9759
23620 2 5.46579 144.974 50.4062
17788 1 4.55977 143.387 51.6985
23601 2 3.65389 145 52.9646
23351 2 8.19436 143.375 50.4174
17786 1 7.28745 144.987 51.6872
23346 2 6.38243 143.399 52.9759
23348 2 9.11013 145 52.9646
23349 2 10.922 144.974 50.4062
17502 1 10.016 143.387 51.6985
23027 2 11.8387 143.399 52.9759
23066 2 13.6506 143.375 50.4174
17194 1 15.4722 143.387 51.6985
17504 1 12.7437 144.987 51.6872
23025 2 14.5664 145 52.9646
23068 2 16.3783 144.974 50.4062
17192 1 18.1999 144.987 51.6872
22761 2 17.2949 143.399 52.9759
22765 2 19.1068 143.375 50.4174
16949 1 20.9285 143.387 51.6985
22763 2 20.0226 145 52.9646
23607 2 2.73718 146.573 50.3942
23804 2 0.00853793 148.172 50.3812
18030 1 1.83024 148.187 51.662
23602 2 0.925336 146.6 52.9523
23605 2 5.46478 148.172 50.3812
17787 1 4.55886 146.587 51.6751
23604 2 3.65299 148.201 52.9391
23350 2 8.19342 146.573 50.3942
17789 1 7.28648 148.187 51.662
23325 2 9.10923 148.201 52.9391
23327 2 6.38157 146.6 52.9523
23352 2 10.921 148.172 50.3812
17475 1 10.0151 146.587 51.6751
23026 2 11.8378 146.6 52.9523
23031 2 13.6497 146.573 50.3942
17193 1 15.4713 146.587 51.6751
17473 1 12.7427 148.187 51.662
23028 2 14.5655 148.201 52.9391
23029 2 16.3773 148.172 50.3812
17195 1 18.199 148.187 51.662
22722 2 17.2941 146.6 52.9523
22764 2 19.1059 146.573 50.3942
16914 1 20.9276 146.587 51.6751
22720 2 20.0217 148.201 52.9391
23606 2 2.7361 149.771 50.3674
23596 2 0.92439 149.802 52.9249
17773 1 4.55783 149.787 51.648
23328 2 8.19234 149.771 50.3674
23326 2 6.38063 149.802 52.9249
17474 1 10.0141 149.787 51.648
22996 2 11.8369 149.802 52.9249
23030 2 13.6486 149.771 50.3674
17157 1 15.4703 149.787 51.648
22721 2 17.2931 149.802 52.9249
22723 2 19.1048 149.771 50.3674
16913 1 20.9265 149.787 51.648
18160 1 0.0194821 103.384 54.2415
15929 1 2.7472 101.782 54.2289
23741 2 1.84249 103.375 55.5184
17965 1 5.47572 103.384 54.2415
21471 2 4.57024 101.772 55.5057
15599 1 8.20344 101.782 54.2289
23544 2 7.29873 103.375 55.5184
17716 1 10.932 103.384 54.2415
21113 2 10.0265 101.772 55.5057
15256 1 13.6597 101.782 54.2289
23245 2 12.755 103.375 55.5184
20810 2 15.4827 101.772 55.5057
17389 1 16.3882 103.384 54.2415
22924 2 18.2112 103.375 55.5184
14993 1 19.1159 101.782 54.2289
20536 2 20.939 101.772 55.5057
17966 1 2.74798 104.985 54.2531
18136 1 0.0202252 106.586 54.2637
23742 2 1.84318 106.579 55.5408
17967 1 5.47646 106.586 54.2637
23518 2 4.57096 104.977 55.5301
17692 1 8.20422 104.985 54.2531
23516 2 7.29942 106.579 55.5408
17690 1 10.9327 106.586 54.2637
23246 2 10.0272 104.977 55.5301
17390 1 13.6605 104.985 54.2531
22914 2 15.4834 104.977 55.5301
23247 2 12.7557 106.579 55.5408
17391 1 16.3889 106.586 54.2637
22912 2 18.2119 106.579 55.5408
17064 1 19.1167 104.985 54.2531
22602 2 20.9397 104.977 55.5301
17938 1 2.74868 108.187 54.2735
23517 2 4.57162 108.181 55.5506
17691 1 8.20492 108.187 54.2735
23222 2 10.0279 108.181 55.5506
17374 1 13.6612 108.187 54.2735
22913 2 15.4841 108.181 55.5506
17063 1 19.1174 108.187 54.2735
22601 2 20.9403 108.181 55.5506
18137 1 0.0208807 109.788 54.2823
23714 2 1.8438 109.783 55.5595
17937 1 2.74929 111.389 54.2902
17936 1 5.47712 109.788 54.2823
23486 2 4.57219 111.385 55.5675
23519 2 7.30004 109.783 55.5595
17662 1 8.20553 111.389 54.2902
17693 1 10.9334 109.788 54.2823
23221 2 10.0284 111.385 55.5675
23220 2 12.7563 109.783 55.5595
17373 1 13.6618 111.389 54.2902
22898 2 15.4847 111.385 55.5675
17372 1 16.3896 109.788 54.2823
22915 2 18.2125 109.783 55.5595
17056 1 19.118 111.389 54.2902
22600 2 20.9409 111.385 55.5675
18112 1 0.0214331 112.991 54.2972
17903 1 2.74979 114.592 54.3033
23715 2 1.84432 112.987 55.5745
17939 1 5.47767 112.991 54.2972
23485 2 4.57267 114.589 55.5806
17661 1 8.20602 114.592 54.3033
23484 2 7.30056 112.987 55.5745
17660 1 10.9339 112.991 54.2972
23190 2 10.0289 114.589 55.5806
17350 1 13.6623 114.592 54.3033
23223 2 12.7568 112.987 55.5745
22897 2 15.4851 114.589 55.5806
17375 1 16.3901 112.991 54.2972
22896 2 18.213 112.987 55.5745
17055 1 19.1185 114.592 54.3033
22593 2 20.9414 114.589 55.5806
17902 1 2.75016 117.794 54.3127
18113 1 0.0218684 116.193 54.3084
23686 2 1.84474 116.191 55.5858
17901 1 5.47811 116.193 54.3084
23447 2 4.57303 117.792 55.5901
17624 1 8.2064 117.794 54.3127
23487 2 7.30098 116.191 55.5858
17663 1 10.9343 116.193 54.3084
23189 2 10.0293 117.792 55.5901
17349 1 13.6626 117.794 54.3127
22874 2 15.4855 117.792 55.5901
23188 2 12.7572 116.191 55.5858
17348 1 16.3906 116.193 54.3084
22899 2 18.2135 116.191 55.5858
17040 1 19.1189 117.794 54.3127
22592 2 20.9417 117.792 55.5901
17867 1 2.7504 120.996 54.3185
18088 1 0.0221753 119.395 54.316
23687 2 1.84504 119.394 55.5934
17904 1 5.47841 119.395 54.316
23446 2 4.57326 120.996 55.5959
17623 1 8.20664 120.996 54.3185
23445 2 7.30128 119.394 55.5934
17622 1 10.9347 119.395 54.316
23150 2 10.0295 120.996 55.5959
17318 1 13.6629 120.996 54.3185
22873 2 15.4857 120.996 55.5959
23191 2 12.7575 119.394 55.5934
17351 1 16.3909 119.395 54.316
22872 2 18.2138 119.394 55.5934
17039 1 19.1191 120.996 54.3185
22577 2 20.942 120.996 55.5959
17866 1 2.7505 124.198 54.3206
18089 1 0.0223454 122.597 54.32
23658 2 1.8452 122.598 55.5974
17865 1 5.47858 122.597 54.32
23407 2 4.57335 124.2 55.5981
17579 1 8.20673 124.198 54.3206
23448 2 7.30144 122.598 55.5974
17625 1 10.9348 122.597 54.32
23149 2 10.0296 124.2 55.5981
17317 1 13.663 124.198 54.3206
22842 2 15.4858 124.2 55.5981
23148 2 12.7577 122.598 55.5974
17316 1 16.3911 122.597 54.32
22875 2 18.2139 122.598 55.5974
17016 1 19.1192 124.198 54.3206
22576 2 20.9421 124.2 55.5981
17832 1 2.75045 127.4 54.3191
18064 1 0.0223733 125.799 54.3203
23659 2 1.84523 125.802 55.5978
17868 1 5.47861 125.799 54.3203
23406 2 4.57331 127.404 55.5966
17578 1 8.20669 127.4 54.3191
23405 2 7.30147 125.802 55.5978
17577 1 10.9349 125.799 54.3203
23103 2 10.0295 127.404 55.5966
17278 1 13.6629 127.4 54.3191
22841 2 15.4858 127.404 55.5966
23151 2 12.7577 125.802 55.5978
17319 1 16.3911 125.799 54.3203
22840 2 18.2139 125.802 55.5978
17015 1 19.1192 127.4 54.3191
22553 2 20.942 127.404 55.5966
18065 1 0.0222561 129.001 54.317
23631 2 1.84512 129.006 55.5944
17830 1 5.47849 129.001 54.317
23408 2 7.30136 129.006 55.5944
17580 1 10.9347 129.001 54.317
23101 2 12.7576 129.006 55.5944
17276 1 16.391 129.001 54.317
22843 2 18.2138 129.006 55.5944
17831 1 2.75026 130.602 54.314
18044 1 0.0219939 132.203 54.3101
23632 2 1.84486 132.209 55.5874
23371 2 4.57313 130.608 55.5914
17833 1 5.47823 132.203 54.3101
17535 1 8.2065 130.602 54.314
23369 2 7.3011 132.209 55.5874
23102 2 10.0294 130.608 55.5914
17533 1 10.9345 132.203 54.3101
17277 1 13.6627 130.602 54.314
22802 2 15.4856 130.608 55.5914
23104 2 12.7573 132.209 55.5874
17279 1 16.3907 132.203 54.3101
22800 2 18.2136 132.209 55.5874
16984 1 19.119 130.602 54.314
22552 2 20.9418 130.608 55.5914
17804 1 2.74993 133.804 54.3052
18045 1 0.0215907 135.406 54.2994
23611 2 1.84447 135.413 55.5767
17802 1 5.47783 135.406 54.2994
23370 2 4.5728 133.811 55.5825
17534 1 8.20617 133.804 54.3052
23372 2 7.30071 135.413 55.5767
17536 1 10.9341 135.406 54.2994
23059 2 10.029 133.811 55.5825
17232 1 13.6624 133.804 54.3052
22801 2 15.4853 133.811 55.5825
23057 2 12.7569 135.413 55.5767
17230 1 16.3903 135.406 54.2994
22803 2 18.2132 135.413 55.5767
16983 1 19.1186 133.804 54.3052
22522 2 20.9415 133.811 55.5825
17803 1 2.74946 137.007 54.2927
18032 1 0.0210544 138.608 54.2851
23612 2 1.84396 138.617 55.5623
17805 1 5.47729 138.608 54.2851
23343 2 4.57235 137.015 55.57
17499 1 8.2057 137.007 54.2927
23341 2 7.3002 138.617 55.5623
17497 1 10.9335 138.608 54.2851
23058 2 10.0286 137.015 55.57
17231 1 13.6619 137.007 54.2927
22758 2 15.4848 137.015 55.57
23060 2 12.7564 138.617 55.5623
17233 1 16.3898 138.608 54.2851
22756 2 18.2127 138.617 55.5623
16948 1 19.1182 137.007 54.2927
22521 2 20.9411 137.015 55.57
17784 1 2.74886 140.209 54.2765
18033 1 0.0203965 141.81 54.267
23599 2 1.84333 141.821 55.544
17782 1 5.47663 141.81 54.267
23342 2 4.57178 140.219 55.5536
17498 1 8.2051 140.209 54.2765
23344 2 7.29957 141.821 55.544
17500 1 10.9329 141.81 54.267
23023 2 10.028 140.219 55.5536
17190 1 13.6613 140.209 54.2765
22757 2 15.4843 140.219 55.5536
23021 2 12.7558 141.821 55.544
17188 1 16.3891 141.81 54.267
22759 2 18.212 141.821 55.544
16947 1 19.1176 140.209 54.2765
22490 2 20.9405 140.219 55.5536
17783 1 2.74815 143.412 54.2565
18028 1 0.0196326 145.013 54.2451
23600 2 1.84261 145.026 55.5219
17785 1 5.47587 145.013 54.2451
23323 2 4.5711 143.424 55.5335
17471 1 8.20438 143.412 54.2565
23321 2 7.29885 145.026 55.5219
17469 1 10.9321 145.013 54.2451
23022 2 10.0273 143.424 55.5335
17189 1 13.6606 143.412 54.2565
22718 2 15.4836 143.424 55.5335
23024 2 12.7551 145.026 55.5219
17191 1 16.3883 145.013 54.2451
22716 2 18.2113 145.026 55.5219
16912 1 19.1169 143.412 54.2565
22489 2 20.9398 143.424 55.5335
17772 1 2.74734 146.614 54.2327
18029 1 0.0187813 148.216 54.2193
23595 2 1.84182 148.23 55.4959
17770 1 5.47502 148.216 54.2193
23322 2 4.57035 146.628 55.5094
17470 1 8.20357 146.614 54.2327
23324 2 7.29806 148.23 55.4959
17472 1 10.9313 148.216 54.2193
22995 2 10.0266 146.628 55.5094
17156 1 13.6598 146.614 54.2327
22717 2 15.4828 146.628 55.5094
22993 2 12.7543 148.23 55.4959
17154 1 16.3875 148.216 54.2193
22719 2 18.2105 148.23 55.4959
16911 1 19.1161 146.614 54.2327
22458 2 20.9391 146.628 55.5094
17771 1 2.74645 149.818 54.205
23308 2 4.56953 149.833 55.4814
17448 1 8.20269 149.818 54.205
22994 2 10.0258 149.833 55.4814
17155 1 13.6589 149.818 54.205
22683 2 15.482 149.833 55.4814
16878 1 19.1152 149.818 54.205
22457 2 20.9382 149.833 55.4814
15927 1 0.936332 101.763 56.7856
23740 2 0.0318301 103.357 58.0747
21457 2 2.75964 101.753 58.0619
17964 1 3.66479 103.366 56.7983
23513 2 5.48807 103.357 58.0747
17687 1 9.12103 103.366 56.7983
15577 1 6.39257 101.763 56.7856
21111 2 8.21588 101.753 58.0619
15254 1 11.8488 101.763 56.7856
23244 2 10.9443 103.357 58.0747
17388 1 14.5773 103.366 56.7983
20776 2 13.6721 101.753 58.0619
14960 1 17.305 101.763 56.7856
22909 2 16.4005 103.357 58.0747
17060 1 20.0335 103.366 56.7983
20534 2 19.1284 101.753 58.0619
17934 1 0.936998 104.969 56.8101
23514 2 2.76026 104.961 58.0866
23712 2 0.0324357 106.565 58.0975
17932 1 3.66543 106.572 56.821
23515 2 5.48867 106.565 58.0975
17688 1 6.39324 104.969 56.8101
17689 1 9.12167 106.572 56.821
23218 2 8.21649 104.961 58.0866
17370 1 11.8495 104.969 56.8101
23216 2 10.9449 106.565 58.0975
17368 1 14.5779 106.572 56.821
22910 2 13.6727 104.961 58.0866
17061 1 17.3057 104.969 56.8101
22911 2 16.4012 106.565 58.0975
17062 1 20.0341 106.572 56.821
22599 2 19.129 104.961 58.0866
17933 1 0.937618 108.175 56.8308
23482 2 2.76084 108.168 58.1075
17658 1 6.39386 108.175 56.8308
23217 2 8.21708 108.168 58.1075
17369 1 11.8501 108.175 56.8308
22894 2 13.6733 108.168 58.1075
17053 1 17.3063 108.175 56.8308
22598 2 19.1296 108.168 58.1075
23713 2 0.0329948 109.772 58.1165
17899 1 0.938169 111.38 56.8478
23481 2 2.76137 111.376 58.1245
17935 1 3.66602 109.778 56.8398
23480 2 5.48923 109.772 58.1165
17656 1 9.12226 109.778 56.8398
17657 1 6.39441 111.38 56.8478
23186 2 8.21761 111.376 58.1245
23219 2 10.9455 109.772 58.1165
17346 1 11.8506 111.38 56.8478
17371 1 14.5785 109.778 56.8398
22893 2 13.6738 111.376 58.1245
22892 2 16.4017 109.772 58.1165
17052 1 17.3069 111.38 56.8478
17051 1 20.0347 109.778 56.8398
22591 2 19.1301 111.376 58.1245
17898 1 0.938629 114.586 56.861
23684 2 0.0334827 112.979 58.1316
23443 2 2.76181 114.583 58.1378
17897 1 3.66653 112.983 56.8549
23483 2 5.48972 112.979 58.1316
17659 1 9.12277 112.983 56.8549
17620 1 6.39487 114.586 56.861
23185 2 8.21805 114.583 58.1378
17345 1 11.8511 114.586 56.861
23184 2 10.946 112.979 58.1316
17344 1 14.579 112.983 56.8549
22870 2 13.6743 114.583 58.1378
17037 1 17.3073 114.586 56.861
22895 2 16.4022 112.979 58.1316
17054 1 20.0352 112.983 56.8549
22590 2 19.1305 114.583 58.1378
17863 1 0.93898 117.791 56.8705
23442 2 2.76215 117.79 58.1474
23685 2 0.0338774 116.186 58.1431
17900 1 3.66694 116.189 56.8662
23441 2 5.49012 116.186 58.1431
17618 1 9.12318 116.189 56.8662
17619 1 6.39522 117.791 56.8705
23146 2 8.21839 117.79 58.1474
17314 1 11.8515 117.791 56.8705
23187 2 10.9464 116.186 58.1431
17347 1 14.5794 116.189 56.8662
22869 2 13.6746 117.79 58.1474
17036 1 17.3077 117.791 56.8705
22868 2 16.4026 116.186 58.1431
17035 1 20.0357 116.189 56.8662
22575 2 19.1309 117.79 58.1474
17862 1 0.939208 120.997 56.8763
23403 2 2.76238 120.997 58.1532
23656 2 0.0341609 119.394 58.1508
17861 1 3.66723 119.394 56.8739
23444 2 5.4904 119.394 58.1508
17575 1 6.39545 120.997 56.8763
17621 1 9.12347 119.394 56.8739
23145 2 8.21861 120.997 58.1532
17313 1 11.8517 120.997 56.8763
23144 2 10.9466 119.394 58.1508
17312 1 14.5797 119.394 56.8739
22838 2 13.6749 120.997 58.1532
17013 1 17.3079 120.997 56.8763
22871 2 16.4029 119.394 58.1508
17038 1 20.0359 119.394 56.8739
22574 2 19.1311 120.997 58.1532
17828 1 0.939304 124.202 56.8785
23402 2 2.76247 124.204 58.1554
23657 2 0.0343204 122.601 58.1548
17864 1 3.66739 122.599 56.8779
23401 2 5.49056 122.601 58.1548
17573 1 9.12363 122.599 56.8779
17574 1 6.39554 124.202 56.8785
23099 2 8.21871 124.204 58.1554
17274 1 11.8518 124.202 56.8785
23147 2 10.9468 122.601 58.1548
17315 1 14.5799 122.599 56.8779
22837 2 13.6749 124.204 58.1554
17012 1 17.308 124.202 56.8785
22836 2 16.403 122.601 58.1548
17011 1 20.0361 122.599 56.8779
22551 2 19.1312 124.204 58.1554
17827 1 0.939261 127.408 56.877
23367 2 2.76243 127.411 58.1539
23629 2 0.0343474 125.808 58.1551
17826 1 3.66742 125.805 56.8782
23404 2 5.49059 125.808 58.1551
17531 1 6.3955 127.408 56.877
17576 1 9.12366 125.805 56.8782
23098 2 8.21867 127.411 58.1539
17273 1 11.8517 127.408 56.877
23097 2 10.9468 125.808 58.1551
17272 1 14.5799 125.805 56.8782
22798 2 13.6749 127.411 58.1539
16981 1 17.308 127.408 56.877
22839 2 16.4031 125.808 58.1551
17014 1 20.0361 125.805 56.8782
22550 2 19.1311 127.411 58.1539
23630 2 0.0342375 129.015 58.1517
17829 1 3.66731 129.01 56.8748
23365 2 5.49048 129.015 58.1517
17529 1 9.12355 129.01 56.8748
23100 2 10.9467 129.015 58.1517
17275 1 14.5798 129.01 56.8748
22796 2 16.403 129.015 58.1517
16979 1 20.036 129.01 56.8748
17800 1 0.939079 130.613 56.8718
23366 2 2.76225 130.618 58.1486
23609 2 0.0339922 132.222 58.1446
17798 1 3.66706 132.216 56.8678
23368 2 5.49023 132.222 58.1446
17530 1 6.39532 130.613 56.8718
23055 2 8.21849 130.618 58.1486
17532 1 9.12329 132.216 56.8678
17228 1 11.8516 130.613 56.8718
23053 2 10.9465 132.222 58.1446
22797 2 13.6747 130.618 58.1486
17226 1 14.5795 132.216 56.8678
16980 1 17.3078 130.613 56.8718
22799 2 16.4027 132.222 58.1446
22520 2 19.131 130.618 58.1486
16982 1 20.0358 132.216 56.8678
17799 1 0.938761 133.819 56.8629
23339 2 2.76194 133.825 58.1397
23610 2 0.0336191 135.429 58.1338
17801 1 3.66667 135.421 56.8571
23337 2 5.48986 135.429 58.1338
17493 1 9.12291 135.421 56.8571
17495 1 6.395 133.819 56.8629
23054 2 8.21818 133.825 58.1397
17227 1 11.8512 133.819 56.8629
23056 2 10.9461 135.429 58.1338
17229 1 14.5791 135.421 56.8571
22754 2 13.6744 133.825 58.1397
16945 1 17.3075 133.819 56.8629
22752 2 16.4023 135.429 58.1338
16943 1 20.0354 135.421 56.8571
22519 2 19.1307 133.825 58.1397
17780 1 0.938316 137.024 56.8503
23338 2 2.76151 137.033 58.127
23597 2 0.0331318 138.636 58.1192
17778 1 3.66617 138.627 56.8425
23340 2 5.48937 138.636 58.1192
17494 1 6.39455 137.024 56.8503
17496 1 9.12241 138.627 56.8425
23019 2 8.21775 137.033 58.127
17186 1 11.8508 137.024 56.8503
23017 2 10.9456 138.636 58.1192
17184 1 14.5786 138.627 56.8425
22753 2 13.674 137.033 58.127
16944 1 17.307 137.024 56.8503
22755 2 16.4018 138.636 58.1192
16946 1 20.0349 138.627 56.8425
22488 2 19.1302 137.033 58.127
17779 1 0.93776 140.23 56.8338
23319 2 2.76097 140.24 58.1104
23598 2 0.0325498 141.844 58.1007
17781 1 3.66557 141.833 56.8242
23317 2 5.48879 141.844 58.1007
17465 1 9.1218 141.833 56.8242
17467 1 6.394 140.23 56.8338
23018 2 8.21721 140.24 58.1104
17185 1 11.8502 140.23 56.8338
23020 2 10.945 141.844 58.1007
17187 1 14.578 141.833 56.8242
22714 2 13.6734 140.24 58.1104
16909 1 17.3065 140.23 56.8338
22712 2 16.4013 141.844 58.1007
16907 1 20.0343 141.833 56.8242
22487 2 19.1297 140.24 58.1104
17768 1 0.937112 143.436 56.8135
23318 2 2.76035 143.448 58.09
23593 2 0.0318986 145.052 58.0782
17766 1 3.66488 145.039 56.8019
23320 2 5.48814 145.052 58.0782
17466 1 6.39335 143.436 56.8135
17468 1 9.12112 145.039 56.8019
22991 2 8.21659 143.448 58.09
17152 1 11.8496 143.436 56.8135
22989 2 10.9444 145.052 58.0782
17150 1 14.5774 145.039 56.8019
22713 2 13.6728 143.448 58.09
16908 1 17.3058 143.436 56.8135
22715 2 16.4006 145.052 58.0782
16910 1 20.0336 145.039 56.8019
22456 2 19.1291 143.448 58.09
17767 1 0.936399 146.642 56.7893
23307 2 2.75968 146.656 58.0655
23594 2 0.0312078 148.26 58.0517
17769 1 3.66415 148.245 56.7756
23305 2 5.48745 148.26 58.0517
17445 1 9.12038 148.245 56.7756
17447 1 6.39264 146.642 56.7893
22990 2 8.21591 146.656 58.0655
17151 1 11.8489 146.642 56.7893
22992 2 10.9437 148.26 58.0517
17153 1 14.5766 148.245 56.7756
22682 2 13.6722 146.656 58.0655
16877 1 17.3051 146.642 56.7893
22680 2 16.3999 148.26 58.0517
16875 1 20.0329 148.245 56.7756
22455 2 19.1284 146.656 58.0655
17761 1 0.93565 149.849 56.761
23306 2 2.75898 149.864 58.0369
17446 1 6.39189 149.849 56.761
22968 2 8.21522 149.864 58.0369
17123 1 11.8481 149.849 56.761
22681 2 13.6715 149.864 58.0369
16876 1 17.3044 149.849 56.761
22426 2 19.1277 149.864 58.0369
17930 1 1.8544 103.348 59.3543
21455 2 0.94954 101.734 60.6171
23512 2 3.67793 103.34 60.6301
15575 1 4.58223 101.744 59.3413
17686 1 7.31063 103.348 59.3543
23213 2 9.13417 103.34 60.6301
21089 2 6.40578 101.734 60.6171
15226 1 10.0385 101.744 59.3413
20774 2 11.862 101.734 60.6171
17365 1 12.7669 103.348 59.3543
22908 2 14.5904 103.34 60.6301
14958 1 15.4947 101.744 59.3413
17059 1 18.2231 103.348 59.3543
20505 2 17.3183 101.734 60.6171
22595 2 20.0466 103.34 60.6301
14752 1 20.9509 101.744 59.3413
17931 1 1.85496 106.558 59.3773
23478 2 0.950084 104.945 60.6422
17654 1 4.5828 104.953 59.3663
23476 2 3.67847 106.551 60.6533
17652 1 7.3112 106.558 59.3773
23214 2 6.40632 104.945 60.6422
23215 2 9.13471 106.551 60.6533
17366 1 10.039 104.953 59.3663
22890 2 11.8626 104.945 60.6422
17049 1 15.4953 104.953 59.3663
17367 1 12.7674 106.558 59.3773
22888 2 14.5909 106.551 60.6533
17047 1 18.2237 106.558 59.3773
22596 2 17.3188 104.945 60.6422
16797 1 20.9515 104.953 59.3663
22597 2 20.0472 106.551 60.6533
17895 1 1.85549 109.767 59.3963
23477 2 0.950617 108.156 60.6633
17653 1 4.58335 108.162 59.3873
23479 2 3.67899 109.761 60.6724
17655 1 7.31173 109.767 59.3963
23180 2 9.13523 109.761 60.6724
23182 2 6.40686 108.156 60.6633
17342 1 10.0396 108.162 59.3873
22889 2 11.8631 108.156 60.6633
17048 1 15.4958 108.162 59.3873
17340 1 12.768 109.767 59.3963
22891 2 14.5915 109.761 60.6724
17050 1 18.2242 109.767 59.3963
22588 2 17.3193 108.156 60.6633
16796 1 20.9521 108.162 59.3873
22586 2 20.0477 109.761 60.6724
23439 2 0.951109 111.367 60.6806
17616 1 4.58386 111.371 59.4044
23181 2 6.40735 111.367 60.6806
17341 1 10.0401 111.371 59.4044
22866 2 11.8636 111.367 60.6806
17033 1 15.4963 111.371 59.4044
22587 2 17.3198 111.367 60.6806
16795 1 20.9526 111.371 59.4044
17896 1 1.85597 112.976 59.4116
23438 2 0.951533 114.577 60.694
23437 2 3.67945 112.972 60.6878
17615 1 4.58429 114.58 59.4178
17614 1 7.3122 112.976 59.4116
23183 2 9.13569 112.972 60.6878
23142 2 6.40777 114.577 60.694
17310 1 10.0405 114.58 59.4178
22865 2 11.864 114.577 60.694
17343 1 12.7684 112.976 59.4116
22864 2 14.5919 112.972 60.6878
17032 1 15.4968 114.58 59.4178
17031 1 18.2247 112.976 59.4116
22572 2 17.3202 114.577 60.694
22589 2 20.0482 112.972 60.6878
16788 1 20.953 114.58 59.4178
17859 1 1.85635 116.184 59.423
23399 2 0.951863 117.787 60.7036
17571 1 4.58463 117.789 59.4273
23440 2 3.67983 116.182 60.6993
17617 1 7.31259 116.184 59.423
23140 2 9.13607 116.182 60.6993
23141 2 6.4081 117.787 60.7036
17309 1 10.0409 117.789 59.4273
22834 2 11.8643 117.787 60.7036
17009 1 15.4971 117.789 59.4273
17308 1 12.7688 116.184 59.423
22867 2 14.5923 116.182 60.6993
17034 1 18.2251 116.184 59.423
22571 2 17.3206 117.787 60.7036
16787 1 20.9533 117.789 59.4273
22570 2 20.0485 116.182 60.6993
17860 1 1.85663 119.393 59.4307
23398 2 0.952081 120.998 60.7095
17570 1 4.58485 120.998 59.4332
23397 2 3.68011 119.393 60.707
17569 1 7.31287 119.393 59.4307
23095 2 6.40832 120.998 60.7095
23143 2 9.13634 119.393 60.707
17270 1 10.0411 120.998 59.4332
22833 2 11.8646 120.998 60.7095
17008 1 15.4973 120.998 59.4332
17311 1 12.7691 119.393 59.4307
22832 2 14.5926 119.393 60.707
17007 1 18.2253 119.393 59.4307
22548 2 17.3208 120.998 60.7095
16772 1 20.9536 120.998 59.4332
22573 2 20.0488 119.393 60.707
17824 1 1.85679 122.602 59.4348
23363 2 0.952175 124.208 60.7117
17527 1 4.58494 124.206 59.4354
23400 2 3.68026 122.603 60.7111
17572 1 7.31303 122.602 59.4348
23093 2 9.1365 122.603 60.7111
23094 2 6.40841 124.208 60.7117
17269 1 10.0412 124.206 59.4354
22794 2 11.8647 124.208 60.7117
16977 1 15.4974 124.206 59.4354
17268 1 12.7693 122.602 59.4348
22835 2 14.5927 122.603 60.7111
17010 1 18.2255 122.602 59.4348
22547 2 17.3209 124.208 60.7117
16771 1 20.9537 124.206 59.4354
22546 2 20.049 122.603 60.7111
17825 1 1.85682 125.811 59.4351
23362 2 0.952136 127.419 60.7102
17526 1 4.5849 127.415 59.4338
23361 2 3.68029 125.813 60.7114
17525 1 7.31306 125.811 59.4351
23051 2 6.40837 127.419 60.7102
23096 2 9.13653 125.813 60.7114
17224 1 10.0411 127.415 59.4338
22793 2 11.8646 127.419 60.7102
16976 1 15.4974 127.415 59.4338
17271 1 12.7693 125.811 59.4351
22792 2 14.5928 125.813 60.7114
16975 1 18.2255 125.811 59.4351
22517 2 17.3209 127.419 60.7102
16749 1 20.9536 127.415 59.4338
22549 2 20.049 125.813 60.7114
17796 1 1.85671 129.019 59.4317
23364 2 3.68018 129.024 60.708
17528 1 7.31295 129.019 59.4317
23049 2 9.13642 129.024 60.708
17222 1 12.7692 129.019 59.4317
22795 2 14.5927 129.024 60.708
16978 1 18.2254 129.019 59.4317
22515 2 20.0489 129.024 60.708
23335 2 0.951962 130.629 60.7049
17797 1 1.85647 132.228 59.4246
17491 1 4.58473 130.624 59.4286
23333 2 3.67994 132.234 60.7009
23050 2 6.4082 130.629 60.7049
17489 1 7.31271 132.228 59.4246
23052 2 9.13618 132.234 60.7009
17223 1 10.041 130.624 59.4286
22750 2 11.8644 130.629 60.7049
16941 1 15.4972 130.624 59.4286
17225 1 12.7689 132.228 59.4246
22748 2 14.5924 132.234 60.7009
22516 2 17.3207 130.629 60.7049
16939 1 18.2252 132.228 59.4246
16748 1 20.9534 130.624 59.4286
22518 2 20.0487 132.234 60.7009
17776 1 1.8561 135.437 59.4137
23334 2 0.951658 133.84 60.6959
17490 1 4.58442 133.833 59.4196
23336 2 3.67958 135.445 60.6899
17492 1 7.31234 135.437 59.4137
23013 2 9.13582 135.445 60.6899
23015 2 6.4079 133.84 60.6959
17182 1 10.0407 133.833 59.4196
22749 2 11.8641 133.84 60.6959
16940 1 15.4969 133.833 59.4196
17180 1 12.7686 135.437 59.4137
22751 2 14.5921 135.445 60.6899
16942 1 18.2248 135.437 59.4137
22485 2 17.3204 133.84 60.6959
16725 1 20.9531 133.833 59.4196
22483 2 20.0483 135.445 60.6899
17777 1 1.85562 138.646 59.399
23315 2 0.951238 137.05 60.683
17463 1 4.58399 137.042 59.4069
23313 2 3.67911 138.656 60.6751
17461 1 7.31186 138.646 59.399
23014 2 6.40748 137.05 60.683
23016 2 9.13535 138.656 60.6751
17181 1 10.0402 137.042 59.4069
22710 2 11.8637 137.05 60.683
16905 1 15.4965 137.042 59.4069
17183 1 12.7681 138.646 59.399
22708 2 14.5916 138.656 60.6751
16903 1 18.2243 138.646 59.399
22484 2 17.32 137.05 60.683
16724 1 20.9527 137.042 59.4069
22486 2 20.0478 138.656 60.6751
17764 1 1.85506 141.855 59.3804
23314 2 0.950722 140.261 60.6662
17462 1 4.58347 140.251 59.3902
23316 2 3.67856 141.866 60.6564
17464 1 7.31129 141.855 59.3804
22985 2 9.13479 141.866 60.6564
22987 2 6.40696 140.261 60.6662
17148 1 10.0397 140.251 59.3902
22709 2 11.8632 140.261 60.6662
16904 1 15.4959 140.251 59.3902
17146 1 12.7675 141.855 59.3804
22711 2 14.591 141.866 60.6564
16906 1 18.2238 141.855 59.3804
22453 2 17.3194 140.261 60.6662
16701 1 20.9522 140.251 59.3902
22451 2 20.0473 141.866 60.6564
17765 1 1.85443 145.065 59.3578
23303 2 0.950136 143.472 60.6455
17443 1 4.58287 143.46 59.3696
23301 2 3.67795 145.078 60.6335
17441 1 7.31067 145.065 59.3578
22986 2 6.40637 143.472 60.6455
22988 2 9.13419 145.078 60.6335
17147 1 10.0391 143.46 59.3696
22678 2 11.8626 143.472 60.6455
16873 1 15.4953 143.46 59.3696
17149 1 12.7669 145.065 59.3578
22676 2 14.5904 145.078 60.6335
16871 1 18.2231 145.065 59.3578
22452 2 17.3189 143.472 60.6455
16700 1 20.9516 143.46 59.3696
22454 2 20.0467 145.078 60.6335
17760 1 1.85379 148.275 59.331
23302 2 0.949515 146.683 60.6206
17442 1 4.58223 146.67 59.3449
23304 2 3.67732 148.289 60.6065
17444 1 7.31003 148.275 59.331
22965 2 9.13356 148.289 60.6065
22967 2 6.40575 146.683 60.6206
17122 1 10.0385 146.67 59.3449
22677 2 11.862 146.683 60.6206
16872 1 15.4947 146.67 59.3449
17120 1 12.7663 148.275 59.331
22679 2 14.5898 148.289 60.6065
16874 1 18.2225 148.275 59.331
22425 2 17.3182 146.683 60.6206
16677 1 20.9509 146.67 59.3449
22423 2 20.046 148.289 60.6065
23296 2 0.948894 149.895 60.5914
17428 1 4.58159 149.88 59.316
22966 2 6.40513 149.895 60.5914
17121 1 10.0378 149.88 59.316
22651 2 11.8614 149.895 60.5914
16846 1 15.4941 149.88 59.316
22424 2 17.3176 149.895 60.5914
16676 1 20.9503 149.88 59.316
17929 1 0.0444907 103.331 61.9094
15561 1 2.77236 101.724 61.8963
23474 2 1.86827 103.322 63.1846
15559 1 0.962878 101.705 64.4507
17649 1 5.50073 103.331 61.9094
21087 2 4.59614 101.715 63.1713
17648 1 3.69124 103.313 64.4641
15224 1 8.2286 101.724 61.8963
23212 2 7.32451 103.322 63.1846
17333 1 9.14748 103.313 64.4641
15204 1 6.41912 101.705 64.4507
17364 1 10.957 103.331 61.9094
20748 2 10.0524 101.715 63.1713
14930 1 11.8754 101.705 64.4507
14932 1 13.6848 101.724 61.8963
22885 2 12.7807 103.322 63.1846
20503 2 15.5086 101.715 63.1713
17043 1 14.6037 103.313 64.4641
17044 1 16.4132 103.331 61.9094
22594 2 18.237 103.322 63.1846
14729 1 17.3316 101.705 64.4507
14750 1 19.1411 101.724 61.8963
20331 2 20.9649 101.715 63.1713
16790 1 20.06 103.313 64.4641
17650 1 2.77287 104.937 61.9216
17893 1 0.0450051 106.543 61.9327
23475 2 1.86878 106.536 63.208
17608 1 0.963369 104.921 64.4764
17651 1 5.50124 106.543 61.9327
23178 2 4.59664 104.929 63.1968
17606 1 3.69174 106.529 64.4876
17338 1 8.22911 104.937 61.9216
23176 2 7.32502 106.536 63.208
17334 1 6.41961 104.921 64.4764
17335 1 9.14798 106.529 64.4876
17336 1 10.9575 106.543 61.9327
22886 2 10.0529 104.929 63.1968
17025 1 11.8758 104.921 64.4764
17045 1 13.6853 104.937 61.9216
22584 2 15.5091 104.929 63.1968
22887 2 12.7813 106.536 63.208
17023 1 14.6042 106.529 64.4876
17046 1 16.4137 106.543 61.9327
22582 2 18.2375 106.536 63.208
16791 1 17.3321 104.921 64.4764
16794 1 19.1416 104.937 61.9216
22362 2 20.9654 104.929 63.1968
16792 1 20.0605 106.529 64.4876
17612 1 2.77338 108.15 61.9428
17894 1 0.0455038 109.756 61.952
23435 2 1.86928 109.75 63.2274
17607 1 0.963874 108.137 64.4978
17610 1 5.50174 109.756 61.952
23177 2 4.59715 108.143 63.2182
17609 1 3.69224 109.745 64.5071
17337 1 8.22962 108.15 61.9428
23179 2 7.32552 109.75 63.2274
17300 1 9.14848 109.745 64.5071
17302 1 6.42011 108.137 64.4978
17339 1 10.958 109.756 61.952
22862 2 10.0534 108.143 63.2182
17024 1 11.8764 108.137 64.4978
17029 1 13.6859 108.15 61.9428
22583 2 15.5096 108.143 63.2182
22860 2 12.7818 109.75 63.2274
17026 1 14.6047 109.745 64.5071
17027 1 16.4142 109.756 61.952
22585 2 18.238 109.75 63.2274
16783 1 17.3326 108.137 64.4978
16793 1 19.1421 108.15 61.9428
22361 2 20.9659 108.143 63.2182
16781 1 20.061 109.745 64.5071
17611 1 2.77386 111.362 61.9602
17563 1 0.964352 111.353 64.5153
23138 2 4.59763 111.357 63.2356
17306 1 8.23009 111.362 61.9602
17301 1 6.42059 111.353 64.5153
22861 2 10.0539 111.357 63.2356
17001 1 11.8768 111.353 64.5153
17028 1 13.6863 111.362 61.9602
22568 2 15.5101 111.357 63.2356
16782 1 17.3331 111.353 64.5153
16786 1 19.1426 111.362 61.9602
22360 2 20.9663 111.357 63.2356
17857 1 0.045956 112.968 61.9674
23436 2 1.86973 112.964 63.2428
17567 1 2.77428 114.574 61.9737
17562 1 0.964778 114.569 64.529
17613 1 5.50219 112.968 61.9674
17561 1 3.69268 112.961 64.5226
23137 2 4.59805 114.571 63.2491
23136 2 7.32597 112.964 63.2428
17303 1 9.14892 112.961 64.5226
17305 1 8.23051 114.574 61.9737
17262 1 6.42102 114.569 64.529
17304 1 10.9584 112.968 61.9674
22830 2 10.0543 114.571 63.2491
17000 1 11.8773 114.569 64.529
22863 2 12.7822 112.964 63.2428
16999 1 14.6052 112.961 64.5226
17005 1 13.6868 114.574 61.9737
22567 2 15.5105 114.571 63.2491
17030 1 16.4147 112.968 61.9674
22566 2 18.2384 112.964 63.2428
16767 1 17.3335 114.569 64.529
16784 1 20.0614 112.961 64.5226
16785 1 19.143 114.574 61.9737
22353 2 20.9668 114.571 63.2491
17566 1 2.7746 117.786 61.9833
17858 1 0.0463331 116.18 61.979
23395 2 1.87011 116.178 63.2545
17565 1 5.50257 116.18 61.979
23091 2 4.59838 117.785 63.2588
17564 1 3.69308 116.176 64.5343
17266 1 8.23084 117.786 61.9833
23139 2 7.32634 116.178 63.2545
17260 1 9.14931 116.176 64.5343
17307 1 10.9588 116.18 61.979
22829 2 10.0546 117.785 63.2588
17004 1 13.6871 117.786 61.9833
22544 2 15.5109 117.785 63.2588
22828 2 12.7826 116.178 63.2545
17002 1 14.6056 116.176 64.5343
17003 1 16.415 116.18 61.979
22569 2 18.2388 116.178 63.2545
16770 1 19.1433 117.786 61.9833
22352 2 20.9671 117.785 63.2588
16765 1 20.0618 116.176 64.5343
17523 1 2.77482 120.998 61.9892
17822 1 0.0466085 119.392 61.9867
23396 2 1.87038 119.392 63.2623
17568 1 5.50285 119.392 61.9867
23090 2 4.5986 120.999 63.2648
17265 1 8.23106 120.998 61.9892
23089 2 7.32662 119.392 63.2623
17264 1 10.9591 119.392 61.9867
22790 2 10.0548 120.999 63.2648
16973 1 13.6873 120.998 61.9892
22543 2 15.5111 120.999 63.2648
22831 2 12.7829 119.392 63.2623
17006 1 16.4153 119.392 61.9867
22542 2 18.2391 119.392 63.2623
16769 1 19.1435 120.998 61.9892
22337 2 20.9673 120.999 63.2648
17522 1 2.77492 124.21 61.9914
17823 1 0.0467691 122.604 61.9908
23359 2 1.87054 122.606 63.2663
17521 1 5.50301 122.604 61.9908
23047 2 4.5987 124.212 63.2669
17220 1 8.23116 124.21 61.9914
23092 2 7.32678 122.606 63.2663
17267 1 10.9592 122.604 61.9908
22789 2 10.0549 124.212 63.2669
16972 1 13.6874 124.21 61.9914
22513 2 15.5112 124.212 63.2669
22788 2 12.783 122.606 63.2663
16971 1 16.4155 122.604 61.9908
22545 2 18.2393 122.606 63.2663
16747 1 19.1436 124.21 61.9914
22336 2 20.9674 124.212 63.2669
17487 1 2.77488 127.423 61.9899
17794 1 0.0467985 125.816 61.9911
23360 2 1.87057 125.819 63.2666
17524 1 5.50304 125.816 61.9911
23046 2 4.59866 127.426 63.2654
17219 1 8.23112 127.423 61.9899
23045 2 7.32681 125.819 63.2666
17218 1 10.9593 125.816 61.9911
22746 2 10.0549 127.426 63.2654
16937 1 13.6874 127.423 61.9899
22512 2 15.5111 127.426 63.2654
22791 2 12.7831 125.819 63.2666
16974 1 16.4155 125.816 61.9911
22511 2 18.2393 125.819 63.2666
16746 1 19.1436 127.423 61.9899
22317 2 20.9674 127.426 63.2654
17795 1 0.046691 129.029 61.9877
23331 2 1.87047 129.033 63.2632
17485 1 5.50293 129.029 61.9877
23048 2 7.3267 129.033 63.2632
17221 1 10.9592 129.029 61.9877
22744 2 12.7829 129.033 63.2632
16935 1 16.4154 129.029 61.9877
22514 2 18.2392 129.033 63.2632
17486 1 2.77471 130.635 61.9846
17774 1 0.0464499 132.241 61.9805
23332 2 1.87023 132.247 63.256
23011 2 4.59848 130.64 63.2601
17488 1 5.50269 132.241 61.9805
17178 1 8.23094 130.635 61.9846
23009 2 7.32646 132.247 63.256
22745 2 10.0547 130.64 63.2601
17176 1 10.9589 132.241 61.9805
22481 2 15.511 130.64 63.2601
16936 1 13.6872 130.635 61.9846
22747 2 12.7827 132.247 63.256
16938 1 16.4152 132.241 61.9805
22479 2 18.2389 132.247 63.256
22316 2 20.9672 130.64 63.2601
16723 1 19.1434 130.635 61.9846
17459 1 2.7744 133.847 61.9755
17775 1 0.0460857 135.453 61.9695
23311 2 1.86986 135.461 63.2449
17457 1 5.50232 135.453 61.9695
23010 2 4.59818 133.854 63.251
17177 1 8.23064 133.847 61.9755
23012 2 7.3261 135.461 63.2449
17179 1 10.9586 135.453 61.9695
22706 2 10.0544 133.854 63.251
16901 1 13.6869 133.847 61.9755
22480 2 15.5107 133.854 63.251
22704 2 12.7823 135.461 63.2449
16899 1 16.4148 135.453 61.9695
22482 2 18.2386 135.461 63.2449
16722 1 19.1431 133.847 61.9755
22297 2 20.9669 133.854 63.251
17458 1 2.77398 137.059 61.9626
17762 1 0.0456167 138.665 61.9547
23312 2 1.86939 138.675 63.23
17460 1 5.50186 138.665 61.9547
22983 2 4.59776 137.068 63.238
17144 1 8.23022 137.059 61.9626
22981 2 7.32563 138.675 63.23
17142 1 10.9581 138.665 61.9547
22705 2 10.054 137.068 63.238
16900 1 13.6865 137.059 61.9626
22449 2 15.5102 137.068 63.238
22707 2 12.7819 138.675 63.23
16902 1 16.4143 138.665 61.9547
22447 2 18.2381 138.675 63.23
16699 1 19.1427 137.059 61.9626
22296 2 20.9665 137.068 63.238
17439 1 2.77347 140.272 61.9457
17763 1 0.0450692 141.878 61.9358
23299 2 1.86884 141.889 63.211
17437 1 5.50131 141.878 61.9358
22982 2 4.59724 140.282 63.221
17143 1 8.22971 140.272 61.9457
22984 2 7.32508 141.889 63.211
17145 1 10.9575 141.878 61.9358
22674 2 10.0535 140.282 63.221
16869 1 13.6859 140.272 61.9457
22448 2 15.5097 140.282 63.221
22672 2 12.7813 141.889 63.211
16867 1 16.4138 141.878 61.9358
22450 2 18.2376 141.889 63.211
16698 1 19.1422 140.272 61.9457
22277 2 20.966 140.282 63.221
17438 1 2.7729 143.484 61.9249
17758 1 0.0444771 145.091 61.9128
23300 2 1.86824 145.103 63.1879
17440 1 5.50072 145.091 61.9128
22963 2 4.59666 143.496 63.2
17118 1 8.22913 143.484 61.9249
22961 2 7.32448 145.103 63.1879
17116 1 10.957 145.091 61.9128
22673 2 10.0529 143.496 63.2
16868 1 13.6854 143.484 61.9249
22421 2 15.5091 143.496 63.2
22675 2 12.7807 145.103 63.1879
16870 1 16.4132 145.091 61.9128
22419 2 18.237 145.103 63.1879
16675 1 19.1416 143.484 61.9249
22276 2 20.9654 143.496 63.2
17427 1 2.7723 146.697 61.8998
17759 1 0.0438812 148.304 61.8856
23295 2 1.86763 148.318 63.1605
17425 1 5.50012 148.304 61.8856
22962 2 4.59605 146.711 63.1747
17117 1 8.22853 146.697 61.8998
22964 2 7.32387 148.318 63.1605
17119 1 10.9564 148.304 61.8856
22650 2 10.0523 146.711 63.1747
16845 1 13.6848 146.697 61.8998
22420 2 15.5085 146.711 63.1747
22648 2 12.7801 148.318 63.1605
16843 1 16.4126 148.304 61.8856
22422 2 18.2363 148.318 63.1605
16674 1 19.141 146.697 61.8998
22257 2 20.9648 146.711 63.1747
17426 1 2.77171 149.911 61.8704
17416 1 0.962172 149.942 64.4243
22948 2 4.59546 149.926 63.1451
17097 1 8.22795 149.911 61.8704
17095 1 6.41841 149.942 64.4243
22649 2 10.0517 149.926 63.1451
16822 1 11.8746 149.942 64.4243
16844 1 13.6842 149.911 61.8704
22398 2 15.5079 149.926 63.1451
16651 1 17.3309 149.942 64.4243
16653 1 19.1404 149.911 61.8704
22256 2 20.9642 149.926 63.1451
23473 2 0.0590311 103.305 65.7378
21073 2 2.7869 101.696 65.7244
17604 1 1.88197 103.296 67.0192
23173 2 5.51527 103.305 65.7378
15202 1 4.60983 101.686 67.0058
20746 2 8.24314 101.696 65.7244
17332 1 7.33821 103.296 67.0192
22884 2 10.9715 103.305 65.7378
14912 1 10.0661 101.686 67.0058
20481 2 13.6994 101.696 65.7244
17020 1 12.7944 103.296 67.0192
14727 1 15.5223 101.686 67.0058
22579 2 16.4277 103.305 65.7378
16789 1 18.2507 103.296 67.0192
20329 2 19.1556 101.696 65.7244
14623 1 20.9785 101.686 67.0058
23174 2 2.78741 104.913 65.7501
23433 2 0.0595522 106.522 65.7614
17605 1 1.88251 106.515 67.043
23175 2 5.51579 106.522 65.7614
17298 1 4.61036 104.906 67.0316
22858 2 8.24365 104.913 65.7501
17296 1 7.33875 106.515 67.043
22856 2 10.972 106.522 65.7614
17021 1 10.0666 104.906 67.0316
22580 2 13.6999 104.913 65.7501
16779 1 15.5228 104.906 67.0316
17022 1 12.795 106.515 67.043
22581 2 16.4283 106.522 65.7614
16777 1 18.2512 106.515 67.043
22359 2 19.1561 104.913 65.7501
16617 1 20.9791 104.906 67.0316
23134 2 2.78793 108.131 65.7717
23434 2 0.0600624 109.74 65.781
17559 1 1.88304 109.735 67.0626
23132 2 5.5163 109.74 65.781
17297 1 4.6109 108.125 67.0533
22857 2 8.24417 108.131 65.7717
17299 1 7.33928 109.735 67.0626
22859 2 10.9725 109.74 65.781
16997 1 10.0671 108.125 67.0533
22564 2 13.7004 108.131 65.7717
16778 1 15.5234 108.125 67.0533
16995 1 12.7955 109.735 67.0626
22562 2 16.4288 109.74 65.781
16780 1 18.2518 109.735 67.0626
22358 2 19.1566 108.131 65.7717
16616 1 20.9796 108.125 67.0533
23133 2 2.78842 111.348 65.7893
17258 1 4.61141 111.344 67.0709
22826 2 8.24466 111.348 65.7893
16996 1 10.0676 111.344 67.0709
22563 2 13.7009 111.348 65.7893
16763 1 15.5239 111.344 67.0709
22351 2 19.1571 111.348 65.7893
16615 1 20.9801 111.344 67.0709
23393 2 0.0605203 112.957 65.7966
17560 1 1.88352 112.954 67.0782
23087 2 2.78884 114.565 65.8029
23135 2 5.51676 112.957 65.7966
17257 1 4.61185 114.563 67.0846
17256 1 7.33976 112.954 67.0782
22825 2 8.24507 114.565 65.8029
22824 2 10.973 112.957 65.7966
16965 1 10.0681 114.563 67.0846
16998 1 12.796 112.954 67.0782
22540 2 13.7013 114.565 65.8029
16762 1 15.5243 114.563 67.0846
22565 2 16.4292 112.957 65.7966
16761 1 18.2522 112.954 67.0782
22350 2 19.1576 114.565 65.8029
16608 1 20.9806 114.563 67.0846
17519 1 0.965099 117.784 64.5387
23086 2 2.78918 117.783 65.8127
23394 2 0.0608981 116.174 65.8083
17515 1 1.88392 116.173 67.0899
23085 2 5.51714 116.174 65.8083
17212 1 4.6122 117.782 67.0944
17261 1 6.42134 117.784 64.5387
22786 2 8.24542 117.783 65.8127
17259 1 7.34016 116.173 67.0899
16969 1 11.8776 117.784 64.5387
22827 2 10.9734 116.174 65.8083
16964 1 10.0684 117.782 67.0944
22539 2 13.7017 117.783 65.8127
16740 1 15.5247 117.782 67.0944
16963 1 12.7964 116.173 67.0899
16766 1 17.3338 117.784 64.5387
22538 2 16.4296 116.174 65.8083
16764 1 18.2526 116.173 67.0899
22335 2 19.1579 117.783 65.8127
16607 1 20.9809 117.782 67.0944
17518 1 0.965329 120.999 64.5446
23043 2 2.78942 121 65.8187
23357 2 0.0611965 119.391 65.8162
17516 1 1.88421 119.392 67.0978
17517 1 3.69335 119.392 64.5421
23088 2 5.51743 119.391 65.8162
17211 1 4.61243 121.001 67.1004
17216 1 6.42157 120.999 64.5446
17263 1 9.14959 119.392 64.5421
22785 2 8.24566 121 65.8187
17210 1 7.34045 119.392 67.0978
16968 1 11.8778 120.999 64.5446
22784 2 10.9737 119.391 65.8162
16929 1 10.0687 121.001 67.1004
16967 1 14.6058 119.392 64.5421
22509 2 13.7019 121 65.8187
16739 1 15.5249 121.001 67.1004
16966 1 12.7967 119.392 67.0978
16744 1 17.334 120.999 64.5446
22541 2 16.4299 119.391 65.8162
16738 1 18.2529 119.392 67.0978
16768 1 20.0621 119.392 64.5421
22334 2 19.1581 121 65.8187
16596 1 20.9811 121.001 67.1004
17483 1 0.965427 124.215 64.5468
23042 2 2.78952 124.217 65.8209
23358 2 0.0613647 122.608 65.8203
17479 1 1.88438 122.611 67.102
17520 1 3.69351 122.607 64.5462
23041 2 5.5176 122.608 65.8203
17170 1 4.61253 124.22 67.1026
17214 1 9.14975 122.607 64.5462
17215 1 6.42167 124.215 64.5468
22742 2 8.24575 124.217 65.8209
17213 1 7.34061 122.611 67.102
16933 1 11.8779 124.215 64.5468
22787 2 10.9738 122.608 65.8203
16928 1 10.0688 124.22 67.1026
16970 1 14.606 122.607 64.5462
22508 2 13.702 124.217 65.8209
16716 1 15.525 124.22 67.1026
16927 1 12.7969 122.611 67.102
16743 1 17.3341 124.215 64.5468
22507 2 16.4301 122.608 65.8203
16741 1 18.2531 122.611 67.102
16742 1 20.0622 122.607 64.5462
22315 2 19.1582 124.217 65.8209
16595 1 20.9812 124.22 67.1026
17482 1 0.965387 127.43 64.5453
23007 2 2.78948 127.433 65.8193
23329 2 0.0613947 125.825 65.8206
17480 1 1.8844 125.829 67.1023
17481 1 3.69354 125.823 64.5465
23044 2 5.51763 125.825 65.8206
17169 1 4.61248 127.439 67.1011
17174 1 6.42162 127.43 64.5453
17217 1 9.14978 125.823 64.5465
22741 2 8.24571 127.433 65.8193
17168 1 7.34064 125.829 67.1023
16932 1 11.8779 127.43 64.5453
22740 2 10.9739 125.825 65.8206
16893 1 10.0687 127.439 67.1011
16931 1 14.606 125.823 64.5465
22477 2 13.702 127.433 65.8193
16715 1 15.525 127.439 67.1011
16930 1 12.7969 125.829 67.1023
16720 1 17.3341 127.43 64.5453
22510 2 16.4301 125.825 65.8206
16714 1 18.2531 125.829 67.1023
16745 1 20.0623 125.823 64.5465
22314 2 19.1582 127.433 65.8193
16584 1 20.9812 127.439 67.1011
23330 2 0.0612842 129.042 65.8171
17451 1 1.88429 129.048 67.0988
17484 1 3.69343 129.038 64.5431
23005 2 5.51752 129.042 65.8171
17172 1 9.14967 129.038 64.5431
17171 1 7.34052 129.048 67.0988
22743 2 10.9738 129.042 65.8171
16934 1 14.6059 129.038 64.5431
16891 1 12.7968 129.048 67.0988
22475 2 16.43 129.042 65.8171
16717 1 18.253 129.048 67.0988
16718 1 20.0621 129.038 64.5431
17455 1 0.965207 130.646 64.5399
23006 2 2.7893 130.65 65.814
23309 2 0.0610361 132.259 65.8098
17452 1 1.88403 132.267 67.0916
17136 1 4.61229 130.657 67.0957
17453 1 3.69319 132.253 64.5358
23008 2 5.51727 132.259 65.8098
17173 1 6.42145 130.646 64.5399
22702 2 8.24553 130.65 65.814
17175 1 9.14943 132.253 64.5358
17134 1 7.34026 132.267 67.0916
16897 1 11.8777 130.646 64.5399
16892 1 10.0685 130.657 67.0957
22700 2 10.9735 132.259 65.8098
22476 2 13.7018 130.65 65.814
16692 1 15.5248 130.657 67.0957
16895 1 14.6057 132.253 64.5358
16894 1 12.7965 132.267 67.0916
16719 1 17.3339 130.646 64.5399
22478 2 16.4298 132.259 65.8098
16690 1 18.2527 132.267 67.0916
22295 2 19.158 130.65 65.814
16583 1 20.981 130.657 67.0957
16721 1 20.0619 132.253 64.5358
17454 1 0.964897 133.861 64.5308
22979 2 2.78898 133.868 65.8048
23310 2 0.0606592 135.476 65.7987
17431 1 1.88363 135.486 67.0804
17456 1 3.69282 135.469 64.5248
22977 2 5.5169 135.476 65.7987
17135 1 4.61196 133.876 67.0865
17138 1 9.14905 135.469 64.5248
17140 1 6.42113 133.861 64.5308
22701 2 8.24522 133.868 65.8048
17137 1 7.33987 135.486 67.0804
16896 1 11.8774 133.861 64.5308
22703 2 10.9731 135.476 65.7987
16861 1 10.0682 133.876 67.0865
16898 1 14.6053 135.469 64.5248
22445 2 13.7015 133.868 65.8048
16691 1 15.5244 133.876 67.0865
16859 1 12.7961 135.486 67.0804
16696 1 17.3336 133.861 64.5308
22443 2 16.4294 135.476 65.7987
16693 1 18.2523 135.486 67.0804
16694 1 20.0615 135.469 64.5248
22294 2 19.1577 133.868 65.8048
16572 1 20.9807 133.876 67.0865
17435 1 0.964468 137.077 64.5177
22978 2 2.78855 137.085 65.7916
23297 2 0.0601704 138.694 65.7836
17432 1 1.88312 138.705 67.0652
17433 1 3.69234 138.685 64.5097
22980 2 5.51641 138.694 65.7836
17110 1 4.61151 137.095 67.0733
17139 1 6.42071 137.077 64.5177
17141 1 9.14857 138.685 64.5097
22670 2 8.24479 137.085 65.7916
17108 1 7.33936 138.705 67.0652
16865 1 11.8769 137.077 64.5177
22668 2 10.9726 138.694 65.7836
16860 1 10.0677 137.095 67.0733
16863 1 14.6048 138.685 64.5097
22444 2 13.701 137.085 65.7916
16668 1 15.524 137.095 67.0733
16862 1 12.7956 138.705 67.0652
16695 1 17.3332 137.077 64.5177
22446 2 16.4289 138.694 65.7836
16666 1 18.2518 138.705 67.0652
16697 1 20.0611 138.685 64.5097
22275 2 19.1573 137.085 65.7916
16571 1 20.9802 137.095 67.0733
17434 1 0.963946 140.293 64.5007
22959 2 2.78801 140.302 65.7745
23298 2 0.0595949 141.911 65.7644
17419 1 1.88252 141.924 67.046
17436 1 3.69178 141.901 64.4907
22957 2 5.51583 141.911 65.7644
17109 1 4.61095 140.314 67.0561
17112 1 9.14802 141.901 64.4907
17114 1 6.42018 140.293 64.5007
22669 2 8.24425 140.302 65.7745
17111 1 7.33876 141.924 67.046
16864 1 11.8764 140.293 64.5007
22671 2 10.9721 141.911 65.7644
16837 1 10.0672 140.314 67.0561
16866 1 14.6043 141.901 64.4907
22417 2 13.7005 140.302 65.7745
16667 1 15.5234 140.314 67.0561
16835 1 12.795 141.924 67.046
16672 1 17.3327 140.293 64.5007
22415 2 16.4283 141.911 65.7644
16669 1 18.2512 141.924 67.046
16670 1 20.0605 141.901 64.4907
22274 2 19.1567 140.302 65.7745
16560 1 20.9797 140.314 67.0561
17423 1 0.963361 143.509 64.4796
22958 2 2.7874 143.52 65.7533
23293 2 0.0589669 145.129 65.741
17420 1 1.88186 145.143 67.0225
17421 1 3.69118 145.117 64.4674
22960 2 5.51521 145.129 65.741
17092 1 4.61031 143.534 67.0348
17113 1 6.4196 143.509 64.4796
17115 1 9.14741 145.117 64.4674
22646 2 8.24364 143.52 65.7533
17090 1 7.3381 145.143 67.0225
16841 1 11.8758 143.509 64.4796
22644 2 10.9714 145.129 65.741
16836 1 10.0666 143.534 67.0348
16839 1 14.6037 145.117 64.4674
22416 2 13.6999 143.52 65.7533
16648 1 15.5228 143.534 67.0348
16838 1 12.7943 145.143 67.0225
16671 1 17.3321 143.509 64.4796
22418 2 16.4277 145.129 65.741
16646 1 18.2506 145.143 67.0225
16673 1 20.0599 145.117 64.4674
22255 2 19.1561 143.52 65.7533
16559 1 20.979 143.534 67.0348
17422 1 0.962754 146.725 64.4542
22947 2 2.78677 146.738 65.7277
17424 1 3.69058 148.333 64.4398
17091 1 4.60965 146.753 67.0091
17094 1 9.14681 148.333 64.4398
17096 1 6.41899 146.725 64.4542
22645 2 8.243 146.738 65.7277
16840 1 11.8752 146.725 64.4542
16821 1 10.0659 146.753 67.0091
16842 1 14.6031 148.333 64.4398
22397 2 13.6992 146.738 65.7277
16647 1 15.5221 146.753 67.0091
16652 1 17.3315 146.725 64.4542
16650 1 20.0593 148.333 64.4398
22254 2 19.1555 146.738 65.7277
16548 1 20.9784 146.753 67.0091
23294 2 0.0583284 148.347 65.7133
17415 1 1.8812 148.363 66.9946
22946 2 2.78614 149.957 65.6977
22945 2 5.51457 148.347 65.7133
17079 1 4.60899 149.973 66.9789
17093 1 7.33743 148.363 66.9946
22627 2 8.24238 149.957 65.6977
22647 2 10.9708 148.347 65.7133
16820 1 10.0652 149.973 66.9789
16819 1 12.7937 148.363 66.9946
22396 2 13.6986 149.957 65.6977
16633 1 15.5215 149.973 66.9789
22395 2 16.427 148.347 65.7133
16649 1 18.2499 148.363 66.9946
22237 2 19.1549 149.957 65.6977
16547 1 20.9777 149.973 66.9789
17603 1 0.0721652 103.28 69.5783
15190 1 2.79998 101.668 69.5647
21071 2 0.977944 101.677 68.2756
17293 1 5.5284 103.28 69.5783
23172 2 3.70634 103.287 68.2891
22853 2 9.16258 103.287 68.2891
14910 1 8.25622 101.668 69.5647
20728 2 6.43418 101.677 68.2756
17019 1 10.9846 103.28 69.5783
20479 2 11.8904 101.677 68.2756
22578 2 14.6188 103.287 68.2891
14713 1 13.7125 101.668 69.5647
16774 1 16.4409 103.28 69.5783
20312 2 17.3467 101.677 68.2756
22355 2 20.0751 103.287 68.2891
14621 1 19.1687 101.668 69.5647
17294 1 2.8006 104.891 69.5907
17557 1 0.0727891 106.502 69.6022
23130 2 0.978505 104.898 68.3015
17295 1 5.52903 106.502 69.6022
23128 2 3.70691 106.508 68.3129
16993 1 8.25683 104.891 69.5907
22854 2 6.43474 104.898 68.3015
22855 2 9.16315 106.508 68.3129
16991 1 10.9853 106.502 69.6022
22560 2 11.891 104.898 68.3015
16775 1 13.7131 104.891 69.5907
22558 2 14.6194 106.508 68.3129
16776 1 16.4415 106.502 69.6022
22356 2 17.3472 104.898 68.3015
16614 1 19.1693 104.891 69.5907
22357 2 20.0756 106.508 68.3129
17254 1 2.80122 108.113 69.6125
17558 1 0.0733953 109.725 69.6219
23129 2 0.979075 108.118 68.3232
17252 1 5.52963 109.725 69.6219
23131 2 3.70747 109.729 68.3326
16992 1 8.25745 108.113 69.6125
22820 2 9.16371 109.729 68.3326
22822 2 6.43531 108.118 68.3232
16994 1 10.9859 109.725 69.6219
22559 2 11.8916 108.118 68.3232
16759 1 13.7137 108.113 69.6125
22561 2 14.6199 109.729 68.3326
16757 1 16.4421 109.725 69.6219
22348 2 17.3478 108.118 68.3232
16613 1 19.1699 108.113 69.6125
22346 2 20.0762 109.729 68.3326
17253 1 2.8018 111.336 69.6302
23083 2 0.979615 111.339 68.3409
16961 1 8.25803 111.336 69.6302
22821 2 6.43585 111.339 68.3409
22536 2 11.8921 111.339 68.3409
16758 1 13.7143 111.336 69.6302
22347 2 17.3483 111.339 68.3409
16606 1 19.1705 111.336 69.6302
17513 1 0.0739425 112.947 69.6376
17208 1 2.80228 114.558 69.6439
23082 2 0.980091 114.56 68.3546
17255 1 5.53018 112.947 69.6376
23081 2 3.70798 112.949 68.3482
22823 2 9.16422 112.949 68.3482
16960 1 8.25852 114.558 69.6439
22782 2 6.43633 114.56 68.3546
16959 1 10.9864 112.947 69.6376
22535 2 11.8926 114.56 68.3546
22534 2 14.6205 112.949 68.3482
16736 1 13.7148 114.558 69.6439
16760 1 16.4427 112.947 69.6376
22332 2 17.3488 114.56 68.3546
22349 2 20.0767 112.949 68.3482
16605 1 19.171 114.558 69.6439
17207 1 2.80268 117.78 69.6538
17514 1 0.0743714 116.169 69.6493
23039 2 0.98044 117.78 68.3644
17206 1 5.53061 116.169 69.6493
23084 2 3.7084 116.17 68.36
16925 1 8.25892 117.78 69.6538
22780 2 9.16464 116.17 68.36
22781 2 6.43668 117.78 68.3644
16962 1 10.9868 116.169 69.6493
22505 2 11.8929 117.78 68.3644
16735 1 13.7152 117.78 69.6538
22537 2 14.6209 116.17 68.36
16734 1 16.4431 116.169 69.6493
22331 2 17.3492 117.78 68.3644
16594 1 19.1714 117.78 69.6538
22330 2 20.0771 116.17 68.36
17166 1 2.80292 121.002 69.6599
17477 1 0.0746931 119.391 69.6574
23038 2 0.980668 121 68.3705
17209 1 5.53093 119.391 69.6574
23037 2 3.70869 119.39 68.3679
16924 1 8.25916 121.002 69.6599
22738 2 6.43691 121 68.3705
22783 2 9.16493 119.39 68.3679
16923 1 10.9872 119.391 69.6574
22504 2 11.8931 121 68.3705
16712 1 13.7154 121.002 69.6599
22503 2 14.6212 119.39 68.3679
16737 1 16.4434 119.391 69.6574
22312 2 17.3494 121 68.3705
16593 1 19.1716 121.002 69.6599
22333 2 20.0774 119.39 68.3679
17165 1 2.80302 124.224 69.6622
17478 1 0.0748672 122.613 69.6615
23003 2 0.980766 124.22 68.3727
17164 1 5.53111 122.613 69.6615
23040 2 3.70885 122.61 68.3721
16889 1 8.25926 124.224 69.6622
22736 2 9.16509 122.61 68.3721
22737 2 6.437 124.22 68.3727
16926 1 10.9873 122.613 69.6615
22473 2 11.8932 124.22 68.3727
16711 1 13.7155 124.224 69.6622
22506 2 14.6213 122.61 68.3721
16710 1 16.4436 122.613 69.6615
22311 2 17.3495 124.22 68.3727
16582 1 19.1717 124.224 69.6622
22310 2 20.0776 122.61 68.3721
17132 1 2.80297 127.446 69.6606
17449 1 0.0748939 125.835 69.6619
23002 2 0.980723 127.441 68.3711
17167 1 5.53113 125.835 69.6619
23001 2 3.70888 125.83 68.3724
16888 1 8.25921 127.446 69.6606
22698 2 6.43696 127.441 68.3711
22739 2 9.16512 125.83 68.3724
16887 1 10.9874 125.835 69.6619
22472 2 11.8932 127.441 68.3711
16688 1 13.7154 127.446 69.6606
22471 2 14.6214 125.83 68.3724
16713 1 16.4436 125.835 69.6619
22292 2 17.3494 127.441 68.3711
16581 1 19.1717 127.446 69.6606
22313 2 20.0776 125.83 68.3724
17450 1 0.0747679 129.057 69.6584
17130 1 5.53101 129.057 69.6584
23004 2 3.70877 129.051 68.3689
22696 2 9.165 129.051 68.3689
16890 1 10.9872 129.057 69.6584
22474 2 14.6212 129.051 68.3689
16686 1 16.4435 129.057 69.6584
22290 2 20.0775 129.051 68.3689
17131 1 2.80277 130.668 69.6552
22975 2 0.980534 130.661 68.3657
17429 1 0.074488 132.279 69.651
17133 1 5.53073 132.279 69.651
22973 2 3.7085 132.271 68.3616
16857 1 8.259 130.668 69.6552
22697 2 6.43677 130.661 68.3657
22699 2 9.16474 132.271 68.3616
22441 2 11.893 130.661 68.3657
16855 1 10.987 132.279 69.651
16687 1 13.7152 130.668 69.6552
22439 2 14.621 132.271 68.3616
22291 2 17.3492 130.661 68.3657
16689 1 16.4432 132.279 69.651
16570 1 19.1715 130.668 69.6552
22293 2 20.0772 132.271 68.3616
17106 1 2.80241 133.89 69.6459
17430 1 0.0740585 135.501 69.6398
22974 2 0.980203 133.881 68.3565
17104 1 5.5303 135.501 69.6398
22976 2 3.70811 135.491 68.3504
16856 1 8.25865 133.89 69.6459
22664 2 9.16434 135.491 68.3504
22666 2 6.43644 133.881 68.3565
16858 1 10.9865 135.501 69.6398
22440 2 11.8927 133.881 68.3565
16664 1 13.7149 133.89 69.6459
22442 2 14.6206 135.491 68.3504
16662 1 16.4428 135.501 69.6398
22272 2 17.3489 133.881 68.3565
16569 1 19.1711 133.89 69.6459
22270 2 20.0768 135.491 68.3504
17105 1 2.80191 137.112 69.6326
17417 1 0.0734916 138.723 69.6245
22955 2 0.979738 137.102 68.3432
17107 1 5.52973 138.723 69.6245
22953 2 3.70758 138.712 68.3351
16833 1 8.25815 137.112 69.6326
22665 2 6.43598 137.102 68.3432
22667 2 9.16382 138.712 68.3351
16831 1 10.986 138.723 69.6245
22413 2 11.8922 137.102 68.3432
16663 1 13.7144 137.112 69.6326
22411 2 14.6201 138.712 68.3351
16665 1 16.4422 138.723 69.6245
22271 2 17.3485 137.102 68.3432
16558 1 19.1706 137.112 69.6326
22273 2 20.0763 138.712 68.3351
17088 1 2.80128 140.335 69.6153
17418 1 0.0728092 141.946 69.6051
22954 2 0.979159 140.323 68.326
17086 1 5.52905 141.946 69.6051
22956 2 3.70695 141.933 68.3158
16832 1 8.25752 140.335 69.6153
22640 2 9.16319 141.933 68.3158
22642 2 6.4354 140.323 68.326
16834 1 10.9853 141.946 69.6051
22412 2 11.8916 140.323 68.326
16644 1 13.7138 140.335 69.6153
22414 2 14.6194 141.933 68.3158
16642 1 16.4415 141.946 69.6051
22252 2 17.3479 140.323 68.326
16557 1 19.17 140.335 69.6153
22250 2 20.0757 141.933 68.3158
17087 1 2.80055 143.558 69.5938
17413 1 0.0720444 145.169 69.5814
22943 2 0.978492 143.544 68.3045
17089 1 5.52828 145.169 69.5814
22941 2 3.70626 145.154 68.2922
16817 1 8.25679 143.558 69.5938
22641 2 6.43473 143.544 68.3045
22643 2 9.1625 145.154 68.2922
16815 1 10.9845 145.169 69.5814
22393 2 11.891 143.544 68.3045
16643 1 13.713 143.558 69.5938
22391 2 14.6187 145.154 68.2922
16645 1 16.4408 145.169 69.5814
22251 2 17.3472 143.544 68.3045
16546 1 19.1693 143.558 69.5938
22253 2 20.075 145.154 68.2922
17078 1 2.79976 146.781 69.5679
22942 2 0.977776 146.765 68.2788
16816 1 8.256 146.781 69.5679
22626 2 6.43401 146.765 68.2788
22392 2 11.8903 146.765 68.2788
16632 1 13.7122 146.781 69.5679
22236 2 17.3465 146.765 68.2788
16545 1 19.1685 146.781 69.5679
17414 1 0.0712424 148.392 69.5533
17077 1 2.79896 150.004 69.5375
22936 2 0.977056 149.987 68.2485
17076 1 5.52748 148.392 69.5533
22944 2 3.70553 148.376 68.2642
22624 2 9.16177 148.376 68.2642
16806 1 8.2552 150.004 69.5375
22625 2 6.43329 149.987 68.2485
16818 1 10.9837 148.392 69.5533
22378 2 11.8895 149.987 68.2485
22394 2 14.618 148.376 68.2642
16631 1 13.7114 150.004 69.5375
16630 1 16.44 148.392 69.5533
22235 2 17.3458 149.987 68.2485
22234 2 20.0742 148.376 68.2642
16536 1 19.1677 150.004 69.5375
23126 2 1.89737 103.269 70.8355
15188 1 0.985292 101.65 72.1403
17292 1 3.7138 103.263 72.1539
20726 2 4.62516 101.657 70.8219
16988 1 9.17003 103.263 72.1539
22852 2 7.35361 103.269 70.8355
14900 1 6.44153 101.65 72.1403
14711 1 11.8978 101.65 72.1403
20465 2 10.0814 101.657 70.8219
16773 1 14.6263 103.263 72.1539
22555 2 12.8098 103.269 70.8355
20310 2 15.5376 101.657 70.8219
22354 2 18.2661 103.269 70.8355
14612 1 17.354 101.65 72.1403
16610 1 20.0825 103.263 72.1539
20240 2 20.9939 101.657 70.8219
17250 1 0.986063 104.876 72.1665
23127 2 1.89802 106.493 70.8594
17248 1 3.71456 106.488 72.1779
22818 2 4.62581 104.881 70.848
16989 1 6.4423 104.876 72.1665
16990 1 9.1708 106.488 72.1779
22816 2 7.35426 106.493 70.8594
16755 1 11.8985 104.876 72.1665
22556 2 10.0821 104.881 70.848
16753 1 14.627 106.488 72.1779
22344 2 15.5383 104.881 70.848
22557 2 12.8105 106.493 70.8594
16611 1 17.3548 104.876 72.1665
22342 2 18.2667 106.493 70.8594
16612 1 20.0833 106.488 72.1779
22212 2 20.9945 104.881 70.848
17249 1 0.986817 108.101 72.1884
23079 2 1.89865 109.717 70.8792
17251 1 3.71529 109.714 72.1978
22817 2 4.62646 108.105 70.8698
16955 1 9.17153 109.714 72.1978
16957 1 6.44306 108.101 72.1884
22819 2 7.35489 109.717 70.8792
16754 1 11.8993 108.101 72.1884
22532 2 10.0827 108.105 70.8698
16756 1 14.6278 109.714 72.1978
22343 2 15.5389 108.105 70.8698
22530 2 12.8111 109.717 70.8792
16603 1 17.3555 108.101 72.1884
22345 2 18.2674 109.717 70.8792
16601 1 20.084 109.714 72.1978
22211 2 20.9952 108.105 70.8698
17204 1 0.987503 111.327 72.2062
22778 2 4.62706 111.329 70.8876
16956 1 6.44374 111.327 72.2062
16732 1 11.9 111.327 72.2062
22531 2 10.0833 111.329 70.8876
22328 2 15.5395 111.329 70.8876
16602 1 17.3562 111.327 72.2062
22210 2 20.9958 111.329 70.8876
23080 2 1.89921 112.941 70.8949
17203 1 0.98808 114.552 72.22
17202 1 3.71593 112.94 72.2135
22777 2 4.62757 114.553 70.9013
16958 1 9.17217 112.94 72.2135
22776 2 7.35545 112.941 70.8949
16921 1 6.44432 114.552 72.22
16731 1 11.9006 114.552 72.22
22501 2 10.0838 114.553 70.9013
16730 1 14.6284 112.94 72.2135
22533 2 12.8117 112.941 70.8949
22327 2 15.54 114.553 70.9013
22326 2 18.2679 112.941 70.8949
16591 1 17.3568 114.552 72.22
16604 1 20.0846 112.94 72.2135
22204 2 20.9963 114.553 70.9013
17162 1 0.988519 117.778 72.2299
23035 2 1.89966 116.165 70.9068
17205 1 3.71644 116.165 72.2254
22734 2 4.62796 117.776 70.9112
16919 1 9.17268 116.165 72.2254
16920 1 6.44476 117.778 72.2299
22779 2 7.3559 116.165 70.9068
16708 1 11.901 117.778 72.2299
22500 2 10.0842 117.776 70.9112
16733 1 14.6289 116.165 72.2254
22308 2 15.5404 117.776 70.9112
22499 2 12.8121 116.165 70.9068
16590 1 17.3572 117.778 72.2299
22329 2 18.2684 116.165 70.9068
16589 1 20.0852 116.165 72.2254
22203 2 20.9967 117.776 70.9112
17161 1 0.988801 121.003 72.236
23036 2 1.89999 119.388 70.9148
17160 1 3.7168 119.39 72.2334
22733 2 4.62822 121 70.9173
16885 1 6.44504 121.003 72.236
16922 1 9.17304 119.39 72.2334
22732 2 7.35623 119.388 70.9148
16707 1 11.9013 121.003 72.236
22469 2 10.0845 121 70.9173
16706 1 14.6293 119.39 72.2334
22307 2 15.5407 121 70.9173
22502 2 12.8125 119.388 70.9148
16579 1 17.3575 121.003 72.236
22306 2 18.2687 119.388 70.9148
16592 1 20.0855 119.39 72.2334
22196 2 20.9969 121 70.9173
17128 1 0.988918 124.228 72.2383
22999 2 1.90017 122.611 70.9189
17163 1 3.717 122.615 72.2376
22694 2 4.62832 124.223 70.9196
16883 1 9.17324 122.615 72.2376
16884 1 6.44516 124.228 72.2383
22735 2 7.35641 122.611 70.9189
16684 1 11.9014 124.228 72.2383
22468 2 10.0846 124.223 70.9196
16709 1 14.6295 122.615 72.2376
22288 2 15.5408 124.223 70.9196
22467 2 12.8126 122.611 70.9189
16578 1 17.3576 124.228 72.2383
22309 2 18.2689 122.611 70.9189
16577 1 20.0857 122.615 72.2376
22195 2 20.997 124.223 70.9196
17127 1 0.988865 127.453 72.2367
23000 2 1.9002 125.835 70.9193
17126 1 3.71703 125.841 72.238
22693 2 4.62828 127.447 70.918
16853 1 6.4451 127.453 72.2367
16886 1 9.17327 125.841 72.238
22692 2 7.35644 125.835 70.9193
16683 1 11.9013 127.453 72.2367
22437 2 10.0845 127.447 70.918
16682 1 14.6295 125.841 72.238
22287 2 15.5408 127.447 70.918
22470 2 12.8127 125.835 70.9193
16567 1 17.3576 127.453 72.2367
22286 2 18.2689 125.835 70.9193
16580 1 20.0857 125.841 72.238
22188 2 20.997 127.447 70.918
22971 2 1.90008 129.058 70.9158
17129 1 3.71689 129.066 72.2345
16851 1 9.17313 129.066 72.2345
22695 2 7.35632 129.058 70.9158
16685 1 14.6294 129.066 72.2345
22435 2 12.8126 129.058 70.9158
22289 2 18.2688 129.058 70.9158
16565 1 20.0856 129.066 72.2345
17102 1 0.988638 130.679 72.2312
22972 2 1.8998 132.282 70.9084
22662 2 4.62808 130.67 70.9126
17100 1 3.71658 132.291 72.2271
16852 1 6.44488 130.679 72.2312
16854 1 9.17282 132.291 72.2271
22660 2 7.35604 132.282 70.9084
16660 1 11.9011 130.679 72.2312
22436 2 10.0843 130.67 70.9126
22268 2 15.5406 130.67 70.9126
16658 1 14.6291 132.291 72.2271
22438 2 12.8123 132.282 70.9084
16566 1 17.3574 130.679 72.2312
22266 2 18.2685 132.282 70.9084
22187 2 20.9968 130.67 70.9126
16568 1 20.0853 132.291 72.2271
17101 1 0.988233 133.904 72.2219
22951 2 1.89937 135.505 70.8971
17103 1 3.71608 135.517 72.2157
22661 2 4.62773 133.894 70.9032
16827 1 9.17232 135.517 72.2157
16829 1 6.44447 133.904 72.2219
22663 2 7.35561 135.505 70.8971
16659 1 11.9007 133.904 72.2219
22409 2 10.084 133.894 70.9032
16661 1 14.6286 135.517 72.2157
22267 2 15.5402 133.894 70.9032
22407 2 12.8118 135.505 70.8971
16555 1 17.3569 133.904 72.2219
22269 2 18.2681 135.505 70.8971
16553 1 20.0848 135.517 72.2157
22180 2 20.9964 133.894 70.9032
17084 1 0.987655 137.13 72.2085
22952 2 1.8988 138.729 70.8817
17082 1 3.71542 138.743 72.2003
22638 2 4.62722 137.117 70.8899
16828 1 6.44389 137.13 72.2085
16830 1 9.17166 138.743 72.2003
22636 2 7.35504 138.729 70.8817
16640 1 11.9001 137.13 72.2085
22408 2 10.0835 137.117 70.8899
16638 1 14.6279 138.743 72.2003
22248 2 15.5397 137.117 70.8899
22410 2 12.8113 138.729 70.8817
16554 1 17.3564 137.13 72.2085
22246 2 18.2675 138.729 70.8817
16556 1 20.0841 138.743 72.2003
22179 2 20.9959 137.117 70.8899
17083 1 0.986912 140.356 72.1911
22939 2 1.89809 141.954 70.8623
17085 1 3.7146 141.969 72.1808
22637 2 4.62658 140.341 70.8725
16811 1 9.17084 141.969 72.1808
16813 1 6.44315 140.356 72.1911
22639 2 7.35433 141.954 70.8623
16639 1 11.8994 140.356 72.1911
22389 2 10.0828 140.341 70.8725
16641 1 14.6271 141.969 72.1808
22247 2 15.5391 140.341 70.8725
22387 2 12.8106 141.954 70.8623
16543 1 17.3556 140.356 72.1911
22249 2 18.2668 141.954 70.8623
16541 1 20.0833 141.969 72.1808
22172 2 20.9953 140.341 70.8725
17074 1 0.986027 143.582 72.1694
22940 2 1.89729 145.178 70.8385
17072 1 3.71366 145.195 72.157
22622 2 4.62582 143.566 70.8509
16812 1 6.44227 143.582 72.1694
16814 1 9.1699 145.195 72.157
22620 2 7.35353 145.178 70.8385
16628 1 11.8985 143.582 72.1694
22388 2 10.0821 143.566 70.8509
16626 1 14.6261 145.195 72.157
22232 2 15.5383 143.566 70.8509
22390 2 12.8098 145.178 70.8385
16542 1 17.3547 143.582 72.1694
22230 2 18.266 145.178 70.8385
16544 1 20.0824 145.195 72.157
22171 2 20.9945 143.566 70.8509
17073 1 0.985037 146.808 72.1434
22621 2 4.62499 146.791 70.825
16805 1 6.44128 146.808 72.1434
16627 1 11.8975 146.808 72.1434
22377 2 10.0812 146.791 70.825
22231 2 15.5375 146.791 70.825
16535 1 17.3538 146.808 72.1434
22164 2 20.9937 146.791 70.825
22935 2 1.89643 148.403 70.8103
17069 1 0.983997 150.035 72.1128
17075 1 3.71264 148.421 72.1287
22611 2 4.62412 150.016 70.7945
16803 1 9.16888 148.421 72.1287
22623 2 7.35267 148.403 70.8103
16804 1 6.44024 150.035 72.1128
16621 1 11.8965 150.035 72.1128
22376 2 10.0804 150.016 70.7945
16629 1 14.6251 148.421 72.1287
22375 2 12.8089 148.403 70.8103
22221 2 15.5366 150.016 70.7945
22233 2 18.2651 148.403 70.8103
16534 1 17.3527 150.035 72.1128
16533 1 20.0814 148.421 72.1287
22163 2 20.9928 150.016 70.7945
23125 2 0.0866145 103.251 73.3673
20716 2 2.81434 101.637 73.3537
17246 1 1.84021 103.25 74.8053
20714 2 0.976073 101.622 75.8282
22813 2 5.54285 103.251 73.3673
22812 2 3.7047 103.237 75.8418
14898 1 4.5678 101.636 74.7916
20463 2 8.27058 101.637 73.3537
16987 1 7.29645 103.25 74.8053
22523 2 9.16094 103.237 75.8418
20457 2 6.43231 101.622 75.8282
22554 2 10.9991 103.251 73.3673
14705 1 10.024 101.636 74.7916
20298 2 11.8885 101.622 75.8282
20300 2 13.7268 101.637 73.3537
16750 1 12.7527 103.25 74.8053
22338 2 14.6172 103.237 75.8418
14610 1 15.4803 101.636 74.7916
22339 2 16.4553 103.251 73.3673
16609 1 18.2089 103.25 74.8053
20233 2 17.3448 101.622 75.8282
20238 2 19.1831 101.637 73.3537
22205 2 20.0734 103.237 75.8418
14593 1 20.9365 101.636 74.7916
22814 2 2.81512 104.865 73.3799
23077 2 0.0873897 106.478 73.3914
17247 1 1.84127 106.479 74.8293
22770 2 0.977091 104.852 75.8544
22815 2 5.54363 106.478 73.3914
16953 1 4.56886 104.864 74.8178
22768 2 3.7057 106.467 75.8659
22528 2 8.27136 104.865 73.3799
16951 1 7.2975 106.479 74.8293
22524 2 6.43333 104.852 75.8544
22525 2 9.16194 106.467 75.8659
22526 2 10.9999 106.478 73.3914
16751 1 10.0251 104.864 74.8178
22320 2 11.8896 104.852 75.8544
22340 2 13.7276 104.865 73.3799
16599 1 15.4813 104.864 74.8178
16752 1 12.7537 106.479 74.8293
22318 2 14.6182 106.467 75.8659
22341 2 16.4561 106.478 73.3914
16597 1 18.21 106.479 74.8293
22206 2 17.3458 104.852 75.8544
22209 2 19.1838 104.865 73.3799
16527 1 20.9376 104.864 74.8178
22207 2 20.0744 106.467 75.8659
22774 2 2.81588 108.092 73.4018
17200 1 1.84226 109.708 74.8491
22769 2 0.97806 108.083 75.8763
23078 2 0.0881162 109.705 73.4112
16952 1 4.56989 108.093 74.8397
22771 2 3.70663 109.698 75.8858
22772 2 5.54435 109.705 73.4112
22527 2 8.27212 108.092 73.4018
16954 1 7.2985 109.708 74.8491
22491 2 9.16287 109.698 75.8858
22493 2 6.4343 108.083 75.8763
16728 1 10.0261 108.093 74.8397
22319 2 11.8905 108.083 75.8763
22529 2 11.0006 109.705 73.4112
22324 2 13.7284 108.092 73.4018
16598 1 15.4824 108.093 74.8397
16726 1 12.7547 109.708 74.8491
22321 2 14.6191 109.698 75.8858
16600 1 18.211 109.708 74.8491
22199 2 17.3468 108.083 75.8763
22322 2 16.4568 109.705 73.4112
22208 2 19.1846 108.092 73.4018
16526 1 20.9386 108.093 74.8397
22197 2 20.0753 109.698 75.8858
22726 2 0.978925 111.313 75.8942
22773 2 2.81657 111.319 73.4196
16917 1 4.57083 111.322 74.8575
22492 2 6.43516 111.313 75.8942
22497 2 8.2728 111.319 73.4196
16727 1 10.0271 111.322 74.8575
22300 2 11.8914 111.313 75.8942
16587 1 15.4833 111.322 74.8575
22323 2 13.729 111.319 73.4196
22198 2 17.3476 111.313 75.8942
16525 1 20.9395 111.322 74.8575
22202 2 19.1853 111.319 73.4196
17201 1 1.84312 112.937 74.8649
23033 2 0.0887499 112.932 73.427
22725 2 0.97964 114.543 75.9081
22730 2 2.81714 114.546 73.4335
22724 2 3.70742 112.928 75.9016
22775 2 5.54499 112.932 73.427
16916 1 4.57161 114.551 74.8713
16915 1 7.29936 112.937 74.8649
22494 2 9.16366 112.928 75.9016
22461 2 6.43588 114.543 75.9081
22496 2 8.27338 114.546 73.4335
22495 2 11.0012 112.932 73.427
16704 1 10.0279 114.551 74.8713
22299 2 11.8921 114.543 75.9081
16729 1 12.7556 112.937 74.8649
22298 2 14.6199 112.928 75.9016
16586 1 15.4841 114.551 74.8713
22304 2 13.7296 114.546 73.4335
16585 1 18.2118 112.937 74.8649
22325 2 16.4575 112.932 73.427
22191 2 17.3484 114.543 75.9081
22200 2 20.0761 112.928 75.9016
16524 1 20.9403 114.551 74.8713
22201 2 19.1859 114.546 73.4335
17158 1 1.84381 116.166 74.8768
22686 2 0.980175 117.773 75.918
22729 2 2.81758 117.772 73.4434
23034 2 0.0892603 116.159 73.4389
16881 1 4.5722 117.781 74.8813
22727 2 3.70805 116.158 75.9135
22728 2 5.5455 116.159 73.4389
16918 1 7.30005 116.166 74.8768
22459 2 9.16429 116.158 75.9135
22460 2 6.43641 117.773 75.918
22465 2 8.27382 117.772 73.4434
16703 1 10.0284 117.781 74.8813
22280 2 11.8927 117.773 75.918
22498 2 11.0017 116.159 73.4389
16575 1 15.4847 117.781 74.8813
16702 1 12.7563 116.166 74.8768
22301 2 14.6205 116.158 75.9135
22303 2 13.7301 117.772 73.4434
16588 1 18.2125 116.166 74.8768
22190 2 17.3489 117.773 75.918
22302 2 16.458 116.159 73.4389
16523 1 20.9409 117.781 74.8813
22189 2 20.0768 116.158 75.9135
22194 2 19.1863 117.772 73.4434
17159 1 1.84429 119.395 74.8848
22685 2 0.980514 121.003 75.9241
22690 2 2.81787 120.999 73.4495
22997 2 0.089625 119.386 73.4469
16880 1 4.57256 121.01 74.8874
22684 2 3.70849 119.388 75.9215
22731 2 5.54586 119.386 73.4469
16879 1 7.30052 119.395 74.8848
22429 2 6.43675 121.003 75.9241
22462 2 9.16473 119.388 75.9215
22464 2 8.27411 120.999 73.4495
16680 1 10.0288 121.01 74.8874
22279 2 11.893 121.003 75.9241
22463 2 11.0021 119.386 73.4469
16574 1 15.485 121.01 74.8874
16705 1 12.7568 119.395 74.8848
22278 2 14.621 119.388 75.9215
22284 2 13.7303 120.999 73.4495
16573 1 18.213 119.395 74.8848
22183 2 17.3492 121.003 75.9241
22305 2 16.4583 119.386 73.4469
16522 1 20.9413 121.01 74.8874
22192 2 20.0772 119.388 75.9215
22193 2 19.1866 120.999 73.4495
17124 1 1.84454 122.625 74.889
22654 2 0.980658 124.233 75.9263
22689 2 2.81799 124.225 73.4518
22998 2 0.08983 122.612 73.4511
16849 1 4.57271 124.239 74.8896
22687 2 3.70873 122.618 75.9257
22688 2 5.54607 122.612 73.4511
16882 1 7.30078 122.625 74.889
22427 2 9.16497 122.618 75.9257
22428 2 6.4369 124.233 75.9263
22433 2 8.27423 124.225 73.4518
16679 1 10.0289 124.239 74.8896
22260 2 11.8931 124.233 75.9263
22466 2 11.0023 122.612 73.4511
16563 1 15.4852 124.239 74.8896
16678 1 12.757 122.625 74.889
22281 2 14.6212 122.618 75.9257
22283 2 13.7305 124.225 73.4518
16576 1 18.2133 122.625 74.889
22182 2 17.3494 124.233 75.9263
22282 2 16.4585 122.612 73.4511
16521 1 20.9414 124.239 74.8896
22181 2 20.0774 122.618 75.9257
22186 2 19.1867 124.225 73.4518
17125 1 1.84458 125.854 74.8893
22653 2 0.980601 127.463 75.9247
22658 2 2.81795 127.452 73.4502
22969 2 0.0898712 125.838 73.4514
16848 1 4.57264 127.469 74.888
22652 2 3.70877 125.848 75.926
22691 2 5.54611 125.838 73.4514
16847 1 7.30082 125.854 74.8893
22401 2 6.43684 127.463 75.9247
22430 2 9.16501 125.848 75.926
22432 2 8.27419 127.452 73.4502
16656 1 10.0289 127.469 74.888
22259 2 11.8931 127.463 75.9247
22431 2 11.0023 125.838 73.4514
16562 1 15.4851 127.469 74.888
16681 1 12.7571 125.854 74.8893
22258 2 14.6213 125.848 75.926
22264 2 13.7304 127.452 73.4502
16561 1 18.2133 125.854 74.8893
22175 2 17.3493 127.463 75.9247
22285 2 16.4586 125.838 73.4514
16520 1 20.9414 127.469 74.888
22184 2 20.0775 125.848 75.926
22185 2 19.1867 127.452 73.4502
17098 1 1.8444 129.084 74.8858
22970 2 0.0897439 129.065 73.4479
22655 2 3.70861 129.078 75.9224
22656 2 5.54598 129.065 73.4479
16850 1 7.30064 129.084 74.8858
22399 2 9.16485 129.078 75.9224
22434 2 11.0022 129.065 73.4479
16654 1 12.7569 129.084 74.8858
22261 2 14.6211 129.078 75.9224
16564 1 18.2131 129.084 74.8858
22262 2 16.4585 129.065 73.4479
22173 2 20.0773 129.078 75.9224
22630 2 0.980335 130.693 75.9191
22657 2 2.81773 130.678 73.4447
17099 1 1.84397 132.313 74.8783
22949 2 0.0894431 132.292 73.4405
16825 1 4.57233 130.698 74.8825
22628 2 3.70824 132.308 75.9149
22659 2 5.54568 132.292 73.4405
22400 2 6.43657 130.693 75.9191
22405 2 8.27397 130.678 73.4447
16823 1 7.30021 132.313 74.8783
22402 2 9.16448 132.308 75.9149
16655 1 10.0286 130.698 74.8825
22240 2 11.8928 130.693 75.9191
22403 2 11.0019 132.292 73.4405
16551 1 15.4848 130.698 74.8825
22263 2 13.7302 130.678 73.4447
16657 1 12.7564 132.313 74.8783
22238 2 14.6207 132.308 75.9149
22174 2 17.3491 130.693 75.9191
16549 1 18.2127 132.313 74.8783
22265 2 16.4582 132.292 73.4405
16519 1 20.941 130.698 74.8825
22178 2 19.1864 130.678 73.4447
22176 2 20.077 132.308 75.9149
17080 1 1.8433 135.543 74.8669
22629 2 0.979851 133.923 75.9096
22634 2 2.81735 133.905 73.4353
22950 2 0.0889663 135.518 73.4291
16824 1 4.57179 133.928 74.8731
22631 2 3.70764 135.539 75.9033
22632 2 5.5452 135.518 73.4291
16826 1 7.29954 135.543 74.8669
22379 2 9.16388 135.539 75.9033
22381 2 6.43609 133.923 75.9096
22404 2 8.27358 133.905 73.4353
16636 1 10.028 133.928 74.8731
22239 2 11.8923 133.923 75.9096
22406 2 11.0014 135.518 73.4291
16550 1 15.4843 133.928 74.8731
16634 1 12.7558 135.543 74.8669
22241 2 14.6201 135.539 75.9033
22244 2 13.7298 133.905 73.4353
16552 1 18.212 135.543 74.8669
22167 2 17.3486 133.923 75.9096
22242 2 16.4577 135.518 73.4291
16518 1 20.9405 133.928 74.8731
22165 2 20.0764 135.539 75.9033
22177 2 19.1861 133.905 73.4353
17081 1 1.8424 138.773 74.8514
22614 2 0.979143 137.154 75.8961
22633 2 2.81678 137.132 73.4218
22937 2 0.0883168 138.746 73.4136
16809 1 4.571 137.158 74.8597
22612 2 3.70683 138.769 75.8878
22635 2 5.54456 138.746 73.4136
16807 1 7.29863 138.773 74.8514
22380 2 6.43538 137.154 75.8961
22382 2 9.16306 138.769 75.8878
22385 2 8.27302 137.132 73.4218
16635 1 10.0272 137.158 74.8597
22224 2 11.8916 137.154 75.8961
22383 2 11.0008 138.746 73.4136
16539 1 15.4835 137.158 74.8597
16637 1 12.7549 138.773 74.8514
22222 2 14.6193 138.769 75.8878
22243 2 13.7293 137.132 73.4218
16537 1 18.2111 138.773 74.8514
22166 2 17.3479 137.154 75.8961
22245 2 16.457 138.746 73.4136
16517 1 20.9397 137.158 74.8597
22168 2 20.0755 138.769 75.8878
22170 2 19.1855 137.132 73.4218
17070 1 1.84126 142.002 74.8318
22613 2 0.978214 140.385 75.8785
22618 2 2.81605 140.359 73.4043
22938 2 0.0875067 141.973 73.394
16808 1 4.56997 140.387 74.8421
22615 2 3.70579 142 75.8681
22616 2 5.54375 141.973 73.394
16810 1 7.2975 142.002 74.8318
22367 2 9.16203 142 75.8681
22369 2 6.43445 140.385 75.8785
22384 2 8.27229 140.359 73.4043
16624 1 10.0262 140.387 74.8421
22223 2 11.8907 140.385 75.8785
22386 2 11 141.973 73.394
16538 1 15.4825 140.387 74.8421
16622 1 12.7537 142.002 74.8318
22225 2 14.6183 142 75.8681
22228 2 13.7285 140.359 73.4043
16540 1 18.21 142.002 74.8318
22159 2 17.3469 140.385 75.8785
22226 2 16.4562 141.973 73.394
16516 1 20.9387 140.387 74.8421
22157 2 20.0745 142 75.8681
22169 2 19.1848 140.359 73.4043
17071 1 1.83994 145.232 74.8079
22606 2 0.977081 143.616 75.8567
22617 2 2.81517 143.587 73.3827
22933 2 0.0865599 145.201 73.3702
16801 1 4.56874 143.617 74.8204
22604 2 3.70457 145.231 75.8442
22619 2 5.5428 145.201 73.3702
16799 1 7.29618 145.232 74.8079
22368 2 6.43332 143.616 75.8567
22370 2 9.1608 145.231 75.8442
22373 2 8.27141 143.587 73.3827
16623 1 10.025 143.617 74.8204
22216 2 11.8896 143.616 75.8567
22371 2 10.999 145.201 73.3702
16531 1 15.4812 143.617 74.8204
16625 1 12.7524 145.232 74.8079
22214 2 14.617 145.231 75.8442
22227 2 13.7276 143.587 73.3827
16529 1 18.2087 145.232 74.8079
22158 2 17.3458 143.616 75.8567
22229 2 16.4553 145.201 73.3702
16515 1 20.9375 143.617 74.8204
22160 2 20.0733 145.231 75.8442
22162 2 19.1839 143.587 73.3827
22605 2 0.975778 146.847 75.8306
22610 2 2.81417 146.815 73.3566
16800 1 4.56735 146.846 74.7944
22365 2 6.43202 146.847 75.8306
22372 2 8.2704 146.815 73.3566
16620 1 10.0236 146.846 74.7944
22215 2 11.8883 146.847 75.8306
16530 1 15.4798 146.846 74.7944
22220 2 13.7266 146.815 73.3566
22155 2 17.3445 146.847 75.8306
16514 1 20.9361 146.846 74.7944
22161 2 19.1829 146.815 73.3566
17068 1 1.8385 148.461 74.7796
22934 2 0.0855159 148.429 73.3419
22603 2 0.97437 150.078 75.8001
22609 2 2.81309 150.044 73.3261
22607 2 3.7032 148.462 75.8159
22608 2 5.54175 148.429 73.3419
16798 1 4.56589 150.075 74.7638
16802 1 7.29474 148.461 74.7796
22363 2 9.15944 148.462 75.8159
22366 2 8.26933 150.044 73.3261
22364 2 6.43061 150.078 75.8001
22374 2 10.998 148.429 73.3419
22213 2 11.8868 150.078 75.8001
16619 1 10.0221 150.075 74.7638
16618 1 12.751 148.461 74.7796
22217 2 14.6157 148.462 75.8159
22219 2 13.7256 150.044 73.3261
16528 1 15.4784 150.075 74.7638
16532 1 18.2072 148.461 74.7796
22218 2 16.4542 148.429 73.3419
22154 2 17.3431 150.078 75.8001
22153 2 20.0719 148.462 75.8159
22156 2 19.1818 150.044 73.3261
16513 1 20.9346 150.075 74.7638
