ITEM: TIMESTEP
3680
ITEM: NUMBER OF ATOMS
23952
ITEM: BOX BOUNDS pp pp ss
0.0000000000000000e+00 2.1824953608198122e+01
0.0000000000000000e+00 1.5120771408893131e+02
-4.0909317027830356e+00 7.5937726606026501e+01
ITEM: ATOMS id type x y z
8175 2 2.71792 1.09806 -3.52936
2048 1 1.79897 2.68143 -2.48518
2014 1 4.52509 1.11258 -2.46625
8176 2 5.44733 2.66596 -3.5481
8078 2 8.17415 1.09806 -3.52936
2012 1 7.2552 2.68143 -2.48518
1887 1 9.98132 1.11258 -2.46625
8076 2 10.9036 2.66596 -3.5481
1662 1 15.4376 1.11258 -2.46625
7887 2 13.6304 1.09806 -3.52936
1888 1 12.7114 2.68143 -2.48518
1660 1 18.1677 2.68143 -2.48518
7888 2 16.3598 2.66596 -3.5481
1344 1 20.8938 1.11258 -2.46625
7600 2 19.0866 1.09806 -3.52936
8190 2 21.816 2.66596 -3.5481
8171 2 2.72056 4.23431 -3.56772
2013 1 4.52923 4.25072 -2.50502
8169 2 5.45009 5.80316 -3.58818
8077 2 8.1768 4.23431 -3.56772
1883 1 9.98547 4.25072 -2.50502
8079 2 10.9063 5.80316 -3.58818
1661 1 15.4417 4.25072 -2.50502
7883 2 13.633 4.23431 -3.56772
7881 2 16.3626 5.80316 -3.58818
1343 1 20.8979 4.25072 -2.50502
7599 2 19.0893 4.23431 -3.56772
8191 2 21.8188 5.80316 -3.58818
8170 2 2.72342 7.37257 -3.60942
2044 1 1.8034 5.8205 -2.52574
2006 1 4.53396 7.39082 -2.54727
8070 2 8.17966 7.37257 -3.60942
2015 1 7.25964 5.8205 -2.52574
1882 1 9.9902 7.39082 -2.54727
1654 1 15.4464 7.39082 -2.54727
1881 1 12.7159 5.8205 -2.52574
7882 2 13.6359 7.37257 -3.60942
1663 1 18.1721 5.8205 -2.52574
1342 1 20.9027 7.39082 -2.54727
7594 2 19.0921 7.37257 -3.60942
8160 2 2.72646 10.5133 -3.65404
2045 1 1.80842 8.96173 -2.56957
8172 2 5.45304 8.9426 -3.6314
2005 1 4.53926 10.5333 -2.59256
8069 2 8.1827 10.5133 -3.65404
2004 1 7.26466 8.96173 -2.56957
8068 2 10.9093 8.9426 -3.6314
1871 1 9.9955 10.5333 -2.59256
1653 1 15.4517 10.5333 -2.59256
1884 1 12.7209 8.96173 -2.56957
7871 2 13.6389 10.5133 -3.65404
1652 1 18.1771 8.96173 -2.56957
7884 2 16.3655 8.9426 -3.6314
8188 2 21.8218 8.9426 -3.6314
1335 1 20.908 10.5333 -2.59256
7593 2 19.0952 10.5133 -3.65404
8159 2 2.72964 13.6571 -3.70098
2040 1 1.81399 12.1056 -2.61617
8158 2 5.45616 12.0848 -3.67726
1991 1 4.54508 13.6786 -2.6403
2007 1 7.27023 12.1056 -2.61617
8054 2 8.18587 13.6571 -3.70098
8071 2 10.9124 12.0848 -3.67726
1870 1 10.0013 13.6786 -2.6403
1638 1 15.4576 13.6786 -2.6403
1869 1 12.7265 12.1056 -2.61617
7870 2 13.6421 13.6571 -3.70098
1655 1 18.1827 12.1056 -2.61617
7869 2 16.3686 12.0848 -3.67726
8189 2 21.8249 12.0848 -3.67726
1334 1 20.9138 13.6786 -2.6403
7580 2 19.0984 13.6571 -3.70098
8148 2 2.73288 16.8045 -3.74948
2041 1 1.82003 15.2524 -2.66487
8161 2 5.45937 15.2303 -3.72509
1990 1 4.55132 16.8271 -2.68975
1989 1 7.27627 15.2524 -2.66487
8053 2 8.18912 16.8045 -3.74948
1851 1 10.0076 16.8271 -2.68975
8052 2 10.9156 15.2303 -3.72509
1637 1 15.4638 16.8271 -2.68975
1872 1 12.7325 15.2524 -2.66487
7851 2 13.6454 16.8045 -3.74948
1636 1 18.1887 15.2524 -2.66487
7872 2 16.3718 15.2303 -3.72509
8186 2 21.8281 15.2303 -3.72509
1319 1 20.92 16.8271 -2.68975
7579 2 19.1016 16.8045 -3.74948
8147 2 2.73615 19.9559 -3.79865
2036 1 1.82643 18.4027 -2.71483
8146 2 5.46264 18.3797 -3.77405
1975 1 4.55782 19.9793 -2.73997
1992 1 7.28266 18.4027 -2.71483
8031 2 8.19239 19.9559 -3.79865
1850 1 10.0141 19.9793 -2.73997
8055 2 10.9189 18.3797 -3.77405
1614 1 15.4703 19.9793 -2.73997
1849 1 12.7389 18.4027 -2.71483
7850 2 13.6486 19.9559 -3.79865
1639 1 18.1951 18.4027 -2.71483
7849 2 16.3751 18.3797 -3.77405
8187 2 21.8314 18.3797 -3.77405
1318 1 20.9265 19.9793 -2.73997
7558 2 19.1049 19.9559 -3.79865
8136 2 2.73938 23.1118 -3.84741
2037 1 1.833 21.5568 -2.76503
8149 2 5.46589 21.5333 -3.82315
1974 1 4.56441 23.1352 -2.78987
1973 1 7.28924 21.5568 -2.76503
8030 2 8.19562 23.1118 -3.84741
1824 1 10.0206 23.1352 -2.78987
8029 2 10.9221 21.5333 -3.82315
1613 1 15.4769 23.1352 -2.78987
1852 1 12.7455 21.5568 -2.76503
7823 2 13.6519 23.1118 -3.84741
1612 1 18.2017 21.5568 -2.76503
7852 2 16.3784 21.5333 -3.82315
8184 2 21.8346 21.5333 -3.82315
1295 1 20.9331 23.1352 -2.78987
7557 2 19.1081 23.1118 -3.84741
2032 1 1.83955 24.7147 -2.81432
8135 2 2.74251 26.2722 -3.8946
8120 2 0.919187 26.3021 -1.39598
8134 2 5.46908 24.6914 -3.87128
1959 1 4.57088 26.2952 -2.83822
8133 2 3.64664 24.7224 -1.37202
1976 1 7.29579 24.7147 -2.81432
8007 2 8.19875 26.2722 -3.8946
8001 2 9.10288 24.7224 -1.37202
8002 2 6.37543 26.3021 -1.39598
8032 2 10.9253 24.6914 -3.87128
1823 1 10.0271 26.2952 -2.83822
7784 2 11.8317 26.3021 -1.39598
1822 1 12.752 24.7147 -2.81432
1582 1 15.4834 26.2952 -2.83822
7822 2 13.655 26.2722 -3.8946
7820 2 14.5591 24.7224 -1.37202
1615 1 18.2083 24.7147 -2.81432
7821 2 16.3816 24.6914 -3.87128
7524 2 17.2879 26.3021 -1.39598
8185 2 21.8378 24.6914 -3.87128
1294 1 20.9396 26.2952 -2.83822
7528 2 19.1112 26.2722 -3.8946
7523 2 20.0154 24.7224 -1.37202
2033 1 1.84589 27.8766 -2.86141
8124 2 2.74548 29.4374 -3.93897
8119 2 0.920443 29.4644 -1.4416
8137 2 5.47214 27.8542 -3.91721
1958 1 4.57703 29.459 -2.88373
8118 2 3.64795 27.8827 -1.41923
1957 1 7.30213 27.8766 -2.86141
8006 2 8.20172 29.4374 -3.93897
8004 2 9.10419 27.8827 -1.41923
7979 2 6.37668 29.4644 -1.4416
8005 2 10.9284 27.8542 -3.91721
1796 1 10.0333 29.459 -2.88373
7783 2 11.8329 29.4644 -1.4416
1825 1 12.7584 27.8766 -2.86141
1581 1 15.4895 29.459 -2.88373
7788 2 13.658 29.4374 -3.93897
7782 2 14.5604 27.8827 -1.41923
1580 1 18.2146 27.8766 -2.86141
7824 2 16.3846 27.8542 -3.91721
7487 2 17.2892 29.4644 -1.4416
8182 2 21.8409 27.8542 -3.91721
1263 1 20.9457 29.459 -2.88373
7527 2 19.1142 29.4374 -3.93897
7526 2 20.0167 27.8827 -1.41923
2028 1 1.85181 31.0423 -2.905
8122 2 5.47501 31.0217 -3.9597
8121 2 3.64915 31.0471 -1.46293
1960 1 7.30805 31.0423 -2.905
7977 2 9.10539 31.0471 -1.46293
8008 2 10.9312 31.0217 -3.9597
1794 1 12.7643 31.0423 -2.905
7785 2 14.5616 31.0471 -1.46293
1583 1 18.2205 31.0423 -2.905
7786 2 16.3875 31.0217 -3.9597
8183 2 21.8437 31.0217 -3.9597
7485 2 20.0179 31.0471 -1.46293
8123 2 2.74823 32.6071 -3.97925
2029 1 1.85711 34.2115 -2.94376
8180 2 0.0213712 34.1935 -3.99747
8108 2 0.921597 32.6308 -1.48305
8125 2 5.47761 34.1935 -3.99747
1943 1 4.58267 32.6265 -2.92506
8106 2 3.65025 34.2154 -1.50181
1941 1 7.31335 34.2115 -2.94376
7983 2 8.20447 32.6071 -3.97925
7978 2 6.37784 32.6308 -1.48305
7980 2 9.10649 34.2154 -1.50181
1795 1 10.0389 32.6265 -2.92506
7981 2 10.9338 34.1935 -3.99747
7748 2 11.8341 32.6308 -1.48305
1543 1 15.4951 32.6265 -2.92506
1797 1 12.7696 34.2115 -2.94376
7787 2 13.6607 32.6071 -3.97925
7746 2 14.5627 34.2154 -1.50181
1541 1 18.2258 34.2115 -2.94376
7789 2 16.3901 34.1935 -3.99747
7486 2 17.2903 32.6308 -1.48305
1262 1 20.9514 32.6265 -2.92506
7490 2 19.1169 32.6071 -3.97925
7488 2 20.019 34.2154 -1.50181
8181 2 0.0236152 37.3692 -4.02937
8112 2 2.75066 35.7809 -4.01423
2024 1 1.86161 37.3836 -2.97649
8107 2 0.922628 35.801 -1.51906
8110 2 5.47985 37.3692 -4.02937
1942 1 4.58759 35.7972 -2.96095
8109 2 3.6512 37.3874 -1.53465
1944 1 7.31785 37.3836 -2.97649
7982 2 8.2069 35.7809 -4.01423
7953 2 9.10744 37.3874 -1.53465
7955 2 6.37887 35.801 -1.51906
1768 1 10.0438 35.7972 -2.96095
7984 2 10.9361 37.3692 -4.02937
7747 2 11.8351 35.801 -1.51906
1542 1 15.5001 35.7972 -2.96095
1766 1 12.7741 37.3836 -2.97649
7752 2 13.6631 35.7809 -4.01423
7749 2 14.5637 37.3874 -1.53465
1544 1 18.2303 37.3836 -2.97649
7750 2 16.3923 37.3692 -4.02937
7442 2 17.2913 35.801 -1.51906
1223 1 20.9563 35.7972 -2.96095
7489 2 19.1194 35.7809 -4.01423
7440 2 20.0199 37.3874 -1.53465
8178 2 0.025385 40.5481 -4.05435
8111 2 2.75269 38.9583 -4.04279
2025 1 1.86512 40.5582 -3.00213
8096 2 0.923488 38.9745 -1.54846
8113 2 5.48162 40.5481 -4.05435
1927 1 4.59162 38.9707 -2.99026
8094 2 3.65195 40.5624 -1.56037
1925 1 7.32136 40.5582 -3.00213
7959 2 8.20892 38.9583 -4.04279
7954 2 6.37973 38.9745 -1.54846
7956 2 9.10819 40.5624 -1.56037
1767 1 10.0479 38.9707 -2.99026
7957 2 10.9379 40.5481 -4.05435
7712 2 11.836 38.9745 -1.54846
1503 1 15.5041 38.9707 -2.99026
1769 1 12.7776 40.5582 -3.00213
7751 2 13.6652 38.9583 -4.04279
7710 2 14.5644 40.5624 -1.56037
1501 1 18.2338 40.5582 -3.00213
7753 2 16.3941 40.5481 -4.05435
7441 2 17.2922 38.9745 -1.54846
1222 1 20.9603 38.9707 -2.99026
7445 2 19.1214 38.9583 -4.04279
7443 2 20.0207 40.5624 -1.56037
8179 2 0.0265613 43.7295 -4.07158
8100 2 2.75417 42.1385 -4.06398
8095 2 0.924109 42.1508 -1.57028
2020 1 1.86749 43.7346 -3.01982
8098 2 5.4828 43.7295 -4.07158
8097 2 3.65242 43.7397 -1.57811
1926 1 4.59458 42.1463 -3.01201
1928 1 7.32373 43.7346 -3.01982
7930 2 9.10866 43.7397 -1.57811
7932 2 6.38035 42.1508 -1.57028
7958 2 8.21041 42.1385 -4.06398
1740 1 10.0508 42.1463 -3.01201
7711 2 11.8366 42.1508 -1.57028
7960 2 10.939 43.7295 -4.07158
1502 1 15.5071 42.1463 -3.01201
1738 1 12.78 43.7346 -3.01982
7713 2 14.5649 43.7397 -1.57811
7716 2 13.6667 42.1385 -4.06398
1504 1 18.2362 43.7346 -3.01982
7396 2 17.2928 42.1508 -1.57028
7714 2 16.3953 43.7295 -4.07158
1176 1 20.9633 42.1463 -3.01201
7394 2 20.0211 43.7397 -1.57811
7444 2 19.1229 42.1385 -4.06398
8177 2 0.0270455 46.9124 -4.08046
8099 2 2.75501 45.3208 -4.07709
8088 2 0.924416 45.329 -1.58379
2021 1 1.86858 46.9122 -3.02897
8101 2 5.48328 46.9124 -4.08046
8086 2 3.65255 46.9185 -1.58726
1912 1 4.59632 45.3233 -3.02549
1910 1 7.32482 46.9122 -3.02897
7931 2 6.38065 45.329 -1.58379
7933 2 9.10879 46.9185 -1.58726
7936 2 8.21125 45.3208 -4.07709
1739 1 10.0526 45.3233 -3.02549
7680 2 11.8369 45.329 -1.58379
7934 2 10.9395 46.9124 -4.08046
1464 1 15.5088 45.3233 -3.02549
1741 1 12.7811 46.9122 -3.02897
7678 2 14.565 46.9185 -1.58726
7715 2 13.6675 45.3208 -4.07709
1462 1 18.2373 46.9122 -3.02897
7395 2 17.2931 45.329 -1.58379
7717 2 16.3958 46.9124 -4.08046
1175 1 20.965 45.3233 -3.02549
7397 2 20.0213 46.9185 -1.58726
7399 2 19.1237 45.3208 -4.07709
8089 2 2.75513 48.5041 -4.08165
8087 2 0.924356 48.5082 -1.5885
10368 2 0.0267854 50.0958 -4.08067
4095 1 1.86834 50.0902 -3.02927
1911 1 4.59675 48.5012 -3.03024
10350 2 5.48302 50.0958 -4.08067
10349 2 3.6523 50.0979 -1.5875
7913 2 6.38059 48.5082 -1.5885
7935 2 8.21137 48.5041 -4.08165
10249 2 9.10854 50.0979 -1.5875
4064 1 7.32458 50.0902 -3.02927
1713 1 10.053 48.5012 -3.03024
7679 2 11.8368 48.5082 -1.5885
10256 2 10.9393 50.0958 -4.08067
1463 1 15.5092 48.5012 -3.03024
7681 2 13.6676 48.5041 -4.08165
3934 1 12.7808 50.0902 -3.02927
10061 2 14.5648 50.0979 -1.5875
7353 2 17.2931 48.5082 -1.5885
3712 1 18.2371 50.0902 -3.02927
10062 2 16.3955 50.0958 -4.08067
1128 1 20.9655 48.5012 -3.03024
7398 2 19.1238 48.5041 -4.08165
9772 2 20.021 50.0979 -1.5875
8167 2 0.905415 1.12685 -1.02307
2010 1 2.72123 1.14149 0.199596
8164 2 1.81435 2.72705 1.51213
8165 2 3.63448 2.69587 -1.04206
2011 1 5.45049 2.71128 0.18053
8062 2 4.5414 1.15682 1.53127
8074 2 6.36165 1.12685 -1.02307
1879 1 8.17747 1.14149 0.199596
8075 2 9.09072 2.69587 -1.04206
8060 2 7.27059 2.72705 1.51213
7879 2 11.8179 1.12685 -1.02307
1877 1 10.9067 2.71128 0.18053
7875 2 9.99764 1.15682 1.53127
1658 1 13.6337 1.14149 0.199596
7877 2 14.547 2.69587 -1.04206
7587 2 15.4539 1.15682 1.53127
7876 2 12.7268 2.72705 1.51213
7597 2 17.2741 1.12685 -1.02307
1659 1 16.363 2.71128 0.18053
7585 2 18.1831 2.72705 1.51213
1341 1 19.0899 1.14149 0.199596
7598 2 20.0032 2.69587 -1.04206
2042 1 21.8192 2.71128 0.18053
7232 2 20.9101 1.15682 1.53127
8166 2 0.907327 4.26525 -1.06196
2002 1 2.72355 4.28139 0.160539
8061 2 4.54357 4.29754 1.49207
8066 2 6.36357 4.26525 -1.06196
1878 1 8.17979 4.28139 0.160539
7878 2 11.8198 4.26525 -1.06196
7863 2 9.99981 4.29754 1.49207
1650 1 13.636 4.28139 0.160539
7586 2 15.456 4.29754 1.49207
7591 2 17.276 4.26525 -1.06196
1340 1 19.0923 4.28139 0.160539
7231 2 20.9123 4.29754 1.49207
8156 2 0.909263 7.40523 -1.10432
2001 1 2.72599 7.42276 0.117954
8152 2 1.81657 5.86834 1.47111
8168 2 3.63641 5.83502 -1.08273
2000 1 5.45288 5.85187 0.139664
8046 2 4.54583 7.43947 1.44931
8065 2 6.3655 7.40523 -1.10432
8064 2 9.09265 5.83502 -1.08273
1867 1 8.18223 7.42276 0.117954
8063 2 7.27281 5.86834 1.47111
7867 2 11.8217 7.40523 -1.10432
1880 1 10.9091 5.85187 0.139664
7862 2 10.0021 7.43947 1.44931
7880 2 14.5489 5.83502 -1.08273
1649 1 13.6385 7.42276 0.117954
7573 2 15.4583 7.43947 1.44931
7861 2 12.7291 5.86834 1.47111
7590 2 17.278 7.40523 -1.10432
1648 1 16.3654 5.85187 0.139664
7588 2 18.1853 5.86834 1.47111
7589 2 20.0051 5.83502 -1.08273
2043 1 21.8216 5.85187 0.139664
1333 1 19.0947 7.42276 0.117954
7230 2 20.9145 7.43947 1.44931
8155 2 0.911173 10.5472 -1.14973
1987 1 2.72849 10.5659 0.0722759
8153 2 1.81885 9.01098 1.42672
8154 2 3.63834 8.97595 -1.12668
2003 1 5.45536 8.9941 0.095469
8045 2 4.54811 10.5829 1.40341
8067 2 9.09458 8.97595 -1.12668
8050 2 6.36741 10.5472 -1.14973
1866 1 8.18473 10.5659 0.0722759
8044 2 7.27509 9.01098 1.42672
7866 2 11.8237 10.5472 -1.14973
1865 1 10.9116 8.9941 0.095469
7843 2 10.0043 10.5829 1.40341
7865 2 14.5508 8.97595 -1.12668
1634 1 13.641 10.5659 0.0722759
7572 2 15.4606 10.5829 1.40341
7864 2 12.7313 9.01098 1.42672
7577 2 17.2799 10.5472 -1.14973
1651 1 16.3678 8.9941 0.095469
7571 2 18.1876 9.01098 1.42672
7592 2 20.0071 8.97595 -1.12668
2038 1 21.8241 8.9941 0.095469
1332 1 19.0972 10.5659 0.0722759
7223 2 20.9168 10.5829 1.40341
8144 2 0.913011 13.6916 -1.1976
1986 1 2.73102 13.7113 0.0240936
8140 2 1.82112 12.1553 1.37947
8157 2 3.64022 12.1191 -1.1734
1985 1 5.45788 12.1383 0.0484542
8023 2 4.55035 13.7282 1.35497
8048 2 9.09646 12.1191 -1.1734
8049 2 6.36925 13.6916 -1.1976
1847 1 8.18725 13.7113 0.0240936
8047 2 7.27736 12.1553 1.37947
7847 2 11.8255 13.6916 -1.1976
1868 1 10.9141 12.1383 0.0484542
7842 2 10.0066 13.7282 1.35497
7868 2 14.5527 12.1191 -1.1734
1633 1 13.6435 13.7113 0.0240936
7551 2 15.4628 13.7282 1.35497
7841 2 12.7336 12.1553 1.37947
7576 2 17.2817 13.6916 -1.1976
1632 1 16.3704 12.1383 0.0484542
7574 2 18.1898 12.1553 1.37947
7575 2 20.0089 12.1191 -1.1734
2039 1 21.8266 12.1383 0.0484542
1317 1 19.0997 13.7113 0.0240936
7222 2 20.9191 13.7282 1.35497
8143 2 0.914743 16.8389 -1.24717
1971 1 2.7335 16.8592 -0.0258284
8141 2 1.82333 15.3017 1.33002
8142 2 3.64201 15.2649 -1.22223
1988 1 5.46038 15.2849 -0.00070478
8022 2 4.55252 16.8758 1.30473
8027 2 6.37098 16.8389 -1.24717
8051 2 9.09825 15.2649 -1.22223
1846 1 8.18974 16.8592 -0.0258284
8021 2 7.27957 15.3017 1.33002
7846 2 11.8272 16.8389 -1.24717
1845 1 10.9166 15.2849 -0.00070478
7815 2 10.0088 16.8758 1.30473
7845 2 14.5545 15.2649 -1.22223
1610 1 13.646 16.8592 -0.0258284
7550 2 15.465 16.8758 1.30473
7844 2 12.7358 15.3017 1.33002
7555 2 17.2835 16.8389 -1.24717
1635 1 16.3729 15.2849 -0.00070478
7549 2 18.192 15.3017 1.33002
7578 2 20.0107 15.2649 -1.22223
2034 1 21.8291 15.2849 -0.00070478
1316 1 19.1022 16.8592 -0.0258284
7207 2 20.9212 16.8758 1.30473
8132 2 0.916348 19.9895 -1.2975
8128 2 1.82544 18.4505 1.27922
1970 1 2.73589 20.0101 -0.0765467
8145 2 3.64368 18.4138 -1.2723
1969 1 5.46283 18.4343 -0.0511537
7999 2 4.55456 20.0259 1.25364
8025 2 9.09992 18.4138 -1.2723
8026 2 6.37259 19.9895 -1.2975
1820 1 8.19213 20.0101 -0.0765467
8024 2 7.28168 18.4505 1.27922
7819 2 11.8288 19.9895 -1.2975
1848 1 10.9191 18.4343 -0.0511537
7814 2 10.0108 20.0259 1.25364
7848 2 14.5562 18.4138 -1.2723
1609 1 13.6484 20.0101 -0.0765467
7521 2 15.467 20.0259 1.25364
7813 2 12.7379 18.4505 1.27922
7554 2 17.2851 19.9895 -1.2975
1608 1 16.3753 18.4343 -0.0511537
7552 2 18.1942 18.4505 1.27922
7553 2 20.0124 18.4138 -1.2723
2035 1 21.8315 18.4343 -0.0511537
1293 1 19.1046 20.0101 -0.0765467
7206 2 20.9233 20.0259 1.25364
8131 2 0.917826 23.1438 -1.34751
8129 2 1.8274 21.602 1.22811
1955 1 2.73817 23.1642 -0.126953
8130 2 3.64522 21.5662 -1.32262
1972 1 5.46517 21.5867 -0.101864
7998 2 4.55644 23.179 1.20279
8003 2 6.37406 23.1438 -1.34751
8028 2 9.10146 21.5662 -1.32262
1819 1 8.1944 23.1642 -0.126953
7997 2 7.28364 21.602 1.22811
7818 2 11.8303 23.1438 -1.34751
1818 1 10.9214 21.5867 -0.101864
7780 2 10.0127 23.179 1.20279
7817 2 14.5577 21.5662 -1.32262
1578 1 13.6506 23.1642 -0.126953
7520 2 15.4689 23.179 1.20279
7816 2 12.7399 21.602 1.22811
7525 2 17.2865 23.1438 -1.34751
1611 1 16.3776 21.5867 -0.101864
7519 2 18.1961 21.602 1.22811
7556 2 20.0139 21.5662 -1.32262
2030 1 21.8339 21.5867 -0.101864
1292 1 19.1069 23.1642 -0.126953
7183 2 20.9252 23.179 1.20279
8116 2 1.8292 24.7567 1.17785
1954 1 2.74029 26.3217 -0.175804
1953 1 5.46737 24.7425 -0.151654
7975 2 4.55815 26.3352 1.15345
8000 2 7.28544 24.7567 1.17785
1792 1 8.19653 26.3217 -0.175804
1821 1 10.9236 24.7425 -0.151654
7779 2 10.0144 26.3352 1.15345
7778 2 12.7417 24.7567 1.17785
1577 1 13.6528 26.3217 -0.175804
7483 2 15.4706 26.3352 1.15345
1576 1 16.3798 24.7425 -0.151654
7522 2 18.1979 24.7567 1.17785
2031 1 21.8361 24.7425 -0.151654
1261 1 19.109 26.3217 -0.175804
7182 2 20.9269 26.3352 1.15345
8117 2 1.83083 27.9146 1.12976
1939 1 2.74224 29.4827 -0.221779
1956 1 5.46941 27.9017 -0.199236
7974 2 4.55969 29.4948 1.10696
7973 2 7.28706 27.9146 1.12976
1791 1 8.19848 29.4827 -0.221779
1790 1 10.9256 27.9017 -0.199236
7744 2 10.0159 29.4948 1.10696
7781 2 12.7433 27.9146 1.12976
1539 1 13.6547 29.4827 -0.221779
7482 2 15.4722 29.4948 1.10696
1579 1 16.3819 27.9017 -0.199236
7481 2 18.1995 27.9146 1.12976
2026 1 21.8381 27.9017 -0.199236
1260 1 19.111 29.4827 -0.221779
7151 2 20.9284 29.4948 1.10696
8104 2 1.83228 31.0759 1.0852
1937 1 5.47127 31.0645 -0.243268
7976 2 7.28852 31.0759 1.0852
1793 1 10.9275 31.0645 -0.243268
7742 2 12.7448 31.0759 1.0852
1537 1 16.3837 31.0645 -0.243268
7484 2 18.201 31.0759 1.0852
2027 1 21.84 31.0645 -0.243268
8105 2 1.83356 34.2404 1.04551
1938 1 2.744 32.6471 -0.263537
1940 1 5.47292 34.2306 -0.282429
7951 2 4.56106 32.6578 1.06466
1764 1 8.20024 32.6471 -0.263537
7949 2 7.2898 34.2404 1.04551
1762 1 10.9292 34.2306 -0.282429
7743 2 10.0173 32.6578 1.06466
1538 1 13.6565 32.6471 -0.263537
7438 2 15.4735 32.6578 1.06466
7745 2 12.746 34.2404 1.04551
1540 1 16.3854 34.2306 -0.282429
7436 2 18.2023 34.2404 1.04551
2022 1 21.8416 34.2306 -0.282429
1221 1 19.1127 32.6471 -0.263537
7150 2 20.9298 32.6578 1.06466
8092 2 1.83463 37.408 1.01197
1923 1 2.74553 35.8148 -0.299793
2023 1 0.0180736 37.3997 -0.315488
1921 1 5.47431 37.3997 -0.315488
7950 2 4.56224 35.8239 1.0279
1763 1 8.20177 35.8148 -0.299793
7952 2 7.29087 37.408 1.01197
1765 1 10.9306 37.3997 -0.315488
7708 2 10.0185 35.8239 1.0279
1499 1 13.658 35.8148 -0.299793
7437 2 15.4747 35.8239 1.0279
7706 2 12.7471 37.408 1.01197
1497 1 16.3868 37.3997 -0.315488
7439 2 18.2033 37.408 1.01197
1220 1 19.1142 35.8148 -0.299793
7111 2 20.931 35.8239 1.0279
8093 2 1.83546 40.5781 0.98569
1922 1 2.74678 38.9852 -0.329386
2018 1 0.0191563 40.5713 -0.341371
1924 1 5.47539 40.5713 -0.341371
7928 2 4.5632 38.9928 0.997861
1736 1 8.20302 38.9852 -0.329386
7926 2 7.2917 40.5781 0.98569
1734 1 10.9316 40.5713 -0.341371
7707 2 10.0194 38.9928 0.997861
1498 1 13.6593 38.9852 -0.329386
7392 2 15.4757 38.9928 0.997861
7709 2 12.7479 40.5781 0.98569
1500 1 16.3879 40.5713 -0.341371
7390 2 18.2042 40.5781 0.98569
1174 1 19.1155 38.9852 -0.329386
7110 2 20.9319 38.9928 0.997861
8084 2 1.83599 43.7502 0.967568
1908 1 2.74768 42.1579 -0.351345
2019 1 0.0198545 43.7449 -0.359223
1906 1 5.47609 43.7449 -0.359223
7927 2 4.56388 42.164 0.975564
1735 1 8.20392 42.1579 -0.351345
7929 2 7.29222 43.7502 0.967568
1737 1 10.9323 43.7449 -0.359223
7676 2 10.0201 42.164 0.975564
1460 1 13.6602 42.1579 -0.351345
7391 2 15.4764 42.164 0.975564
7674 2 12.7485 43.7502 0.967568
1458 1 16.3886 43.7449 -0.359223
7393 2 18.2047 43.7502 0.967568
1173 1 19.1164 42.1579 -0.351345
7064 2 20.9326 42.164 0.975564
8085 2 1.83615 46.9236 0.958227
1907 1 2.74816 45.3322 -0.36494
2017 1 0.0201063 46.9197 -0.368447
1909 1 5.47634 46.9197 -0.368447
7912 2 4.56423 45.3368 0.961772
1712 1 8.2044 45.3322 -0.36494
7910 2 7.29239 46.9236 0.958227
1710 1 10.9326 46.9197 -0.368447
7675 2 10.0205 45.3368 0.961772
1459 1 13.6606 45.3322 -0.36494
7352 2 15.4767 45.3368 0.961772
7677 2 12.7486 46.9236 0.958227
1461 1 16.3888 46.9197 -0.368447
7350 2 18.2049 46.9236 0.958227
1127 1 19.1169 45.3322 -0.36494
7063 2 20.9329 45.3368 0.961772
1897 1 2.74817 48.5073 -0.369714
10339 2 1.83592 50.0973 0.957992
4094 1 0.0198758 50.0949 -0.36873
7911 2 4.56421 48.5105 0.956963
4057 1 5.47611 50.0949 -0.36873
1711 1 8.20441 48.5073 -0.369714
10248 2 7.29216 50.0973 0.957992
7649 2 10.0204 48.5105 0.956963
3933 1 10.9324 50.0949 -0.36873
1425 1 13.6606 48.5073 -0.369714
7351 2 15.4767 48.5105 0.956963
10050 2 12.7484 50.0973 0.957992
3705 1 16.3886 50.0949 -0.36873
9771 2 18.2046 50.0973 0.957992
1126 1 19.1169 48.5073 -0.369714
7016 2 20.9329 48.5105 0.956963
1998 1 0.90269 1.17156 2.79758
8058 2 2.72114 1.18682 4.09864
1996 1 3.63197 2.74243 2.77836
8059 2 5.45043 2.75815 4.07942
1875 1 6.35893 1.17156 2.79758
7859 2 8.17737 1.18682 4.09864
1876 1 9.08821 2.74243 2.77836
1646 1 11.8152 1.17156 2.79758
7857 2 10.9067 2.75815 4.07942
7583 2 13.6336 1.18682 4.09864
1644 1 14.5444 2.74243 2.77836
1338 1 17.2714 1.17156 2.79758
7584 2 16.3629 2.75815 4.07942
7229 2 19.0899 1.18682 4.09864
8150 2 21.8191 2.75815 4.07942
1339 1 20.0007 2.74243 2.77836
1997 1 0.905052 4.31353 2.75819
8042 2 2.72354 4.32965 4.05926
1863 1 6.36129 4.31353 2.75819
7858 2 8.17977 4.32965 4.05926
1645 1 11.8175 4.31353 2.75819
7569 2 13.636 4.32965 4.05926
1330 1 17.2738 4.31353 2.75819
7228 2 19.0923 4.32965 4.05926
1983 1 0.907537 7.45652 2.71518
8041 2 2.72607 7.47325 4.01625
1999 1 3.6344 5.88488 2.73711
8040 2 5.45291 5.90134 4.03818
1861 1 9.09064 5.88488 2.73711
1862 1 6.36378 7.45652 2.71518
7839 2 8.18231 7.47325 4.01625
1630 1 11.82 7.45652 2.71518
7860 2 10.9091 5.90134 4.03818
1647 1 14.5469 5.88488 2.73711
7568 2 13.6386 7.47325 4.01625
1329 1 17.2763 7.45652 2.71518
7567 2 16.3654 5.90134 4.03818
8151 2 21.8216 5.90134 4.03818
1328 1 20.0031 5.88488 2.73711
7221 2 19.0948 7.47325 4.01625
1982 1 0.91009 10.6008 2.66896
8019 2 2.72869 10.6179 3.97001
1981 1 3.63693 9.02848 2.69244
8043 2 5.4555 9.04542 3.9935
1843 1 6.36633 10.6008 2.66896
1864 1 9.09317 9.02848 2.69244
7838 2 8.18493 10.6179 3.97001
1629 1 11.8226 10.6008 2.66896
7837 2 10.9117 9.04542 3.9935
1628 1 14.5494 9.02848 2.69244
7547 2 13.6412 10.6179 3.97001
1314 1 17.2788 10.6008 2.66896
7570 2 16.368 9.04542 3.9935
8138 2 21.8242 9.04542 3.9935
1331 1 20.0056 9.02848 2.69244
7220 2 19.0974 10.6179 3.97001
1967 1 0.912651 13.7467 2.62012
8018 2 2.73133 13.7638 3.92112
1984 1 3.63949 12.1735 2.64483
8017 2 5.45813 12.1907 3.94586
1841 1 9.09573 12.1735 2.64483
1842 1 6.36889 13.7467 2.62012
7811 2 8.18757 13.7638 3.92112
1606 1 11.8251 13.7467 2.62012
7840 2 10.9144 12.1907 3.94586
1631 1 14.552 12.1735 2.64483
7546 2 13.6438 13.7638 3.92112
1313 1 17.2814 13.7467 2.62012
7545 2 16.3706 12.1907 3.94586
8139 2 21.8268 12.1907 3.94586
1312 1 20.0082 12.1735 2.64483
7205 2 19.1 13.7638 3.92112
1966 1 0.915155 16.8945 2.56942
7995 2 2.73391 16.9113 3.87032
1965 1 3.64203 15.3203 2.59495
8020 2 5.46075 15.3373 3.8959
1816 1 6.37139 16.8945 2.56942
1844 1 9.09827 15.3203 2.59495
7810 2 8.19015 16.9113 3.87032
1605 1 11.8276 16.8945 2.56942
7809 2 10.917 15.3373 3.8959
1604 1 14.5545 15.3203 2.59495
7517 2 13.6464 16.9113 3.87032
1290 1 17.2839 16.8945 2.56942
7548 2 16.3732 15.3373 3.8959
8126 2 21.8295 15.3373 3.8959
1315 1 20.0107 15.3203 2.59495
7204 2 19.1026 16.9113 3.87032
1951 1 0.917545 20.0445 2.51779
7994 2 2.73638 20.0607 3.81853
1968 1 3.64449 18.4692 2.54365
7993 2 5.46329 18.4858 3.84448
1814 1 9.10073 18.4692 2.54365
1815 1 6.37378 20.0445 2.51779
7776 2 8.19262 20.0607 3.81853
1574 1 11.83 20.0445 2.51779
7812 2 10.9195 18.4858 3.84448
1607 1 14.557 18.4692 2.54365
7516 2 13.6489 20.0607 3.81853
1289 1 17.2863 20.0445 2.51779
7515 2 16.3758 18.4858 3.84448
8127 2 21.832 18.4858 3.84448
1288 1 20.0132 18.4692 2.54365
7181 2 19.1051 20.0607 3.81853
1950 1 0.919775 23.1971 2.46638
7971 2 2.73868 23.2124 3.76688
1949 1 3.6468 21.6205 2.49198
7996 2 5.46568 21.6363 3.79261
1788 1 6.37601 23.1971 2.46638
1817 1 9.10304 21.6205 2.49198
7775 2 8.19492 23.2124 3.76688
1573 1 11.8323 23.1971 2.46638
7774 2 10.9219 21.6363 3.79261
1572 1 14.5593 21.6205 2.49198
7479 2 13.6512 23.2124 3.76688
1258 1 17.2885 23.1971 2.46638
7518 2 16.3782 21.6363 3.79261
8114 2 21.8344 21.6363 3.79261
1291 1 20.0155 21.6205 2.49198
7180 2 19.1074 23.2124 3.76688
1935 1 0.921815 26.3525 2.41645
7970 2 2.74078 26.3666 3.71665
1952 1 3.64894 24.7744 2.44115
7969 2 5.46788 24.7892 3.7415
1786 1 9.10518 24.7744 2.44115
1787 1 6.37805 26.3525 2.41645
7740 2 8.19702 26.3666 3.71665
7777 2 10.9241 24.7892 3.7415
1535 1 11.8343 26.3525 2.41645
1575 1 14.5614 24.7744 2.44115
7478 2 13.6533 26.3666 3.71665
7477 2 16.3804 24.7892 3.7415
1257 1 17.2905 26.3525 2.41645
8115 2 21.8366 24.7892 3.7415
1256 1 20.0177 24.7744 2.44115
7149 2 19.1095 26.3666 3.71665
1934 1 0.923649 29.5107 2.36938
7947 2 2.74266 29.5235 3.66921
1933 1 3.65088 27.9312 2.39247
7972 2 5.46987 27.9447 3.69249
1789 1 9.10712 27.9312 2.39247
1760 1 6.37989 29.5107 2.36938
7739 2 8.1989 29.5235 3.66921
7738 2 10.9261 27.9447 3.69249
1534 1 11.8361 29.5107 2.36938
1533 1 14.5634 27.9312 2.39247
7434 2 13.6551 29.5235 3.66921
7480 2 16.3823 27.9447 3.69249
1218 1 17.2924 29.5107 2.36938
8102 2 21.8386 27.9447 3.69249
1259 1 20.0196 27.9312 2.39247
7148 2 19.1114 29.5235 3.66921
8103 2 0.0153944 31.103 3.64698
1936 1 3.6526 31.091 2.34735
7945 2 5.47163 31.103 3.64698
1758 1 9.10884 31.091 2.34735
7741 2 10.9279 31.103 3.64698
1536 1 14.5651 31.091 2.34735
7432 2 16.3841 31.103 3.64698
1216 1 20.0213 31.091 2.34735
1919 1 0.925267 32.6719 2.32655
7946 2 2.74431 32.6832 3.62599
8090 2 0.0169279 34.264 3.6064
1917 1 3.65411 34.2536 2.30716
7948 2 5.47317 34.264 3.6064
1759 1 6.38151 32.6719 2.32655
1761 1 9.11035 34.2536 2.30716
7704 2 8.20055 32.6832 3.62599
1495 1 11.8377 32.6719 2.32655
7702 2 10.9294 34.264 3.6064
1493 1 14.5666 34.2536 2.30716
7433 2 13.6568 32.6832 3.62599
1217 1 17.294 32.6719 2.32655
7435 2 16.3856 34.264 3.6064
1219 1 20.0228 34.2536 2.30716
7109 2 19.113 32.6832 3.62599
8091 2 0.0182107 37.4276 3.57206
1918 1 0.926651 35.8358 2.28933
7924 2 2.74572 35.8455 3.58837
1920 1 3.65537 37.4188 2.2732
7922 2 5.47445 37.4276 3.57206
1730 1 9.1116 37.4188 2.2732
1732 1 6.38289 35.8358 2.28933
7703 2 8.20196 35.8455 3.58837
1494 1 11.8391 35.8358 2.28933
7705 2 10.9307 37.4276 3.57206
1496 1 14.5678 37.4188 2.2732
7388 2 13.6582 35.8455 3.58837
1171 1 17.2954 35.8358 2.28933
7386 2 16.3869 37.4276 3.57206
1169 1 20.0241 37.4188 2.2732
7108 2 19.1144 35.8455 3.58837
8082 2 0.019202 40.5933 3.54514
1904 1 0.927769 39.0022 2.25892
7923 2 2.74687 39.0102 3.5576
1902 1 3.65633 40.5862 2.2466
7925 2 5.47544 40.5933 3.54514
1731 1 6.38401 39.0022 2.25892
1733 1 9.11257 40.5862 2.2466
7672 2 8.2031 39.0102 3.5576
1456 1 11.8402 39.0022 2.25892
7670 2 10.9317 40.5933 3.54514
1454 1 14.5688 40.5862 2.2466
7387 2 13.6593 39.0102 3.5576
1170 1 17.2965 39.0022 2.25892
7389 2 16.3879 40.5933 3.54514
1172 1 20.025 40.5862 2.2466
7062 2 19.1156 39.0102 3.5576
8083 2 0.0198434 43.7607 3.52657
1903 1 0.928571 42.1706 2.23635
7908 2 2.74769 42.1768 3.53476
1905 1 3.65696 43.7553 2.22825
7906 2 5.47608 43.7607 3.52657
1706 1 9.11319 43.7553 2.22825
1708 1 6.38481 42.1706 2.23635
7671 2 8.20393 42.1768 3.53476
1455 1 11.841 42.1706 2.23635
7673 2 10.9323 43.7607 3.52657
1457 1 14.5694 43.7553 2.22825
7348 2 13.6602 42.1768 3.53476
1124 1 17.2973 42.1706 2.23635
7346 2 16.3886 43.7607 3.52657
1122 1 20.0257 43.7553 2.22825
7061 2 19.1164 42.1768 3.53476
8081 2 0.0200779 46.9292 3.51702
1896 1 0.929 45.3403 2.22238
7907 2 2.74813 45.3448 3.52064
1894 1 3.65718 46.9255 2.21879
7909 2 5.47632 46.9292 3.51702
1707 1 6.38524 45.3403 2.22238
1709 1 9.11342 46.9255 2.21879
7648 2 8.20437 45.3448 3.52064
1424 1 11.8415 45.3403 2.22238
7646 2 10.9326 46.9292 3.51702
1422 1 14.5697 46.9255 2.21879
7347 2 13.6606 45.3448 3.52064
1123 1 17.2977 45.3403 2.22238
7349 2 16.3888 46.9292 3.51702
1125 1 20.0259 46.9255 2.21879
7015 2 19.1168 45.3448 3.52064
1895 1 0.929013 48.5107 2.2175
7897 2 2.74815 48.5136 3.51574
10338 2 0.0198755 50.098 3.51681
4056 1 3.65698 50.096 2.21852
10233 2 5.47611 50.098 3.51681
1689 1 6.38525 48.5107 2.2175
7647 2 8.20439 48.5136 3.51574
3922 1 9.11322 50.096 2.21852
1423 1 11.8415 48.5107 2.2175
10049 2 10.9324 50.098 3.51681
7313 2 13.6606 48.5136 3.51574
3704 1 14.5695 50.096 2.21852
1081 1 17.2977 48.5107 2.2175
9758 2 16.3886 50.098 3.51681
7014 2 19.1169 48.5136 3.51574
3385 1 20.0257 50.096 2.21852
8038 2 0.900933 1.21682 6.67064
1995 1 1.81215 2.77395 5.36043
1859 1 4.53903 1.20207 5.37972
8036 2 3.63031 2.78915 6.65142
7855 2 6.35717 1.21682 6.67064
1857 1 7.26839 2.77395 5.36043
7856 2 9.08654 2.78915 6.65142
1642 1 9.99527 1.20207 5.37972
7565 2 11.8134 1.21682 6.67064
1326 1 15.4515 1.20207 5.37972
1643 1 12.7246 2.77395 5.36043
7563 2 14.5428 2.78915 6.65142
7226 2 17.2696 1.21682 6.67064
1324 1 18.1809 2.77395 5.36043
960 1 20.9077 1.20207 5.37972
7227 2 19.999 2.78915 6.65142
8037 2 0.903494 4.36156 6.63123
1858 1 4.54156 4.34594 5.34017
7835 2 6.35973 4.36156 6.63123
1626 1 9.9978 4.34594 5.34017
7564 2 11.816 4.36156 6.63123
1325 1 15.454 4.34594 5.34017
7218 2 17.2722 4.36156 6.63123
959 1 20.9103 4.34594 5.34017
1979 1 1.81477 5.91808 5.31898
8015 2 0.906249 7.50665 6.58812
1839 1 4.54426 7.49039 5.29691
8039 2 3.63297 5.93405 6.61012
1860 1 7.27101 5.91808 5.31898
7833 2 9.08921 5.93405 6.61012
7834 2 6.36249 7.50665 6.58812
1625 1 10.0005 7.49039 5.29691
7543 2 11.8187 7.50665 6.58812
1310 1 15.4567 7.49039 5.29691
1624 1 12.7272 5.91808 5.31898
7566 2 14.5454 5.93405 6.61012
1327 1 18.1835 5.91808 5.31898
7217 2 17.275 7.50665 6.58812
958 1 20.913 7.49039 5.29691
7216 2 20.0017 5.93405 6.61012
1980 1 1.81754 9.06288 5.27401
8014 2 0.909145 10.6522 6.5417
1838 1 4.54708 10.6356 5.25034
8013 2 3.6358 9.07936 6.5653
1837 1 7.27378 9.06288 5.27401
7807 2 6.36538 10.6522 6.5417
7836 2 9.09204 9.07936 6.5653
1602 1 10.0033 10.6356 5.25034
7542 2 11.8216 10.6522 6.5417
1309 1 15.4596 10.6356 5.25034
1627 1 12.73 9.06288 5.27401
7541 2 14.5483 9.07936 6.5653
1308 1 18.1863 9.06288 5.27401
7202 2 17.2779 10.6522 6.5417
951 1 20.9158 10.6356 5.25034
7219 2 20.0045 9.07936 6.5653
1963 1 1.82039 12.2086 5.22598
7991 2 0.912115 13.7985 6.49248
1812 1 4.54995 13.7818 5.20101
8016 2 3.63874 12.2253 6.5174
1840 1 7.27663 12.2086 5.22598
7805 2 9.09498 12.2253 6.5174
7806 2 6.36835 13.7985 6.49248
1601 1 10.0062 13.7818 5.20101
7513 2 11.8246 13.7985 6.49248
1286 1 15.4624 13.7818 5.20101
1600 1 12.7329 12.2086 5.22598
7544 2 14.5512 12.2253 6.5174
1311 1 18.1891 12.2086 5.22598
7201 2 17.2808 13.7985 6.49248
950 1 20.9187 13.7818 5.20101
7200 2 20.0075 12.2253 6.5174
1964 1 1.82325 15.3554 5.17553
7990 2 0.91508 16.9458 6.44119
1811 1 4.55278 16.9293 5.14966
7989 2 3.64172 15.372 6.46704
1810 1 7.27949 15.3554 5.17553
7772 2 6.37132 16.9458 6.44119
7808 2 9.09796 15.372 6.46704
1570 1 10.009 16.9293 5.14966
7512 2 11.8276 16.9458 6.44119
1285 1 15.4653 16.9293 5.14966
1603 1 12.7357 15.3554 5.17553
7511 2 14.5542 15.372 6.46704
1284 1 18.192 15.3554 5.17553
7178 2 17.2838 16.9458 6.44119
935 1 20.9215 16.9293 5.14966
7203 2 20.0104 15.372 6.46704
1947 1 1.82604 18.5036 5.12351
7967 2 0.917956 20.0943 6.38874
1784 1 4.55551 20.0784 5.09722
7992 2 3.64465 18.5199 6.41505
1813 1 7.28228 18.5036 5.12351
7770 2 9.10089 18.5199 6.41505
7771 2 6.37419 20.0943 6.38874
1569 1 10.0117 20.0784 5.09722
7475 2 11.8304 20.0943 6.38874
1254 1 15.468 20.0784 5.09722
1568 1 12.7385 18.5036 5.12351
7514 2 14.5571 18.5199 6.41505
1287 1 18.1948 18.5036 5.12351
7177 2 17.2867 20.0943 6.38874
934 1 20.9242 20.0784 5.09722
7176 2 20.0134 18.5199 6.41505
1948 1 1.82869 21.6537 5.07094
7966 2 0.920666 23.2445 6.33625
1783 1 4.55806 23.2294 5.04483
7965 2 3.64746 21.6692 6.36242
1782 1 7.28493 21.6537 5.07094
7736 2 6.3769 23.2445 6.33625
7773 2 9.10369 21.6692 6.36242
1531 1 10.0143 23.2294 5.04483
7474 2 11.8331 23.2445 6.33625
1253 1 15.4705 23.2294 5.04483
1571 1 12.7412 21.6537 5.07094
7473 2 14.5599 21.6692 6.36242
1252 1 18.1974 21.6537 5.07094
7146 2 17.2894 23.2445 6.33625
911 1 20.9268 23.2294 5.04483
7179 2 20.0162 21.6692 6.36242
1931 1 1.83113 24.8057 5.01906
7943 2 0.923154 26.3965 6.28502
7968 2 3.65006 24.8202 6.31039
1756 1 4.56038 26.3826 4.99381
1785 1 7.28737 24.8057 5.01906
7734 2 9.1063 24.8202 6.31039
7735 2 6.37939 26.3965 6.28502
1530 1 10.0166 26.3826 4.99381
7430 2 11.8356 26.3965 6.28502
1529 1 12.7436 24.8057 5.01906
7476 2 14.5625 24.8202 6.31039
1214 1 15.4729 26.3826 4.99381
1255 1 18.1998 24.8057 5.01906
7145 2 17.2919 26.3965 6.28502
7144 2 20.0188 24.8202 6.31039
910 1 20.9291 26.3826 4.99381
1932 1 1.83333 27.9601 4.96925
7942 2 0.925391 29.5507 6.23649
7941 2 3.65242 27.9733 6.26032
1755 1 4.56246 29.5382 4.94556
1754 1 7.28957 27.9601 4.96925
7737 2 9.10866 27.9733 6.26032
7700 2 6.38163 29.5507 6.23649
1491 1 10.0187 29.5382 4.94556
7429 2 11.8379 29.5507 6.23649
1532 1 12.7458 27.9601 4.96925
7428 2 14.5649 27.9733 6.26032
1213 1 15.4749 29.5382 4.94556
1212 1 18.202 27.9601 4.96925
7106 2 17.2941 29.5507 6.23649
7147 2 20.0211 27.9733 6.26032
879 1 20.9312 29.5382 4.94556
1915 1 1.83528 31.1169 4.92295
7944 2 3.65453 31.1287 6.21371
1757 1 7.29152 31.1169 4.92295
7698 2 9.11077 31.1287 6.21371
1489 1 12.7478 31.1169 4.92295
7431 2 14.567 31.1287 6.21371
1215 1 18.204 31.1169 4.92295
7104 2 20.0232 31.1287 6.21371
1916 1 1.83697 34.2762 4.88163
7920 2 0.927364 32.7072 6.19216
1728 1 4.56428 32.6963 4.90157
7918 2 3.65637 34.2863 6.17203
1726 1 7.2932 34.2762 4.88163
7699 2 6.3836 32.7072 6.19216
7701 2 9.11261 34.2863 6.17203
1490 1 10.0205 32.6963 4.90157
7384 2 11.8398 32.7072 6.19216
1167 1 15.4768 32.6963 4.90157
1492 1 12.7494 34.2762 4.88163
7382 2 14.5688 34.2863 6.17203
1165 1 18.2057 34.2762 4.88163
7105 2 17.2961 32.7072 6.19216
878 1 20.933 32.6963 4.90157
7107 2 20.0251 34.2863 6.17203
1900 1 1.83837 37.4377 4.84666
7919 2 0.929065 35.866 6.15349
1727 1 4.56582 35.8567 4.86327
7921 2 3.65792 37.4461 6.1367
1729 1 7.29461 37.4377 4.84666
7666 2 9.11416 37.4461 6.1367
7668 2 6.3853 35.866 6.15349
1452 1 10.0221 35.8567 4.86327
7383 2 11.8415 35.866 6.15349
1166 1 15.4783 35.8567 4.86327
1450 1 12.7508 37.4377 4.84666
7385 2 14.5704 37.4461 6.1367
1168 1 18.2071 37.4377 4.84666
7059 2 17.2978 35.866 6.15349
839 1 20.9345 35.8567 4.86327
7057 2 20.0266 37.4461 6.1367
1901 1 1.83946 40.6012 4.81924
7904 2 0.930463 39.0268 6.12182
1704 1 4.56708 39.0192 4.83194
7902 2 3.65915 40.6079 6.10898
1702 1 7.2957 40.6012 4.81924
7667 2 6.3867 39.0268 6.12182
7669 2 9.11539 40.6079 6.10898
1451 1 10.0233 39.0192 4.83194
7344 2 11.8429 39.0268 6.12182
1120 1 15.4796 39.0192 4.83194
1453 1 12.7519 40.6012 4.81924
7342 2 14.5716 40.6079 6.10898
1118 1 18.2082 40.6012 4.81924
7058 2 17.2992 39.0268 6.12182
838 1 20.9358 39.0192 4.83194
7060 2 20.0279 40.6079 6.10898
1892 1 1.84018 43.7662 4.80034
7903 2 0.931494 42.1893 6.09829
1703 1 4.56799 42.1835 4.80867
7905 2 3.65997 43.7711 6.08986
1705 1 7.29642 43.7662 4.80034
7642 2 9.1162 43.7711 6.08986
7644 2 6.38773 42.1893 6.09829
1420 1 10.0242 42.1835 4.80867
7343 2 11.844 42.1893 6.09829
1119 1 15.4805 42.1835 4.80867
1418 1 12.7527 43.7662 4.80034
7345 2 14.5724 43.7711 6.08986
1121 1 18.2089 43.7662 4.80034
7012 2 17.3002 42.1893 6.09829
793 1 20.9367 42.1835 4.80867
7010 2 20.0287 43.7711 6.08986
1893 1 1.84046 46.9321 4.79062
7896 2 0.932077 45.3531 6.08377
1688 1 4.5685 45.349 4.7943
7894 2 3.6603 46.9352 6.08006
1686 1 7.2967 46.9321 4.79062
7643 2 6.38832 45.3531 6.08377
7645 2 9.11654 46.9352 6.08006
1419 1 10.0247 45.349 4.7943
7312 2 11.8446 45.3531 6.08377
1080 1 15.481 45.349 4.7943
1421 1 12.7529 46.9321 4.79062
7310 2 14.5728 46.9352 6.08006
1078 1 18.2092 46.9321 4.79062
7011 2 17.3008 45.3531 6.08377
792 1 20.9372 45.349 4.7943
7013 2 20.029 46.9352 6.08006
7895 2 0.932141 48.5175 6.07877
4042 1 1.84026 50.0982 4.79042
1687 1 4.56854 48.5152 4.78932
10232 2 3.66009 50.0997 6.07991
7625 2 6.38838 48.5175 6.07877
3921 1 7.2965 50.0982 4.79042
10030 2 9.11633 50.0997 6.07991
1393 1 10.0248 48.5152 4.78932
7311 2 11.8446 48.5175 6.07877
1079 1 15.481 48.5152 4.78932
3689 1 12.7527 50.0982 4.79042
9757 2 14.5726 50.0997 6.07991
6969 2 17.3009 48.5175 6.07877
3384 1 18.209 50.0982 4.79042
747 1 20.9373 48.5152 4.78932
9401 2 20.0288 50.0997 6.07991
1855 1 2.71888 1.23178 7.95673
8035 2 1.81012 2.81959 9.22508
7831 2 4.53696 1.24629 9.24422
1856 1 5.4483 2.8046 7.93746
1622 1 8.17512 1.23178 7.95673
7829 2 7.26636 2.81959 9.22508
7561 2 9.99319 1.24629 9.24422
1620 1 10.9045 2.8046 7.93746
1322 1 13.6314 1.23178 7.95673
7214 2 15.4494 1.24629 9.24422
7562 2 12.7226 2.81959 9.22508
1323 1 16.3608 2.8046 7.93746
7212 2 18.1788 2.81959 9.22508
957 1 19.0876 1.23178 7.95673
6848 2 20.9057 1.24629 9.24422
1977 1 21.817 2.8046 7.93746
1835 1 2.72154 4.37744 7.91721
7830 2 4.5396 4.39286 9.20496
1621 1 8.17778 4.37744 7.91721
7539 2 9.99584 4.39286 9.20496
1306 1 13.634 4.37744 7.91721
7213 2 15.4521 4.39286 9.20496
956 1 19.0903 4.37744 7.91721
6847 2 20.9083 4.39286 9.20496
1834 1 2.72442 7.52323 7.87392
8011 2 1.8129 5.9661 9.1839
1833 1 5.45107 5.95032 7.89602
7803 2 4.54249 7.53932 9.16194
1598 1 8.18066 7.52323 7.87392
7832 2 7.26914 5.9661 9.1839
1623 1 10.9073 5.95032 7.89602
7538 2 9.99873 7.53932 9.16194
1305 1 13.6369 7.52323 7.87392
7198 2 15.455 7.53932 9.16194
7537 2 12.7254 5.9661 9.1839
1304 1 16.3635 5.95032 7.89602
7215 2 18.1816 5.9661 9.1839
1978 1 21.8198 5.95032 7.89602
949 1 19.0931 7.52323 7.87392
6846 2 20.9112 7.53932 9.16194
1808 1 2.72747 10.6692 7.82721
8012 2 1.8159 9.11254 9.13912
1836 1 5.45405 9.0962 7.85097
7802 2 4.54559 10.6858 9.1155
1597 1 8.18371 10.6692 7.82721
7801 2 7.27214 9.11254 9.13912
1596 1 10.9103 9.0962 7.85097
7509 2 10.0018 10.6858 9.1155
1282 1 13.64 10.6692 7.82721
7197 2 15.4581 10.6858 9.1155
7540 2 12.7284 9.11254 9.13912
1307 1 16.3665 9.0962 7.85097
7196 2 18.1846 9.11254 9.13912
1961 1 21.8228 9.0962 7.85097
948 1 19.0962 10.6692 7.82721
6839 2 20.9143 10.6858 9.1155
1807 1 2.73064 13.8157 7.7776
7987 2 1.81908 12.259 9.09114
1806 1 5.45717 12.2424 7.80273
7768 2 4.54884 13.8323 9.06612
1566 1 8.18688 13.8157 7.7776
7804 2 7.27532 12.259 9.09114
1599 1 10.9134 12.2424 7.80273
7508 2 10.0051 13.8323 9.06612
1281 1 13.6431 13.8157 7.7776
7174 2 15.4613 13.8323 9.06612
7507 2 12.7316 12.259 9.09114
1280 1 16.3696 12.2424 7.80273
7199 2 18.1878 12.259 9.09114
1962 1 21.8259 12.2424 7.80273
933 1 19.0994 13.8157 7.7776
6838 2 20.9176 13.8323 9.06612
1780 1 2.73382 16.9627 7.72576
7988 2 1.82237 15.4057 9.04052
1809 1 5.46035 15.3891 7.75191
7767 2 4.55215 16.9792 9.01446
1565 1 8.19006 16.9627 7.72576
7766 2 7.27861 15.4057 9.04052
1564 1 10.9166 15.3891 7.75191
7471 2 10.0084 16.9792 9.01446
1250 1 13.6463 16.9627 7.72576
7173 2 15.4646 16.9792 9.01446
7510 2 12.7348 15.4057 9.04052
1283 1 16.3728 15.3891 7.75191
7172 2 18.1911 15.4057 9.04052
1945 1 21.8291 15.3891 7.75191
932 1 19.1025 16.9627 7.72576
6823 2 20.9209 16.9792 9.01446
1779 1 2.73693 20.1108 7.67262
7963 2 1.82568 18.5528 8.98803
1778 1 5.46351 18.5366 7.69929
7732 2 4.55542 20.1267 8.96138
1527 1 8.19317 20.1108 7.67262
7769 2 7.28191 18.5528 8.98803
1567 1 10.9198 18.5366 7.69929
7470 2 10.0117 20.1267 8.96138
1249 1 13.6494 20.1108 7.67262
7142 2 15.4679 20.1267 8.96138
7469 2 12.7382 18.5528 8.98803
1248 1 16.376 18.5366 7.69929
7175 2 18.1944 18.5528 8.98803
1946 1 21.8322 18.5366 7.69929
909 1 19.1056 20.1108 7.67262
6822 2 20.9241 20.1267 8.96138
1752 1 2.73988 23.2601 7.6193
7964 2 1.82889 21.7008 8.93466
1781 1 5.46655 21.6853 7.6459
7731 2 4.55855 23.2752 8.90801
1526 1 8.19611 23.2601 7.6193
7730 2 7.28513 21.7008 8.93466
1525 1 10.9228 21.6853 7.6459
7426 2 10.0148 23.2752 8.90801
1210 1 13.6524 23.2601 7.6193
7141 2 15.471 23.2752 8.90801
7472 2 12.7414 21.7008 8.93466
1251 1 16.379 21.6853 7.6459
7140 2 18.1976 21.7008 8.93466
1929 1 21.8353 21.6853 7.6459
908 1 19.1086 23.2601 7.6193
6799 2 20.9273 23.2752 8.90801
7939 2 1.83192 24.8499 8.88162
1751 1 2.74258 26.4111 7.56713
1750 1 5.46938 24.8354 7.59298
7696 2 4.56147 26.425 8.85566
7733 2 7.28816 24.8499 8.88162
1487 1 8.19882 26.4111 7.56713
1528 1 10.9256 24.8354 7.59298
7425 2 10.0177 26.425 8.85566
7424 2 12.7444 24.8499 8.88162
1209 1 13.6551 26.4111 7.56713
7102 2 15.4739 26.425 8.85566
1208 1 16.3819 24.8354 7.59298
7143 2 18.2006 24.8499 8.88162
1930 1 21.8381 24.8354 7.59298
877 1 19.1113 26.4111 7.56713
6798 2 20.9302 26.425 8.85566
7940 2 1.83471 28.0005 8.83033
1724 1 2.745 29.564 7.51761
1753 1 5.47195 27.9873 7.54195
7694 2 7.29095 28.0005 8.83033
1486 1 8.20124 29.564 7.51761
1485 1 10.9282 27.9873 7.54195
7427 2 12.7472 28.0005 8.83033
1163 1 13.6575 29.564 7.51761
1211 1 16.3844 27.9873 7.54195
7100 2 18.2034 28.0005 8.83033
1913 1 21.8407 27.9873 7.54195
876 1 19.1137 29.564 7.51761
7916 2 1.83722 31.1529 8.78238
1914 1 0.0179896 31.1412 7.49434
1722 1 5.47423 31.1412 7.49434
7695 2 4.56412 29.5764 8.80584
7697 2 7.29346 31.1529 8.78238
1488 1 10.9305 31.1412 7.49434
7380 2 10.0204 29.5764 8.80584
7101 2 15.4766 29.5764 8.80584
7378 2 12.7497 31.1529 8.78238
1161 1 16.3867 31.1412 7.49434
7103 2 18.2059 31.1529 8.78238
6767 2 20.9328 29.5764 8.80584
1723 1 2.74714 32.7189 7.47231
7917 2 1.83945 34.3072 8.73935
1898 1 0.0199825 34.2972 7.45172
1696 1 0.929912 32.7407 10.0419
1725 1 5.47622 34.2972 7.45172
7664 2 4.56649 32.7298 8.76015
1694 1 3.65921 34.3173 10.0205
1448 1 8.20338 32.7189 7.47231
7662 2 7.29569 34.3072 8.73935
1443 1 6.38615 32.7407 10.0419
1445 1 9.11544 34.3173 10.0205
1446 1 10.9325 34.2972 7.45172
7379 2 10.0227 32.7298 8.76015
1112 1 11.8424 32.7407 10.0419
1162 1 13.6596 32.7189 7.47231
7055 2 15.479 32.7298 8.76015
7381 2 12.7519 34.3072 8.73935
1110 1 14.5717 34.3173 10.0205
1164 1 16.3887 34.2972 7.45172
7053 2 18.2082 34.3072 8.73935
833 1 17.2986 32.7407 10.0419
837 1 19.1159 32.7189 7.47231
6766 2 20.9352 32.7298 8.76015
835 1 20.0279 34.3173 10.0205
1700 1 2.74899 35.876 7.43275
1899 1 0.0216751 37.4552 7.41557
7900 2 1.84138 37.4635 8.70279
1695 1 0.932186 35.8944 10.0008
1698 1 5.47791 37.4552 7.41557
7663 2 4.56858 35.8852 8.72017
1697 1 3.66132 37.4719 9.98294
1447 1 8.20523 35.876 7.43275
7665 2 7.29762 37.4635 8.70279
1410 1 9.11756 37.4719 9.98294
1412 1 6.38842 35.8944 10.0008
1449 1 10.9342 37.4552 7.41557
7340 2 10.0248 35.8852 8.72017
1111 1 11.8447 35.8944 10.0008
1116 1 13.6615 35.876 7.43275
7054 2 15.4811 35.8852 8.72017
7338 2 12.7539 37.4635 8.70279
1113 1 14.5738 37.4719 9.98294
1114 1 16.3904 37.4552 7.41557
7056 2 18.2101 37.4635 8.70279
788 1 17.3009 35.8944 10.0008
836 1 19.1177 35.876 7.43275
6728 2 20.9373 35.8852 8.72017
786 1 20.03 37.4719 9.98294
1699 1 2.75052 39.0349 7.40034
1890 1 0.0230213 40.615 7.38719
7901 2 1.84295 40.6216 8.67405
1680 1 0.934132 39.0498 9.96707
1701 1 5.47926 40.615 7.38719
7640 2 4.57034 39.0424 8.68737
1678 1 3.66307 40.6281 9.95338
1416 1 8.20675 39.0349 7.40034
7638 2 7.29919 40.6216 8.67405
1411 1 6.39037 39.0498 9.96707
1413 1 9.11931 40.6281 9.95338
1414 1 10.9355 40.615 7.38719
7339 2 10.0266 39.0424 8.68737
1072 1 11.8466 39.0498 9.96707
1115 1 13.663 39.0349 7.40034
7008 2 15.4828 39.0424 8.68737
7341 2 12.7554 40.6216 8.67405
1070 1 14.5755 40.6281 9.95338
1117 1 16.3917 40.615 7.38719
7006 2 18.2117 40.6216 8.67405
787 1 17.3028 39.0498 9.96707
791 1 19.1192 39.0349 7.40034
6727 2 20.9391 39.0424 8.68737
789 1 20.0318 40.6281 9.95338
1684 1 2.75166 42.1954 7.37626
1891 1 0.0239368 43.7761 7.36763
7892 2 1.84404 43.7809 8.65423
1679 1 0.93565 42.2068 9.94198
1682 1 5.48018 43.7761 7.36763
7639 2 4.57168 42.2011 8.66297
1681 1 3.66432 43.7856 9.93299
1415 1 8.2079 42.1954 7.37626
7641 2 7.30028 43.7809 8.65423
1386 1 9.12056 43.7856 9.93299
1388 1 6.39189 42.2068 9.94198
1417 1 10.9364 43.7761 7.36763
7308 2 10.0279 42.2011 8.66297
1071 1 11.8481 42.2068 9.94198
1076 1 13.6641 42.1954 7.37626
7007 2 15.4842 42.2011 8.66297
7306 2 12.7565 43.7809 8.65423
1073 1 14.5768 43.7856 9.93299
1074 1 16.3927 43.7761 7.36763
7009 2 18.2128 43.7809 8.65423
743 1 17.3044 42.2068 9.94198
790 1 19.1204 42.1954 7.37626
6688 2 20.9404 42.2011 8.66297
741 1 20.033 43.7856 9.93299
1683 1 2.75232 45.3571 7.3614
1889 1 0.0243265 46.9381 7.35761
7893 2 1.84453 46.9411 8.64409
1672 1 0.936581 45.3647 9.9265
1685 1 5.48056 46.9381 7.35761
7624 2 4.57248 45.361 8.64792
1670 1 3.6649 46.944 9.92257
1392 1 8.20856 45.3571 7.3614
7622 2 7.30076 46.9411 8.64409
1387 1 6.39282 45.3647 9.9265
1389 1 9.12114 46.944 9.92257
1390 1 10.9368 46.9381 7.35761
7307 2 10.0287 45.361 8.64792
1040 1 11.8491 45.3647 9.9265
1075 1 13.6648 45.3571 7.3614
6968 2 15.485 45.361 8.64792
7309 2 12.757 46.9411 8.64409
1038 1 14.5774 46.944 9.92257
1077 1 16.393 46.9381 7.35761
6966 2 18.2132 46.9411 8.64409
742 1 17.3053 45.3647 9.9265
746 1 19.121 45.3571 7.3614
6687 2 20.9412 45.361 8.64792
744 1 20.0336 46.944 9.92257
1673 1 2.75242 48.5193 7.3563
4041 1 0.0241299 50.1004 7.35749
10210 2 1.84433 50.1016 8.644
1671 1 0.936784 48.5233 9.92124
7623 2 4.57263 48.5214 8.64278
3902 1 5.48037 50.1004 7.35749
3901 1 3.66471 50.1025 9.92251
1391 1 8.20866 48.5193 7.3563
3665 1 9.12095 50.1025 9.92251
10029 2 7.30057 50.1016 8.644
1369 1 6.39302 48.5233 9.92124
7281 2 10.0289 48.5214 8.64278
3688 1 10.9366 50.1004 7.35749
1039 1 11.8493 48.5233 9.92124
1041 1 13.6649 48.5193 7.3563
6967 2 15.4851 48.5214 8.64278
3368 1 14.5772 50.1025 9.92251
9736 2 12.7568 50.1016 8.644
3369 1 16.3928 50.1004 7.35749
9400 2 18.213 50.1016 8.644
702 1 17.3055 48.5233 9.92124
745 1 19.1211 48.5193 7.3563
6648 2 20.9413 48.5214 8.64278
3001 1 20.0334 50.1025 9.92251
1831 1 0.898643 1.26107 10.532
7827 2 2.71669 1.27552 11.8183
1829 1 3.62807 2.83483 10.5128
7828 2 5.44608 2.84978 11.7993
1618 1 6.35488 1.26107 10.532
7535 2 8.17292 1.27552 11.8183
1619 1 9.08431 2.83483 10.5128
1302 1 11.8111 1.26107 10.532
7533 2 10.9023 2.84978 11.7993
7210 2 13.6292 1.27552 11.8183
1300 1 14.5405 2.83483 10.5128
954 1 17.2674 1.26107 10.532
7211 2 16.3586 2.84978 11.7993
6845 2 19.0854 1.27552 11.8183
955 1 19.9968 2.83483 10.5128
8009 2 21.8148 2.84978 11.7993
1830 1 0.901335 4.40851 10.4927
7799 2 2.71932 4.42391 11.7794
1594 1 6.35757 4.40851 10.4927
7534 2 8.17556 4.42391 11.7794
1301 1 11.8138 4.40851 10.4927
7194 2 13.6318 4.42391 11.7794
946 1 17.2701 4.40851 10.4927
6844 2 19.088 4.42391 11.7794
1804 1 0.90431 7.55562 10.4496
7798 2 2.72226 7.57176 11.7366
1832 1 3.63091 5.98211 10.4716
7797 2 5.44887 5.9979 11.7585
1592 1 9.08715 5.98211 10.4716
1593 1 6.36055 7.55562 10.4496
7505 2 8.1785 7.57176 11.7366
1278 1 11.8168 7.55562 10.4496
7536 2 10.9051 5.9979 11.7585
1303 1 14.5434 5.98211 10.4716
7193 2 13.6347 7.57176 11.7366
945 1 17.273 7.55562 10.4496
7192 2 16.3613 5.9979 11.7585
944 1 19.9996 5.98211 10.4716
8010 2 21.8176 5.9979 11.7585
6837 2 19.091 7.57176 11.7366
1803 1 0.907533 10.7024 10.403
7764 2 2.72548 10.7191 11.6904
1802 1 3.63401 9.12906 10.4267
7800 2 5.45196 9.14548 11.7139
1562 1 6.36377 10.7024 10.403
1595 1 9.09025 9.12906 10.4267
7504 2 8.18172 10.7191 11.6904
1277 1 11.82 10.7024 10.403
7503 2 10.9082 9.14548 11.7139
1276 1 14.5465 9.12906 10.4267
7170 2 13.638 10.7191 11.6904
930 1 17.2762 10.7024 10.403
7195 2 16.3644 9.14548 11.7139
947 1 20.0027 9.12906 10.4267
7985 2 21.8207 9.14548 11.7139
6836 2 19.0942 10.7191 11.6904
1776 1 0.910943 13.849 10.3533
7763 2 2.72893 13.8659 11.641
1805 1 3.63734 12.2757 10.3785
7762 2 5.4553 12.2925 11.6661
1519 1 4.54704 13.8826 12.9293
1560 1 9.09358 12.2757 10.3785
1561 1 6.36718 13.849 10.3533
7467 2 8.18517 13.8659 11.641
1246 1 11.8234 13.849 10.3533
7506 2 10.9115 12.2925 11.6661
1241 1 10.0033 13.8826 12.9293
1279 1 14.5498 12.2757 10.3785
7169 2 13.6414 13.8659 11.641
902 1 15.4595 13.8826 12.9293
929 1 17.2797 13.849 10.3533
7168 2 16.3678 12.2925 11.6661
928 1 20.0061 12.2757 10.3785
7986 2 21.824 12.2925 11.6661
6821 2 19.0976 13.8659 11.641
582 1 20.9158 13.8826 12.9293
1775 1 0.914454 16.9956 10.3012
7728 2 2.73254 17.0124 11.5892
1773 1 1.82079 15.4558 12.9035
1774 1 3.64081 15.4223 10.3275
7765 2 5.45884 15.4392 11.6154
1518 1 4.55083 17.0288 12.877
1523 1 6.37069 16.9956 10.3012
1563 1 9.09705 15.4223 10.3275
7466 2 8.18878 17.0124 11.5892
1517 1 7.27703 15.4558 12.9035
1245 1 11.8269 16.9956 10.3012
7465 2 10.9151 15.4392 11.6154
1202 1 10.0071 17.0288 12.877
1244 1 14.5533 15.4223 10.3275
7138 2 13.645 17.0124 11.5892
901 1 15.4633 17.0288 12.877
1243 1 12.7333 15.4558 12.9035
906 1 17.2832 16.9956 10.3012
7171 2 16.3713 15.4392 11.6154
900 1 18.1895 15.4558 12.9035
931 1 20.0095 15.4223 10.3275
7961 2 21.8276 15.4392 11.6154
6820 2 19.1013 17.0124 11.5892
567 1 20.9195 17.0288 12.877
1748 1 0.917955 20.1425 10.2474
7727 2 2.7362 20.1588 11.5355
1744 1 1.82465 18.6017 12.8501
1777 1 3.64433 18.569 10.2744
7726 2 5.46249 18.5856 11.5625
1479 1 4.55471 20.1745 12.8228
1521 1 9.10057 18.569 10.2744
1522 1 6.37419 20.1425 10.2474
7422 2 8.19244 20.1588 11.5355
1520 1 7.28088 18.6017 12.8501
1206 1 11.8304 20.1425 10.2474
7468 2 10.9187 18.5856 11.5625
1201 1 10.011 20.1745 12.8228
1247 1 14.5568 18.569 10.2744
7137 2 13.6487 20.1588 11.5355
870 1 15.4672 20.1745 12.8228
1200 1 12.7371 18.6017 12.8501
905 1 17.2867 20.1425 10.2474
7136 2 16.375 18.5856 11.5625
903 1 18.1934 18.6017 12.8501
904 1 20.013 18.569 10.2744
7962 2 21.8312 18.5856 11.5625
6797 2 19.1049 20.1588 11.5355
566 1 20.9234 20.1745 12.8228
1747 1 0.921329 23.2901 10.1932
7692 2 2.73979 23.3055 11.4813
1745 1 1.82853 21.7474 12.7952
1746 1 3.64778 21.7162 10.2203
7729 2 5.46613 21.7321 11.5084
1478 1 4.55856 23.3203 12.7676
1483 1 6.37757 23.2901 10.1932
1524 1 9.10402 21.7162 10.2203
7421 2 8.19603 23.3055 11.4813
1477 1 7.28477 21.7474 12.7952
1205 1 11.8338 23.2901 10.1932
7420 2 10.9224 21.7321 11.5084
1155 1 10.0148 23.3203 12.7676
1204 1 14.5603 21.7162 10.2203
7098 2 13.6523 23.3055 11.4813
869 1 15.471 23.3203 12.7676
1203 1 12.741 21.7474 12.7952
874 1 17.29 23.2901 10.1932
7139 2 16.3786 21.7321 11.5084
868 1 18.1972 21.7474 12.7952
907 1 20.0165 21.7162 10.2203
7937 2 21.8348 21.7321 11.5084
6796 2 19.1085 23.3055 11.4813
543 1 20.9273 23.3203 12.7676
1720 1 0.924478 26.4387 10.1397
7691 2 2.7432 26.453 11.4277
1716 1 1.83231 24.8933 12.74
1749 1 3.65106 24.8642 10.1662
7690 2 5.46964 24.8791 11.4543
1440 1 4.56223 26.4665 12.7128
1481 1 9.10729 24.8642 10.1662
1482 1 6.38072 26.4387 10.1397
7376 2 8.19943 26.453 11.4277
1480 1 7.28854 24.8933 12.74
7423 2 10.9259 24.8791 11.4543
1159 1 11.837 26.4387 10.1397
1154 1 10.0185 26.4665 12.7128
1207 1 14.5635 24.8642 10.1662
7097 2 13.6557 26.453 11.4277
1153 1 12.7448 24.8933 12.74
830 1 15.4747 26.4665 12.7128
7096 2 16.3821 24.8791 11.4543
873 1 17.2932 26.4387 10.1397
871 1 18.201 24.8933 12.74
872 1 20.0198 24.8642 10.1662
7938 2 21.8384 24.8791 11.4543
6765 2 19.1119 26.453 11.4277
542 1 20.9309 26.4665 12.7128
1717 1 1.83586 28.0399 12.6861
1718 1 3.65407 28.0136 10.1138
7693 2 5.47293 28.0271 11.4016
1484 1 9.11031 28.0136 10.1138
1438 1 7.2921 28.0399 12.6861
7374 2 10.9292 28.0271 11.4016
1157 1 14.5665 28.0136 10.1138
1156 1 12.7483 28.0399 12.6861
7099 2 16.3854 28.0271 11.4016
828 1 18.2046 28.0399 12.6861
875 1 20.0228 28.0136 10.1138
7914 2 21.8416 28.0271 11.4016
1719 1 0.927344 29.5888 10.0888
1692 1 1.83913 31.1878 12.6351
7660 2 2.74635 29.6017 11.3763
7915 2 0.0197061 31.1766 11.352
1721 1 3.65678 31.1645 10.0647
7658 2 5.47594 31.1766 11.352
1439 1 4.56565 29.6137 12.6601
1442 1 9.11302 31.1645 10.0647
1444 1 6.38358 29.5888 10.0888
1441 1 7.29537 31.1878 12.6351
7375 2 8.20259 29.6017 11.3763
1158 1 11.8398 29.5888 10.0888
7377 2 10.9322 31.1766 11.352
1108 1 10.0219 29.6137 12.6601
1160 1 14.5693 31.1645 10.0647
1106 1 12.7516 31.1878 12.6351
7051 2 13.6588 29.6017 11.3763
829 1 15.4781 29.6137 12.6601
834 1 17.2961 29.5888 10.0888
831 1 18.2078 31.1878 12.6351
7049 2 16.3884 31.1766 11.352
832 1 20.0255 31.1645 10.0647
6764 2 19.1151 29.6017 11.3763
511 1 20.9344 29.6137 12.6601
1693 1 1.84213 34.3373 12.589
7659 2 2.74923 32.7519 11.3289
7898 2 0.0224511 34.3276 11.3073
1408 1 4.56878 32.7624 12.6113
7661 2 5.47869 34.3276 11.3073
1406 1 7.29837 34.3373 12.589
7336 2 8.20547 32.7519 11.3289
1107 1 10.025 32.7624 12.6113
7334 2 10.9349 34.3276 11.3073
784 1 15.4813 32.7624 12.6113
1109 1 12.7546 34.3373 12.589
7050 2 13.6617 32.7519 11.3289
782 1 18.2108 34.3373 12.589
7052 2 16.3912 34.3276 11.3073
510 1 20.9375 32.7624 12.6113
6726 2 19.1179 32.7519 11.3289
1676 1 1.84485 37.4885 12.5496
7636 2 2.75184 35.9038 11.2873
7899 2 0.0249033 37.4805 11.2692
1407 1 4.57164 35.9127 12.5684
7634 2 5.48114 37.4805 11.2692
1409 1 7.30109 37.4885 12.5496
7335 2 8.20807 35.9038 11.2873
1068 1 10.0279 35.9127 12.5684
7337 2 10.9374 37.4805 11.2692
783 1 15.4841 35.9127 12.5684
1066 1 12.7573 37.4885 12.5496
7004 2 13.6643 35.9038 11.2873
785 1 18.2136 37.4885 12.5496
7002 2 16.3936 37.4805 11.2692
475 1 20.9404 35.9127 12.5684
6725 2 19.1206 35.9038 11.2873
1677 1 1.8472 40.6412 12.5186
7635 2 2.75411 39.0575 11.2531
7890 2 0.0269724 40.6348 11.2392
1384 1 4.5742 39.0646 12.533
7637 2 5.48321 40.6348 11.2392
1382 1 7.30344 40.6412 12.5186
7304 2 8.21035 39.0575 11.2531
1067 1 10.0304 39.0646 12.533
7302 2 10.9394 40.6348 11.2392
739 1 15.4867 39.0646 12.533
1069 1 12.7597 40.6412 12.5186
7003 2 13.6666 39.0575 11.2531
737 1 18.2159 40.6412 12.5186
7005 2 16.3957 40.6348 11.2392
474 1 20.9429 39.0646 12.533
6686 2 19.1228 39.0575 11.2531
1668 1 1.84896 43.795 12.4972
7620 2 2.75593 42.2125 11.2276
7891 2 0.0284784 43.7905 11.2185
1383 1 4.57629 42.218 12.5066
7618 2 5.48472 43.7905 11.2185
1385 1 7.30519 43.795 12.4972
7303 2 8.21217 42.2125 11.2276
1036 1 10.0325 42.218 12.5066
7305 2 10.941 43.7905 11.2185
738 1 15.4888 42.218 12.5066
1034 1 12.7614 43.795 12.4972
6964 2 13.6684 42.2125 11.2276
740 1 18.2177 43.795 12.4972
6962 2 16.3972 43.7905 11.2185
439 1 20.945 42.218 12.5066
6685 2 19.1246 42.2125 11.2276
1669 1 1.84984 46.9497 12.4863
7619 2 2.75707 45.3686 11.2119
7889 2 0.029208 46.9469 11.2079
1368 1 4.57764 45.3723 12.4904
7621 2 5.48545 46.9469 11.2079
1366 1 7.30608 46.9497 12.4863
7280 2 8.21331 45.3686 11.2119
1035 1 10.0339 45.3723 12.4904
7278 2 10.9417 46.9469 11.2079
701 1 15.4901 45.3723 12.4904
1037 1 12.7623 46.9497 12.4863
6963 2 13.6695 45.3686 11.2119
699 1 18.2186 46.9497 12.4863
6965 2 16.3979 46.9469 11.2079
438 1 20.9464 45.3723 12.4904
6647 2 19.1258 45.3686 11.2119
7609 2 2.75735 48.5253 11.2066
3875 1 1.84965 50.1046 12.4863
10209 2 0.029019 50.1036 11.2079
1367 1 4.578 48.5271 12.4849
10002 2 5.48526 50.1036 11.2079
7279 2 8.21359 48.5253 11.2066
3664 1 7.30589 50.1046 12.4863
1009 1 10.0342 48.5271 12.4849
9735 2 10.9415 50.1036 11.2079
700 1 15.4905 48.5271 12.4849
6929 2 13.6698 48.5253 11.2066
3345 1 12.7621 50.1046 12.4863
3000 1 18.2184 50.1046 12.4863
9385 2 16.3977 50.1036 11.2079
403 1 20.9467 48.5271 12.4849
6646 2 19.1261 48.5253 11.2066
7795 2 0.896356 1.30475 14.3925
1586 1 2.71418 1.31956 15.6809
1828 1 1.80772 2.86498 13.0877
1590 1 4.53456 1.29024 13.1066
7793 2 3.62569 2.88001 14.3738
7531 2 6.35259 1.30475 14.3925
1270 1 8.17042 1.31956 15.6809
1588 1 7.26396 2.86498 13.0877
7532 2 9.08193 2.88001 14.3738
1298 1 9.9908 1.29024 13.1066
7190 2 11.8088 1.30475 14.3925
942 1 15.447 1.29024 13.1066
938 1 13.6267 1.31956 15.6809
1299 1 12.7202 2.86498 13.0877
7188 2 14.5382 2.88001 14.3738
6842 2 17.2651 1.30475 14.3925
940 1 18.1764 2.86498 13.0877
592 1 20.9033 1.29024 13.1066
589 1 19.0829 1.31956 15.6809
6843 2 19.9944 2.88001 14.3738
7794 2 0.898881 4.45506 14.3541
1554 1 2.71665 4.47083 15.6427
1589 1 4.53719 4.43953 13.0678
1587 1 5.44349 2.89533 15.6623
7501 2 6.35512 4.45506 14.3541
1269 1 8.17289 4.47083 15.6427
1274 1 9.99343 4.43953 13.0678
7189 2 11.8114 4.45506 14.3541
1268 1 10.8997 2.89533 15.6623
941 1 15.4497 4.43953 13.0678
922 1 13.6291 4.47083 15.6427
6834 2 17.2676 4.45506 14.3541
939 1 16.356 2.89533 15.6623
591 1 20.9059 4.43953 13.0678
1798 1 21.8122 2.89533 15.6623
588 1 19.0854 4.47083 15.6427
1800 1 1.81052 6.01389 13.0469
7760 2 0.901759 7.60442 14.3119
1553 1 2.7195 7.62093 15.6007
1558 1 4.54016 7.58805 13.0251
7796 2 3.62839 6.02986 14.3334
1552 1 5.44614 6.04604 15.6222
1591 1 7.26676 6.01389 13.0469
7499 2 9.08463 6.02986 14.3334
7500 2 6.358 7.60442 14.3119
1238 1 8.17573 7.62093 15.6007
1273 1 9.9964 7.58805 13.0251
7166 2 11.8142 7.60442 14.3119
1271 1 10.9024 6.04604 15.6222
926 1 15.4526 7.58805 13.0251
1272 1 12.723 6.01389 13.0469
7191 2 14.5409 6.02986 14.3334
921 1 13.632 7.62093 15.6007
943 1 18.1792 6.01389 13.0469
6833 2 17.2705 7.60442 14.3119
920 1 16.3586 6.04604 15.6222
590 1 20.9089 7.58805 13.0251
6832 2 19.9971 6.02986 14.3334
1799 1 21.8149 6.04604 15.6222
581 1 19.0882 7.62093 15.6007
1801 1 1.81365 9.16199 13.0024
7759 2 0.904995 10.7527 14.266
1515 1 2.72274 10.7697 15.555
1557 1 4.54346 10.7357 12.9788
7758 2 3.63145 9.17871 14.2894
1555 1 5.44919 9.1955 15.5783
1556 1 7.26989 9.16199 13.0024
7463 2 6.36123 10.7527 14.266
7502 2 9.08769 9.17871 14.2894
1237 1 8.17898 10.7697 15.555
1242 1 9.9997 10.7357 12.9788
7165 2 11.8175 10.7527 14.266
1236 1 10.9054 9.1955 15.5783
925 1 15.4559 10.7357 12.9788
1275 1 12.7261 9.16199 13.0024
7164 2 14.5439 9.17871 14.2894
898 1 13.6352 10.7697 15.555
924 1 18.1824 9.16199 13.0024
6818 2 17.2737 10.7527 14.266
923 1 16.3617 9.1955 15.5783
583 1 20.9122 10.7357 12.9788
6835 2 20.0002 9.17871 14.2894
1770 1 21.8179 9.1955 15.5783
580 1 19.0915 10.7697 15.555
1772 1 1.8171 12.3093 12.9544
7724 2 0.908567 13.9 14.2169
1514 1 2.72639 13.9171 15.5059
7761 2 3.63486 12.3265 14.2419
1513 1 5.45264 12.3436 15.5308
1559 1 7.27333 12.3093 12.9544
7461 2 9.0911 12.3265 14.2419
7462 2 6.36481 13.9 14.2169
1198 1 8.18262 13.9171 15.5059
7134 2 11.821 13.9 14.2169
1239 1 10.9089 12.3436 15.5308
1240 1 12.7296 12.3093 12.9544
7167 2 14.5473 12.3265 14.2419
897 1 13.6389 13.9171 15.5059
927 1 18.1858 12.3093 12.9544
6817 2 17.2773 13.9 14.2169
896 1 16.3651 12.3436 15.5308
6816 2 20.0036 12.3265 14.2419
1771 1 21.8214 12.3436 15.5308
565 1 19.0951 13.9171 15.5059
7723 2 0.912418 17.0462 14.165
1475 1 2.73038 17.063 15.4537
7722 2 3.63858 15.4732 14.1913
1516 1 5.45646 15.4902 15.4802
7418 2 6.36866 17.0462 14.165
7464 2 9.09482 15.4732 14.1913
1197 1 8.18662 17.063 15.4537
7133 2 11.8249 17.0462 14.165
1196 1 10.9127 15.4902 15.4802
7132 2 14.5511 15.4732 14.1913
866 1 13.6429 17.063 15.4537
6794 2 17.2811 17.0462 14.165
899 1 16.3689 15.4902 15.4802
6819 2 20.0073 15.4732 14.1913
1742 1 21.8252 15.4902 15.4802
564 1 19.0991 17.063 15.4537
7688 2 0.916448 20.1916 14.111
1474 1 2.73463 20.2078 15.3992
7725 2 3.64254 18.619 14.1382
1473 1 5.4606 18.6355 15.4267
7416 2 9.09878 18.619 14.1382
7417 2 6.37269 20.1916 14.111
1151 1 8.19087 20.2078 15.3992
7094 2 11.8289 20.1916 14.111
1199 1 10.9168 18.6355 15.4267
7135 2 14.555 18.619 14.1382
865 1 13.6471 20.2078 15.3992
6793 2 17.2852 20.1916 14.111
864 1 16.3731 18.6355 15.4267
6792 2 20.0113 18.619 14.1382
1743 1 21.8293 18.6355 15.4267
541 1 19.1033 20.2078 15.3992
7687 2 0.92052 23.3366 14.0558
1436 1 2.73898 23.3517 15.3431
7686 2 3.64661 21.7641 14.0835
1476 1 5.46492 21.7798 15.3713
7372 2 6.37676 23.3366 14.0558
7419 2 9.10285 21.7641 14.0835
1150 1 8.19522 23.3517 15.3431
7093 2 11.833 23.3366 14.0558
1149 1 10.9212 21.7798 15.3713
7092 2 14.5591 21.7641 14.0835
826 1 13.6515 23.3517 15.3431
6762 2 17.2892 23.3366 14.0558
867 1 16.3774 21.7798 15.3713
6795 2 20.0153 21.7641 14.0835
1714 1 21.8336 21.7798 15.3713
540 1 19.1077 23.3517 15.3431
7656 2 0.924492 26.4816 14.0008
1435 1 2.74326 26.4954 15.2868
7689 2 3.65065 24.909 14.0282
1434 1 5.46926 24.9235 15.3149
7370 2 9.10688 24.909 14.0282
7371 2 6.38073 26.4816 14.0008
1104 1 8.1995 26.4954 15.2868
1152 1 10.9255 24.9235 15.3149
7047 2 11.837 26.4816 14.0008
7095 2 14.5631 24.909 14.0282
825 1 13.6557 26.4954 15.2868
824 1 16.3817 24.9235 15.3149
6761 2 17.2932 26.4816 14.0008
6760 2 20.0194 24.909 14.0282
1715 1 21.838 24.9235 15.3149
509 1 19.112 26.4954 15.2868
7654 2 3.65452 28.0544 13.9739
1437 1 5.47346 28.0674 15.2592
7373 2 9.11076 28.0544 13.9739
1102 1 10.9297 28.0674 15.2592
7045 2 14.567 28.0544 13.9739
827 1 16.3859 28.0674 15.2592
6763 2 20.0232 28.0544 13.9739
1690 1 21.8422 28.0674 15.2592
7655 2 0.928261 29.6274 13.9477
1404 1 2.74735 29.6396 15.2321
1691 1 0.0211904 31.2121 15.206
7657 2 3.65818 31.2007 13.9224
1402 1 5.47743 31.2121 15.206
7330 2 9.11441 31.2007 13.9224
7332 2 6.3845 29.6274 13.9477
1103 1 8.20359 29.6396 15.2321
7046 2 11.8407 29.6274 13.9477
1105 1 10.9337 31.2121 15.206
7048 2 14.5707 31.2007 13.9224
780 1 13.6598 29.6396 15.2321
6723 2 17.297 29.6274 13.9477
778 1 16.3899 31.2121 15.206
6721 2 20.0269 31.2007 13.9224
508 1 19.1161 29.6396 15.2321
7632 2 0.931795 32.7743 13.8983
1403 1 2.75121 32.7849 15.181
1674 1 0.0249384 34.3581 15.1575
7630 2 3.66159 34.3483 13.8756
1405 1 5.48118 34.3581 15.1575
7331 2 6.38803 32.7743 13.8983
7333 2 9.11783 34.3483 13.8756
1064 1 8.20745 32.7849 15.181
7000 2 11.8443 32.7743 13.8983
1062 1 10.9374 34.3581 15.1575
6998 2 14.5741 34.3483 13.8756
779 1 13.6637 32.7849 15.181
6722 2 17.3005 32.7743 13.8983
781 1 16.3937 34.3581 15.1575
6724 2 20.0303 34.3483 13.8756
473 1 19.1199 32.7849 15.181
7631 2 0.935096 35.9228 13.8546
1380 1 2.75486 35.9317 15.1357
1675 1 0.0284842 37.5056 15.1159
7633 2 3.66477 37.4976 13.8356
1378 1 5.48472 37.5056 15.1159
7298 2 9.121 37.4976 13.8356
7300 2 6.39133 35.9228 13.8546
1063 1 8.2111 35.9317 15.1357
6999 2 11.8476 35.9228 13.8546
1065 1 10.941 37.5056 15.1159
7001 2 14.5772 37.4976 13.8356
735 1 13.6673 35.9317 15.1357
6683 2 17.3038 35.9228 13.8546
733 1 16.3972 37.5056 15.1159
6681 2 20.0335 37.4976 13.8356
472 1 19.1236 35.9317 15.1357
7616 2 0.938107 39.0728 13.8186
1379 1 2.75827 39.08 15.0983
1666 1 0.0317061 40.6546 15.083
7614 2 3.66756 40.6483 13.804
1381 1 5.48794 40.6546 15.083
7299 2 6.39435 39.0728 13.8186
7301 2 9.1238 40.6483 13.804
1032 1 8.21451 39.08 15.0983
6960 2 11.8506 39.0728 13.8186
1030 1 10.9442 40.6546 15.083
6958 2 14.58 40.6483 13.804
734 1 13.6707 39.08 15.0983
6682 2 17.3068 39.0728 13.8186
736 1 16.4004 40.6546 15.083
6684 2 20.0363 40.6483 13.804
437 1 19.127 39.08 15.0983
7615 2 0.940617 42.2241 13.7918
1364 1 2.76121 42.2296 15.0704
1667 1 0.0342417 43.8047 15.0604
7617 2 3.6697 43.8001 13.7822
1362 1 5.49048 43.8047 15.0604
7274 2 9.12594 43.8001 13.7822
7276 2 6.39686 42.2241 13.7918
1031 1 8.21745 42.2296 15.0704
6959 2 11.8531 42.2241 13.7918
1033 1 10.9467 43.8047 15.0604
6961 2 14.5822 43.8001 13.7822
697 1 13.6737 42.2296 15.0704
6644 2 17.3093 42.2241 13.7918
695 1 16.403 43.8047 15.0604
6642 2 20.0384 43.8001 13.7822
436 1 19.1299 42.2296 15.0704
7608 2 0.942277 45.3764 13.7753
1363 1 2.76321 45.38 15.0532
1665 1 0.0355912 46.9555 15.0488
7606 2 3.6708 46.9527 13.7711
1365 1 5.49183 46.9555 15.0488
7275 2 6.39852 45.3764 13.7753
7277 2 9.12703 46.9527 13.7711
1008 1 8.21945 45.38 15.0532
6928 2 11.8548 45.3764 13.7753
1006 1 10.9481 46.9555 15.0488
6926 2 14.5833 46.9527 13.7711
696 1 13.6757 45.38 15.0532
6643 2 17.311 45.3764 13.7753
698 1 16.4043 46.9555 15.0488
6645 2 20.0395 46.9527 13.7711
402 1 19.1319 45.38 15.0532
7607 2 0.942748 48.5291 13.7697
1353 1 2.76381 48.5309 15.0474
3874 1 0.0353924 50.1064 15.0489
10001 2 3.6706 50.1055 13.7711
3633 1 5.49163 50.1064 15.0489
7257 2 6.39899 48.5291 13.7697
1007 1 8.22005 48.5309 15.0474
9706 2 9.12684 50.1055 13.7711
6927 2 11.8552 48.5291 13.7697
3344 1 10.9479 50.1064 15.0489
664 1 13.6763 48.5309 15.0474
9384 2 14.5831 50.1055 13.7711
6609 2 17.3115 48.5291 13.7697
2985 1 16.4041 50.1064 15.0489
401 1 19.1325 48.5309 15.0474
9017 2 20.0393 50.1055 13.7711
1550 1 0.893786 1.34921 18.255
7497 2 4.53223 1.33421 16.9666
1266 1 6.35002 1.34921 18.255
7186 2 9.98847 1.33421 16.9666
918 1 11.8063 1.34921 18.255
6830 2 15.4447 1.33421 16.9666
586 1 17.2625 1.34921 18.255
6528 2 20.9009 1.33421 16.9666
7792 2 1.80522 2.91056 16.9482
1549 1 0.895977 4.50268 18.2176
7496 2 4.53454 4.48661 16.9288
1548 1 3.62295 2.92611 18.2367
7495 2 7.26146 2.91056 16.9482
1234 1 6.35222 4.50268 18.2176
1267 1 9.07919 2.92611 18.2367
7162 2 9.99078 4.48661 16.9288
917 1 11.8085 4.50268 18.2176
6829 2 15.447 4.48661 16.9288
7187 2 12.7177 2.91056 16.9482
916 1 14.5354 2.92611 18.2367
6828 2 18.1739 2.91056 16.9482
578 1 17.2647 4.50268 18.2176
6527 2 20.9033 4.48661 16.9288
587 1 19.9917 2.92611 18.2367
7756 2 1.80772 6.06233 16.9085
1511 1 0.898576 7.65465 18.1764
7459 2 4.53724 7.6377 16.8873
1551 1 3.62534 6.07887 18.1974
7498 2 7.26396 6.06233 16.9085
1232 1 9.08158 6.07887 18.1974
1233 1 6.35481 7.65465 18.1764
7161 2 9.99348 7.6377 16.8873
894 1 11.8111 7.65465 18.1764
6814 2 15.4497 7.6377 16.8873
7160 2 12.7202 6.06233 16.9085
919 1 14.5378 6.07887 18.1974
6831 2 18.1764 6.06233 16.9085
577 1 17.2673 7.65465 18.1764
6526 2 20.906 7.6377 16.8873
576 1 19.9941 6.07887 18.1974
7757 2 1.81063 9.2127 16.8652
1510 1 0.901639 10.8049 18.1315
7458 2 4.54037 10.7873 16.8422
1509 1 3.62817 9.23 18.1544
7457 2 7.26687 9.2127 16.8652
1194 1 6.35788 10.8049 18.1315
1235 1 9.0844 9.23 18.1544
7130 2 9.9966 10.7873 16.8422
893 1 11.8141 10.8049 18.1315
6813 2 15.4528 10.7873 16.8422
7163 2 12.7231 9.2127 16.8652
892 1 14.5406 9.23 18.1544
6812 2 18.1793 9.2127 16.8652
562 1 17.2704 10.8049 18.1315
6519 2 20.9091 10.7873 16.8422
579 1 19.9969 9.23 18.1544
7720 2 1.81398 12.3615 16.8183
1471 1 0.905207 13.9531 18.0831
7414 2 4.54394 13.9352 16.7936
1512 1 3.63148 12.3792 18.1077
7460 2 7.27022 12.3615 16.8183
1192 1 9.08772 12.3792 18.1077
1193 1 6.36145 13.9531 18.0831
7129 2 10.0002 13.9352 16.7936
862 1 11.8177 13.9531 18.0831
6790 2 15.4564 13.9352 16.7936
7128 2 12.7265 12.3615 16.8183
895 1 14.544 12.3792 18.1077
6815 2 18.1827 12.3615 16.8183
561 1 17.2739 13.9531 18.0831
6518 2 20.9127 13.9352 16.7936
560 1 20.0002 12.3792 18.1077
7721 2 1.81776 15.5085 16.7681
1470 1 0.909286 17.0992 18.0314
7413 2 4.54793 17.0814 16.7419
1469 1 3.6353 15.5264 18.0577
7412 2 7.274 15.5085 16.7681
1147 1 6.36552 17.0992 18.0314
1195 1 9.09154 15.5264 18.0577
7090 2 10.0042 17.0814 16.7419
861 1 11.8218 17.0992 18.0314
6789 2 15.4604 17.0814 16.7419
7131 2 12.7302 15.5085 16.7681
860 1 14.5478 15.5264 18.0577
6788 2 18.1865 15.5085 16.7681
538 1 17.278 17.0992 18.0314
6503 2 20.9166 17.0814 16.7419
563 1 20.004 15.5264 18.0577
7684 2 1.82195 18.6539 16.7151
1432 1 0.913821 20.2433 17.9768
7368 2 4.55228 20.226 16.6877
1472 1 3.63962 18.6715 18.0044
7415 2 7.27819 18.6539 16.7151
1145 1 9.09586 18.6715 18.0044
1146 1 6.37006 20.2433 17.9768
7089 2 10.0085 20.226 16.6877
822 1 11.8263 20.2433 17.9768
6758 2 15.4648 20.226 16.6877
7088 2 12.7344 18.6539 16.7151
863 1 14.5521 18.6715 18.0044
6791 2 18.1907 18.6539 16.7151
537 1 17.2825 20.2433 17.9768
6502 2 20.921 20.226 16.6877
536 1 20.0083 18.6715 18.0044
7685 2 1.82643 21.7978 16.6598
1431 1 0.918678 23.3855 17.92
7367 2 4.55685 23.3694 16.6317
1430 1 3.64434 21.8146 17.9486
7366 2 7.28267 21.7978 16.6598
1100 1 6.37492 23.3855 17.92
1148 1 9.10058 21.8146 17.9486
7043 2 10.0131 23.3694 16.6317
821 1 11.8312 23.3855 17.92
6757 2 15.4693 23.3694 16.6317
7091 2 12.7389 21.7978 16.6598
820 1 14.5568 21.8146 17.9486
6756 2 18.1951 21.7978 16.6598
506 1 17.2874 23.3855 17.92
6479 2 20.9256 23.3694 16.6317
539 1 20.0131 21.8146 17.9486
7652 2 1.83105 24.9407 16.6034
1400 1 0.923656 26.5267 17.8622
1433 1 3.64928 24.9562 17.8911
7328 2 4.56147 26.512 16.5752
7369 2 7.28729 24.9407 16.6034
1098 1 9.10552 24.9562 17.8911
1099 1 6.37989 26.5267 17.8622
7042 2 10.0177 26.512 16.5752
776 1 11.8361 26.5267 17.8622
7041 2 12.7435 24.9407 16.6034
823 1 14.5618 24.9562 17.8911
6719 2 15.4739 26.512 16.5752
6759 2 18.1998 24.9407 16.6034
505 1 17.2924 26.5267 17.8622
504 1 20.018 24.9562 17.8911
6478 2 20.9302 26.512 16.5752
7653 2 1.83563 28.0833 16.5473
1398 1 3.65425 28.0971 17.8334
7326 2 7.29187 28.0833 16.5473
1101 1 9.11048 28.0971 17.8334
7044 2 12.7481 28.0833 16.5473
774 1 14.5667 28.0971 17.8334
6717 2 18.2043 28.0833 16.5473
507 1 20.023 28.0971 17.8334
7628 2 1.84006 31.2262 16.4935
1399 1 0.928561 29.6676 17.8051
7327 2 4.56599 29.6546 16.5199
1401 1 3.65908 31.2383 17.7776
7329 2 7.2963 31.2262 16.4935
1058 1 9.11531 31.2383 17.7776
1060 1 6.3848 29.6676 17.8051
6996 2 10.0222 29.6546 16.5199
775 1 11.841 29.6676 17.8051
6718 2 15.4785 29.6546 16.5199
6994 2 12.7525 31.2262 16.4935
777 1 14.5716 31.2383 17.7776
6720 2 18.2088 31.2262 16.4935
470 1 17.2973 29.6676 17.8051
6451 2 20.9347 29.6546 16.5199
468 1 20.0278 31.2383 17.7776
7629 2 1.84434 34.3703 16.4442
1376 1 0.933318 32.8092 17.7511
7296 2 4.57034 32.7981 16.4681
1374 1 3.66378 34.3805 17.7262
7294 2 7.30058 34.3703 16.4442
1059 1 6.38956 32.8092 17.7511
1061 1 9.12001 34.3805 17.7262
6995 2 10.0266 32.7981 16.4681
731 1 11.8458 32.8092 17.7511
6679 2 15.4828 32.7981 16.4681
6997 2 12.7568 34.3703 16.4442
729 1 14.5763 34.3805 17.7262
6677 2 18.2131 34.3703 16.4442
469 1 17.302 32.8092 17.7511
6450 2 20.9391 32.7981 16.4681
471 1 20.0325 34.3805 17.7262
7612 2 1.84848 37.5158 16.4018
1375 1 0.937984 35.9522 17.703
7295 2 4.57455 35.9429 16.422
1377 1 3.66842 37.5242 17.6818
7297 2 7.30472 37.5158 16.4018
1026 1 9.12465 37.5242 17.6818
1028 1 6.39422 35.9522 17.703
6956 2 10.0308 35.9429 16.422
730 1 11.8505 35.9522 17.703
6678 2 15.487 35.9429 16.422
6954 2 12.761 37.5158 16.4018
732 1 14.5809 37.5242 17.6818
6680 2 18.2172 37.5158 16.4018
434 1 17.3067 35.9522 17.703
6423 2 20.9433 35.9429 16.422
432 1 20.0371 37.5242 17.6818
7613 2 1.85231 40.6625 16.3683
1360 1 0.942571 39.0966 17.663
7272 2 4.57858 39.089 16.3838
1358 1 3.67287 40.6692 17.6468
7270 2 7.30855 40.6625 16.3683
1027 1 6.39881 39.0966 17.663
1029 1 9.12911 40.6692 17.6468
6955 2 10.0348 39.089 16.3838
693 1 11.855 39.0966 17.663
6640 2 15.4911 39.089 16.3838
6957 2 12.7648 40.6625 16.3683
691 1 14.5853 40.6692 17.6468
6638 2 18.221 40.6625 16.3683
433 1 17.3113 39.0966 17.663
6422 2 20.9473 39.089 16.3838
435 1 20.0416 40.6692 17.6468
7604 2 1.85538 43.8103 16.3452
1359 1 0.946747 42.2421 17.6333
7271 2 4.5821 42.2363 16.3553
1361 1 3.67657 43.8151 17.6227
7273 2 7.31162 43.8103 16.3452
1002 1 9.13281 43.8151 17.6227
1004 1 6.40299 42.2421 17.6333
6924 2 10.0383 42.2363 16.3553
692 1 11.8592 42.2421 17.6333
6639 2 15.4946 42.2363 16.3553
6922 2 12.7679 43.8103 16.3452
694 1 14.589 43.8151 17.6227
6641 2 18.2241 43.8103 16.3452
399 1 17.3155 42.2421 17.6333
6395 2 20.9508 42.2363 16.3553
397 1 20.0453 43.8151 17.6227
7605 2 1.85704 46.9586 16.3334
1352 1 0.949745 45.3882 17.615
7256 2 4.58454 45.3844 16.3378
1350 1 3.67864 46.9614 17.6105
7254 2 7.31328 46.9586 16.3334
1003 1 6.40598 45.3882 17.615
1005 1 9.13488 46.9614 17.6105
6923 2 10.0408 45.3844 16.3378
663 1 11.8622 45.3882 17.615
6608 2 15.497 45.3844 16.3378
6925 2 12.7695 46.9586 16.3334
661 1 14.5911 46.9614 17.6105
6606 2 18.2258 46.9586 16.3334
398 1 17.3185 45.3882 17.615
6394 2 20.9533 45.3844 16.3378
400 1 20.0474 46.9614 17.6105
1351 1 0.950716 48.5346 17.609
9967 2 1.85683 50.1071 16.3336
7255 2 4.5853 48.5328 16.332
3632 1 3.67842 50.1078 17.6106
985 1 6.40695 48.5346 17.609
9705 2 7.31307 50.1071 16.3336
3313 1 9.13466 50.1078 17.6106
6897 2 10.0415 48.5328 16.332
662 1 11.8632 48.5346 17.609
6607 2 15.4978 48.5328 16.332
9361 2 12.7693 50.1071 16.3336
2984 1 14.5909 50.1078 17.6106
368 1 17.3194 48.5346 17.609
9016 2 18.2255 50.1071 16.3336
6367 2 20.954 48.5328 16.332
2633 1 20.0471 50.1078 17.6106
7493 2 2.7119 1.36408 19.5403
1230 1 4.52969 1.37934 20.8286
7158 2 8.16814 1.36408 19.5403
914 1 9.98593 1.37934 20.8286
574 1 15.4422 1.37934 20.8286
6826 2 13.6244 1.36408 19.5403
304 1 20.8984 1.37934 20.8286
6525 2 19.0806 1.36408 19.5403
1547 1 1.80243 2.95751 20.8108
7455 2 2.71389 4.51881 19.5034
1229 1 4.5315 4.53529 20.7921
7494 2 5.44097 2.94163 19.5224
1228 1 7.25867 2.95751 20.8108
7157 2 8.17013 4.51881 19.5034
890 1 9.98774 4.53529 20.7921
7156 2 10.8972 2.94163 19.5224
573 1 15.444 4.53529 20.7921
915 1 12.7149 2.95751 20.8108
6810 2 13.6264 4.51881 19.5034
572 1 18.1711 2.95751 20.8108
6827 2 16.3534 2.94163 19.5224
7754 2 21.8097 2.94163 19.5224
303 1 20.9002 4.53529 20.7921
6524 2 19.0826 4.51881 19.5034
1507 1 1.80444 6.11263 20.7725
7454 2 2.71628 7.67195 19.4629
1190 1 4.53372 7.68949 20.752
7453 2 5.44315 6.0956 19.4836
1231 1 7.26067 6.11263 20.7725
7126 2 8.17252 7.67195 19.4629
889 1 9.98996 7.68949 20.752
7159 2 10.8994 6.0956 19.4836
558 1 15.4462 7.68949 20.752
888 1 12.7169 6.11263 20.7725
6809 2 13.6288 7.67195 19.4629
575 1 18.1732 6.11263 20.7725
6808 2 16.3556 6.0956 19.4836
7755 2 21.8119 6.0956 19.4836
302 1 20.9024 7.68949 20.752
6517 2 19.085 7.67195 19.4629
1508 1 1.80689 9.26583 20.7305
7410 2 2.71915 10.8232 19.4186
1189 1 4.53644 10.8416 20.7082
7456 2 5.44577 9.24783 19.4412
1188 1 7.26313 9.26583 20.7305
7125 2 8.17539 10.8232 19.4186
858 1 9.99268 10.8416 20.7082
7124 2 10.902 9.24783 19.4412
557 1 15.4489 10.8416 20.7082
891 1 12.7194 9.26583 20.7305
6786 2 13.6316 10.8232 19.4186
556 1 18.1756 9.26583 20.7305
6811 2 16.3582 9.24783 19.4412
7718 2 21.8145 9.24783 19.4412
295 1 20.9052 10.8416 20.7082
6516 2 19.0879 10.8232 19.4186
1467 1 1.8099 12.4168 20.6849
7409 2 2.72256 13.9723 19.3709
1143 1 4.53976 13.9912 20.6608
7408 2 5.4489 12.398 19.3952
1191 1 7.26614 12.4168 20.6849
7086 2 8.1788 13.9723 19.3709
857 1 9.996 13.9912 20.6608
7127 2 10.9051 12.398 19.3952
534 1 15.4522 13.9912 20.6608
856 1 12.7224 12.4168 20.6849
6785 2 13.635 13.9723 19.3709
559 1 18.1786 12.4168 20.6849
6784 2 16.3614 12.398 19.3952
7719 2 21.8176 12.398 19.3952
294 1 20.9085 13.9912 20.6608
6501 2 19.0913 13.9723 19.3709
1468 1 1.81355 15.565 20.6358
7364 2 2.72656 17.1189 19.3197
1142 1 4.54374 17.1381 20.6099
7411 2 5.4526 15.5459 19.3457
1141 1 7.26978 15.565 20.6358
7085 2 8.18279 17.1189 19.3197
818 1 9.99998 17.1381 20.6099
7084 2 10.9088 15.5459 19.3457
533 1 15.4562 17.1381 20.6099
859 1 12.726 15.565 20.6358
6754 2 13.639 17.1189 19.3197
532 1 18.1823 15.565 20.6358
6787 2 16.3651 15.5459 19.3457
7682 2 21.8213 15.5459 19.3457
279 1 20.9125 17.1381 20.6099
6500 2 19.0953 17.1189 19.3197
1428 1 1.81788 18.7104 20.5832
7363 2 2.73112 20.2631 19.2656
1096 1 4.54842 20.282 20.5556
7362 2 5.45689 18.6913 19.293
1144 1 7.27412 18.7104 20.5832
7039 2 8.18736 20.2631 19.2656
817 1 10.0047 20.282 20.5556
7087 2 10.9131 18.6913 19.293
502 1 15.4609 20.282 20.5556
816 1 12.7304 18.7104 20.5832
6753 2 13.6436 20.2631 19.2656
535 1 18.1866 18.7104 20.5832
6752 2 16.3694 18.6913 19.293
7683 2 21.8256 18.6913 19.293
278 1 20.9171 20.282 20.5556
6477 2 19.0998 20.2631 19.2656
1429 1 1.82289 21.8528 20.5274
7324 2 2.73616 23.4051 19.209
1095 1 4.55372 23.423 20.4984
7365 2 5.46171 21.8344 19.2375
1094 1 7.27912 21.8528 20.5274
7038 2 8.1924 23.4051 19.209
772 1 10.01 23.423 20.4984
7037 2 10.9179 21.8344 19.2375
501 1 15.4662 23.423 20.4984
819 1 12.7354 21.8528 20.5274
6715 2 13.6486 23.4051 19.209
500 1 18.1916 21.8528 20.5274
6755 2 16.3742 21.8344 19.2375
7650 2 21.8304 21.8344 19.2375
256 1 20.9224 23.423 20.4984
6476 2 19.1049 23.4051 19.209
1396 1 1.82842 24.9925 20.469
7323 2 2.74148 26.5453 19.151
7322 2 5.46692 24.9754 19.1801
1056 1 4.55943 26.5617 20.4391
1097 1 7.28466 24.9925 20.469
6992 2 8.19772 26.5453 19.151
7040 2 10.9232 24.9754 19.1801
771 1 10.0157 26.5617 20.4391
770 1 12.7409 24.9925 20.469
466 1 15.4719 26.5617 20.4391
6714 2 13.654 26.5453 19.151
503 1 18.1971 24.9925 20.469
6713 2 16.3794 24.9754 19.1801
7651 2 21.8356 24.9754 19.1801
255 1 20.9281 26.5617 20.4391
6449 2 19.1102 26.5453 19.151
1397 1 1.83424 28.1305 20.4092
7325 2 5.4723 28.1151 19.122
1054 1 7.29048 28.1305 20.4092
6990 2 10.9285 28.1151 19.122
773 1 12.7467 28.1305 20.4092
464 1 18.203 28.1305 20.4092
6716 2 16.3848 28.1151 19.122
7626 2 21.841 28.1151 19.122
1372 1 1.84011 31.2678 20.3503
7292 2 2.74687 29.6848 19.0934
7627 2 0.0214403 31.2545 19.0655
1055 1 4.5653 29.6991 20.3795
7290 2 5.47768 31.2545 19.0655
1057 1 7.29634 31.2678 20.3503
6991 2 8.20311 29.6848 19.0934
727 1 10.0215 29.6991 20.3795
6993 2 10.9339 31.2545 19.0655
465 1 15.4778 29.6991 20.3795
725 1 12.7526 31.2678 20.3503
6675 2 13.6594 29.6848 19.0934
467 1 18.2088 31.2678 20.3503
6673 2 16.3902 31.2545 19.0655
232 1 20.934 29.6991 20.3795
6448 2 19.1156 29.6848 19.0934
1373 1 1.84598 34.4059 20.2953
7291 2 2.75224 32.8244 19.0386
7610 2 0.026798 34.3946 19.0131
1024 1 4.57115 32.8367 20.3221
7293 2 5.48304 34.3946 19.0131
1022 1 7.30222 34.4059 20.2953
6952 2 8.20847 32.8244 19.0386
726 1 10.0274 32.8367 20.3221
6950 2 10.9393 34.3946 19.0131
430 1 15.4836 32.8367 20.3221
728 1 12.7585 34.4059 20.2953
6674 2 13.6647 32.8244 19.0386
428 1 18.2147 34.4059 20.2953
6676 2 16.3955 34.3946 19.0131
231 1 20.9399 32.8367 20.3221
6421 2 19.121 32.8244 19.0386
1356 1 1.85203 37.5453 20.2475
7268 2 2.75761 35.9651 18.9894
7611 2 0.0321977 37.5359 18.9678
1023 1 4.5771 35.9754 20.2703
7266 2 5.48844 37.5359 18.9678
1025 1 7.30827 37.5453 20.2475
6951 2 8.21385 35.9651 18.9894
689 1 10.0333 35.9754 20.2703
6953 2 10.9447 37.5359 18.9678
429 1 15.4896 35.9754 20.2703
687 1 12.7645 37.5453 20.2475
6636 2 13.6701 35.9651 18.9894
431 1 18.2207 37.5453 20.2475
6634 2 16.4009 37.5359 18.9678
208 1 20.9458 35.9754 20.2703
6420 2 19.1263 35.9651 18.9894
1357 1 1.85818 40.6858 20.2099
7267 2 2.763 39.1071 18.9486
7602 2 0.0374729 40.6784 18.932
1000 1 4.58324 39.1155 20.2273
7269 2 5.49371 40.6784 18.932
7246 2 3.67922 40.6968 21.4954
998 1 7.31442 40.6858 20.2099
6920 2 8.21924 39.1071 18.9486
6917 2 9.13546 40.6968 21.4954
688 1 10.0395 39.1155 20.2273
6918 2 10.9499 40.6784 18.932
395 1 15.4957 39.1155 20.2273
690 1 12.7707 40.6858 20.2099
6635 2 13.6755 39.1071 18.9486
6598 2 14.5917 40.6968 21.4954
393 1 18.2269 40.6858 20.2099
6637 2 16.4062 40.6784 18.932
207 1 20.952 39.1155 20.2273
6393 2 19.1317 39.1071 18.9486
6391 2 20.0479 40.6968 21.4954
1348 1 1.86362 43.8268 20.1843
7252 2 2.76798 42.2499 18.9183
7603 2 0.0419198 43.8215 18.9075
7247 2 0.954544 42.2657 21.4808
999 1 4.5892 42.2563 20.1955
7250 2 5.49816 43.8215 18.9075
7249 2 3.6857 43.8344 21.4694
1001 1 7.31986 43.8268 20.1843
6919 2 8.22422 42.2499 18.9183
6890 2 9.14194 43.8344 21.4694
6892 2 6.41078 42.2657 21.4808
659 1 10.0454 42.2563 20.1955
6921 2 10.9544 43.8215 18.9075
6599 2 11.867 42.2657 21.4808
394 1 15.5017 42.2563 20.1955
657 1 12.7761 43.8268 20.1843
6604 2 13.6805 42.2499 18.9183
6601 2 14.5982 43.8344 21.4694
396 1 18.2323 43.8268 20.1843
6602 2 16.4106 43.8215 18.9075
6363 2 17.3233 42.2657 21.4808
184 1 20.9579 42.2563 20.1955
6392 2 19.1367 42.2499 18.9183
6361 2 20.0544 43.8344 21.4694
1349 1 1.86682 46.9677 20.1714
7251 2 2.77161 45.3931 18.8998
7601 2 0.0444405 46.9648 18.8951
7240 2 0.959956 45.403 21.4614
984 1 4.59372 45.3973 20.1762
7253 2 5.50068 46.9648 18.8951
7238 2 3.68955 46.9715 21.4566
982 1 7.32306 46.9677 20.1714
6896 2 8.22785 45.3931 18.8998
6891 2 6.41619 45.403 21.4614
6893 2 9.14579 46.9715 21.4566
658 1 10.05 45.3973 20.1762
6894 2 10.9569 46.9648 18.8951
6576 2 11.8724 45.403 21.4614
367 1 15.5062 45.3973 20.1762
660 1 12.7793 46.9677 20.1714
6603 2 13.6841 45.3931 18.8998
6574 2 14.602 46.9715 21.4566
365 1 18.2355 46.9677 20.1714
6605 2 16.4132 46.9648 18.8951
6362 2 17.3287 45.403 21.4614
183 1 20.9624 45.3973 20.1762
6366 2 19.1403 45.3931 18.8998
6364 2 20.0583 46.9715 21.4566
7241 2 2.77281 48.5364 18.8937
3594 1 1.86654 50.1085 20.1717
9966 2 0.0442001 50.1081 18.8954
7239 2 0.961838 48.5398 21.4551
983 1 4.59527 48.5381 20.1699
9668 2 5.50044 50.1081 18.8954
9667 2 3.68925 50.1082 21.457
6895 2 8.22904 48.5364 18.8937
3312 1 7.32278 50.1085 20.1717
9329 2 9.14549 50.1082 21.457
6873 2 6.41808 48.5398 21.4551
634 1 10.0515 48.5381 20.1699
9360 2 10.9567 50.1081 18.8954
6575 2 11.8743 48.5398 21.4552
366 1 15.5077 48.5381 20.1699
6577 2 13.6853 48.5364 18.8937
2961 1 12.779 50.1085 20.1717
9000 2 14.6017 50.1082 21.457
2632 1 18.2353 50.1085 20.1717
9001 2 16.4129 50.1081 18.8954
6340 2 17.3306 48.5398 21.4552
160 1 20.964 48.5381 20.1699
6365 2 19.1415 48.5364 18.8937
8697 2 20.058 50.1082 21.457
1226 1 2.70953 1.41007 23.4016
7451 2 0.891685 1.3945 22.1136
886 1 8.16576 1.41007 23.4016
7154 2 6.34792 1.3945 22.1136
6806 2 11.8042 1.3945 22.1136
570 1 13.622 1.41007 23.4016
6522 2 17.2604 1.3945 22.1136
301 1 19.0782 1.41007 23.4016
1186 1 2.71087 4.56879 23.3662
7450 2 0.893256 4.55185 22.0777
1227 1 5.43827 2.98964 23.3843
7449 2 3.62055 2.97337 22.0961
885 1 8.1671 4.56879 23.3662
7122 2 6.34949 4.55185 22.0777
7155 2 9.07679 2.97337 22.0961
884 1 10.8945 2.98964 23.3843
6805 2 11.8057 4.55185 22.0777
554 1 13.6233 4.56879 23.3662
6804 2 14.533 2.97337 22.0961
571 1 16.3508 2.98964 23.3843
6514 2 17.262 4.55185 22.0777
1505 1 21.807 2.98964 23.3843
300 1 19.0796 4.56879 23.3662
6523 2 19.9893 2.97337 22.0961
1185 1 2.71258 7.72565 23.3272
7406 2 0.895217 7.70741 22.0382
1184 1 5.43979 6.14748 23.3471
7452 2 3.6223 6.12987 22.0584
854 1 8.16882 7.72565 23.3272
7120 2 9.07854 6.12987 22.0584
7121 2 6.35146 7.70741 22.0382
887 1 10.896 6.14748 23.3471
6782 2 11.8077 7.70741 22.0382
553 1 13.6251 7.72565 23.3272
6807 2 14.5348 6.12987 22.0584
552 1 16.3523 6.14748 23.3471
6513 2 17.2639 7.70741 22.0382
1506 1 21.8085 6.14748 23.3471
293 1 19.0813 7.72565 23.3272
6512 2 19.991 6.12987 22.0584
1139 1 2.7148 10.8802 23.2847
7405 2 0.897671 10.8608 21.9951
1187 1 5.44174 9.30324 23.3064
7404 2 3.62449 9.2844 22.0171
853 1 8.17103 10.8802 23.2847
7082 2 6.35391 10.8608 21.9951
7123 2 9.08073 9.2844 22.0171
852 1 10.898 9.30324 23.3064
6781 2 11.8101 10.8608 21.9951
530 1 13.6273 10.8802 23.2847
6780 2 14.537 9.2844 22.0171
555 1 16.3542 9.30324 23.3064
6498 2 17.2664 10.8608 21.9951
1465 1 21.8105 9.30324 23.3064
292 1 19.0835 10.8802 23.2847
6515 2 19.9932 9.2844 22.0171
1138 1 2.71765 14.0319 23.2386
7360 2 0.900735 14.0116 21.9484
1137 1 5.44425 12.4564 23.2621
7407 2 3.62724 12.4365 21.9722
814 1 8.17389 14.0319 23.2386
7080 2 9.08348 12.4365 21.9722
7081 2 6.35697 14.0116 21.9484
855 1 10.9005 12.4564 23.2621
6750 2 11.8132 14.0116 21.9484
529 1 13.6301 14.0319 23.2386
6783 2 14.5397 12.4365 21.9722
528 1 16.3567 12.4564 23.2621
6497 2 17.2695 14.0116 21.9484
1466 1 21.813 12.4564 23.2621
277 1 19.0864 14.0319 23.2386
6496 2 19.996 12.4365 21.9722
1092 1 2.72131 17.1803 23.1889
7359 2 0.904524 17.1594 21.8982
1140 1 5.44749 15.6066 23.2142
7358 2 3.63065 15.5859 21.9238
813 1 8.17754 17.1803 23.1889
7035 2 6.36076 17.1594 21.8982
7083 2 9.08689 15.5859 21.9238
812 1 10.9037 15.6066 23.2142
6749 2 11.817 17.1594 21.8982
498 1 13.6338 17.1803 23.1889
6748 2 14.5431 15.5859 21.9238
531 1 16.36 15.6066 23.2142
6474 2 17.2732 17.1594 21.8982
1426 1 21.8162 15.6066 23.2142
276 1 19.09 17.1803 23.1889
6499 2 19.9994 15.5859 21.9238
1091 1 2.72589 20.3249 23.1355
7320 2 0.909113 20.3039 21.8446
1090 1 5.45159 18.7531 23.1627
7361 2 3.63484 18.7321 21.8718
768 1 8.18213 20.3249 23.1355
7033 2 9.09107 18.7321 21.8718
7034 2 6.36535 20.3039 21.8446
815 1 10.9078 18.7531 23.1627
6711 2 11.8216 20.3039 21.8446
497 1 13.6384 20.3249 23.1355
6751 2 14.5473 18.7321 21.8718
496 1 16.3641 18.7531 23.1627
6473 2 17.2778 20.3039 21.8446
1427 1 21.8203 18.7531 23.1627
254 1 19.0946 20.3249 23.1355
6472 2 20.0036 18.7321 21.8718
1052 1 2.73144 23.4654 23.0784
7319 2 0.914494 23.445 21.7878
1093 1 5.45666 21.8956 23.1074
7318 2 3.63983 21.8749 21.8165
7036 2 9.09607 21.8749 21.8165
767 1 8.18768 23.4654 23.0784
6988 2 6.37073 23.445 21.7878
766 1 10.9129 21.8956 23.1074
6710 2 11.827 23.445 21.7878
6709 2 14.5523 21.8749 21.8165
462 1 13.6439 23.4654 23.0784
499 1 16.3691 21.8956 23.1074
6446 2 17.2832 23.445 21.7878
1394 1 21.8254 21.8956 23.1074
6475 2 20.0085 21.8749 21.8165
253 1 19.1002 23.4654 23.0784
7284 2 1.82298 25.0594 24.3383
1050 1 5.46267 25.0341 23.0486
7321 2 3.64556 25.0144 21.7584
6986 2 9.1018 25.0144 21.7584
6985 2 7.27922 25.0594 24.3383
769 1 10.9189 25.0341 23.0486
6712 2 14.558 25.0144 21.7584
6665 2 12.7355 25.0594 24.3383
460 1 16.3751 25.0341 23.0486
6443 2 18.1917 25.0594 24.3383
1395 1 21.8314 25.0341 23.0486
6444 2 20.0143 25.0144 21.7584
1051 1 2.73784 26.602 23.0181
7288 2 0.920517 26.5832 21.7285
7285 2 1.83005 28.1941 24.2768
1053 1 5.46938 28.1692 22.987
7286 2 3.65181 28.1514 21.6984
6944 2 4.55452 26.6272 24.3079
723 1 8.19408 26.602 23.0181
6987 2 6.37676 26.5832 21.7285
6989 2 9.10804 28.1514 21.6984
6942 2 7.28629 28.1941 24.2768
721 1 10.9256 28.1692 22.987
6671 2 11.833 26.5832 21.7285
6666 2 10.0108 26.6272 24.3079
461 1 13.6503 26.602 23.0181
6669 2 14.5643 28.1514 21.6984
6414 2 15.467 26.6272 24.3079
6668 2 12.7425 28.1941 24.2768
463 1 16.3819 28.1692 22.987
6445 2 17.2892 26.5832 21.7285
6412 2 18.1988 28.1941 24.2768
1370 1 21.8381 28.1692 22.987
230 1 19.1066 26.602 23.0181
6447 2 20.0205 28.1514 21.6984
6263 2 20.9232 26.6272 24.3079
1020 1 2.74477 29.7359 22.9558
7287 2 0.926916 29.7193 21.6684
7260 2 1.83781 31.3257 24.2137
1018 1 5.47645 31.3024 22.9246
7289 2 3.6583 31.287 21.6387
6943 2 4.56198 29.7601 24.2453
722 1 8.20101 29.7359 22.9558
6946 2 9.11454 31.287 21.6387
6948 2 6.38315 29.7193 21.6684
6945 2 7.29405 31.3257 24.2137
724 1 10.9327 31.3024 22.9246
6670 2 11.8394 29.7193 21.6684
6628 2 10.0182 29.7601 24.2453
426 1 13.6572 29.7359 22.9558
6672 2 14.5708 31.287 21.6387
6413 2 15.4745 29.7601 24.2453
6626 2 12.7503 31.3257 24.2137
424 1 16.3889 31.3024 22.9246
6418 2 17.2956 29.7193 21.6684
6415 2 18.2065 31.3257 24.2137
1371 1 21.8452 31.3024 22.9246
229 1 19.1135 29.7359 22.9558
6416 2 20.027 31.287 21.6387
6248 2 20.9307 29.7601 24.2453
1019 1 2.75194 32.8689 22.8942
7264 2 0.93349 32.8547 21.61
1354 1 0.0275125 34.4356 22.8651
7261 2 1.84604 34.4561 24.1529
1021 1 5.48375 34.4356 22.8651
7262 2 3.66497 34.4227 21.5826
6912 2 4.56998 32.8909 24.1828
685 1 8.20818 32.8689 22.8942
6947 2 6.38973 32.8547 21.61
6949 2 9.12121 34.4227 21.5826
6910 2 7.30228 34.4561 24.1529
683 1 10.94 34.4356 22.8651
6632 2 11.846 32.8547 21.61
6627 2 10.0262 32.8909 24.1828
425 1 13.6644 32.8689 22.8942
6630 2 14.5775 34.4227 21.5826
6386 2 15.4825 32.8909 24.1828
6629 2 12.7585 34.4561 24.1529
427 1 16.3962 34.4356 22.8651
6417 2 17.3022 32.8547 21.61
6384 2 18.2148 34.4561 24.1529
206 1 19.1207 32.8689 22.8942
6419 2 20.0337 34.4227 21.5826
6247 2 20.9387 32.8909 24.1828
996 1 2.75945 36.0027 22.8378
7263 2 0.940305 35.9908 21.557
7244 2 1.85502 37.5873 24.0996
1355 1 0.0353204 37.5701 22.813
994 1 5.49156 37.5701 22.813
7265 2 3.67198 37.5593 21.5337
6911 2 4.57853 36.0216 24.125
684 1 8.21569 36.0027 22.8378
6914 2 9.12822 37.5593 21.5337
6916 2 6.39654 35.9908 21.557
6913 2 7.31126 37.5873 24.0996
686 1 10.9478 37.5701 22.813
6631 2 11.8528 35.9908 21.557
6596 2 10.0348 36.0216 24.125
391 1 13.6719 36.0027 22.8378
6633 2 14.5845 37.5593 21.5337
6385 2 15.491 36.0216 24.125
6594 2 12.7675 37.5873 24.0996
389 1 16.404 37.5701 22.813
6390 2 17.309 35.9908 21.557
6387 2 18.2237 37.5873 24.0996
205 1 19.1282 36.0027 22.8378
6388 2 20.0407 37.5593 21.5337
6232 2 20.9472 36.0216 24.125
995 1 2.76762 39.1378 22.7911
7248 2 0.947486 39.128 21.5131
1346 1 0.0437842 40.7056 22.7725
7245 2 1.86491 40.7191 24.0583
997 1 5.50002 40.7056 22.7725
6888 2 4.58801 39.1532 24.0772
655 1 8.22386 39.1378 22.7911
6915 2 6.40372 39.128 21.5131
6886 2 7.32115 40.7191 24.0583
653 1 10.9563 40.7056 22.7725
6600 2 11.86 39.128 21.5131
6595 2 10.0442 39.1532 24.0772
390 1 13.6801 39.1378 22.7911
6359 2 15.5005 39.1532 24.0772
6597 2 12.7774 40.7191 24.0583
392 1 16.4125 40.7056 22.7725
6389 2 17.3162 39.128 21.5131
6357 2 18.2336 40.7191 24.0583
182 1 19.1363 39.1378 22.7911
6231 2 20.9567 39.1532 24.0772
980 1 2.7761 42.2733 22.7573
7236 2 1.87437 43.8501 24.0314
1347 1 0.0517833 43.8408 22.7456
978 1 5.50802 43.8408 22.7456
6887 2 4.59798 42.2848 24.043
654 1 8.23234 42.2733 22.7573
6889 2 7.3306 43.8501 24.0314
656 1 10.9643 43.8408 22.7456
6572 2 10.0542 42.2848 24.043
363 1 13.6886 42.2733 22.7573
6570 2 12.7868 43.8501 24.0314
6358 2 15.5105 42.2848 24.043
361 1 16.4205 43.8408 22.7456
6360 2 18.2431 43.8501 24.0314
181 1 19.1448 42.2733 22.7573
6216 2 20.9667 42.2848 24.043
979 1 2.78295 45.4079 22.7374
1345 1 0.0567458 46.9748 22.7326
7237 2 1.88027 46.9791 24.0188
981 1 5.51298 46.9748 22.7326
6872 2 4.6061 45.4148 24.0234
633 1 8.23919 45.4079 22.7374
6870 2 7.33651 46.9791 24.0188
631 1 10.9692 46.9748 22.7326
6571 2 10.0623 45.4148 24.0234
362 1 13.6954 45.4079 22.7374
6339 2 15.5186 45.4148 24.0234
6573 2 12.7927 46.9791 24.0188
364 1 16.4255 46.9748 22.7326
6337 2 18.249 46.9791 24.0188
159 1 19.1517 45.4079 22.7374
6215 2 20.9748 45.4148 24.0234
969 1 2.78541 48.5414 22.7311
3593 1 0.056386 50.1081 22.733
9623 2 1.87987 50.107 24.0192
6871 2 4.60905 48.543 24.0174
3273 1 5.51262 50.1081 22.733
632 1 8.24165 48.5414 22.7311
9328 2 7.33611 50.107 24.0192
6553 2 10.0653 48.543 24.0174
2960 1 10.9689 50.1081 22.733
340 1 13.6979 48.5414 22.7311
6338 2 15.5215 48.543 24.0174
8977 2 12.7923 50.107 24.0192
2617 1 16.4251 50.1081 22.733
8696 2 18.2486 50.107 24.0192
158 1 19.1541 48.5414 22.7311
6200 2 20.9778 48.543 24.0174
1182 1 0.889659 1.44142 25.9738
7114 2 2.70833 1.4572 27.2579
7118 2 4.52794 1.42553 24.6862
882 1 6.3459 1.44142 25.9738
6774 2 8.16457 1.4572 27.2579
550 1 11.8021 1.44142 25.9738
6802 2 9.98418 1.42553 24.6862
6510 2 15.4404 1.42553 24.6862
6506 2 13.6208 1.4572 27.2579
298 1 17.2584 1.44142 25.9738
6304 2 20.8967 1.42553 24.6862
6301 2 19.077 1.4572 27.2579
1181 1 0.890459 4.60325 25.9394
7448 2 1.80033 3.00588 24.6692
7074 2 2.70887 4.62072 27.224
1180 1 3.61815 3.02254 25.957
7117 2 4.52902 4.58581 24.6513
7115 2 5.43669 3.03916 27.2414
850 1 6.3467 4.60325 25.9394
883 1 9.07438 3.02254 25.957
7116 2 7.25656 3.00588 24.6692
6773 2 8.1651 4.62072 27.224
549 1 11.8029 4.60325 25.9394
6778 2 9.98526 4.58581 24.6513
6772 2 10.8929 3.03916 27.2414
548 1 14.5306 3.02254 25.957
6509 2 15.4415 4.58581 24.6513
6803 2 12.7128 3.00588 24.6692
6490 2 13.6213 4.62072 27.224
290 1 17.2592 4.60325 25.9394
6508 2 18.169 3.00588 24.6692
6507 2 16.3492 3.03916 27.2414
299 1 19.9869 3.02254 25.957
6303 2 20.8977 4.58581 24.6513
7400 2 21.8054 3.03916 27.2414
6300 2 19.0776 4.62072 27.224
1135 1 0.89157 7.7632 25.9017
7402 2 1.80156 6.16528 24.6325
7073 2 2.70966 7.78243 27.1868
1183 1 3.61909 6.18349 25.921
7078 2 4.53044 7.74422 24.6129
7072 2 5.43734 6.20183 27.2058
848 1 9.07533 6.18349 25.921
849 1 6.34781 7.7632 25.9017
7119 2 7.2578 6.16528 24.6325
6742 2 8.1659 7.78243 27.1868
526 1 11.804 7.7632 25.9017
6777 2 9.98668 7.74422 24.6129
6775 2 10.8936 6.20183 27.2058
551 1 14.5316 6.18349 25.921
6494 2 15.4429 7.74422 24.6129
6776 2 12.714 6.16528 24.6325
6489 2 13.6221 7.78243 27.1868
289 1 17.2603 7.7632 25.9017
6511 2 18.1703 6.16528 24.6325
6488 2 16.3498 6.20183 27.2058
288 1 19.9878 6.18349 25.921
6302 2 20.8992 7.74422 24.6129
7401 2 21.8061 6.20183 27.2058
6293 2 19.0784 7.78243 27.1868
1134 1 0.893127 10.9208 25.8606
7403 2 1.80319 9.3226 24.5925
7027 2 2.71085 10.9418 27.1464
1133 1 3.6204 9.34233 25.8816
7077 2 4.53232 10.9003 24.5711
7075 2 5.43831 9.36246 27.167
810 1 6.34936 10.9208 25.8606
851 1 9.07664 9.34233 25.8816
7076 2 7.25943 9.3226 24.5925
6741 2 8.16709 10.9418 27.1464
525 1 11.8056 10.9208 25.8606
6746 2 9.98856 10.9003 24.5711
6740 2 10.8946 9.36246 27.167
524 1 14.5329 9.34233 25.8816
6493 2 15.4448 10.9003 24.5711
6779 2 12.7157 9.3226 24.5925
6466 2 13.6233 10.9418 27.1464
274 1 17.2618 10.9208 25.8606
6492 2 18.1719 9.3226 24.5925
6491 2 16.3508 9.36246 27.167
291 1 19.9891 9.34233 25.8816
6295 2 20.901 10.9003 24.5711
7354 2 21.807 9.36246 27.167
6292 2 19.0796 10.9418 27.1464
1088 1 0.895309 14.0754 25.8161
7356 2 1.80537 12.4773 24.5489
7026 2 2.71261 14.0984 27.1026
1136 1 3.62225 12.4985 25.8388
7031 2 4.53483 14.0536 24.5258
7025 2 5.43976 12.5205 27.1249
808 1 9.07848 12.4985 25.8388
809 1 6.35155 14.0754 25.8161
7079 2 7.26161 12.4773 24.5489
6703 2 8.16885 14.0984 27.1026
494 1 11.8078 14.0754 25.8161
6745 2 9.99107 14.0536 24.5258
6743 2 10.896 12.5205 27.1249
527 1 14.5347 12.4985 25.8388
6470 2 15.4473 14.0536 24.5258
6744 2 12.7178 12.4773 24.5489
6465 2 13.6251 14.0984 27.1026
273 1 17.264 14.0754 25.8161
6495 2 18.1741 12.4773 24.5489
6464 2 16.3522 12.5205 27.1249
272 1 19.991 12.4985 25.8388
6294 2 20.9035 14.0536 24.5258
7355 2 21.8085 12.5205 27.1249
6278 2 19.0813 14.0984 27.1026
1087 1 0.898341 17.2263 25.768
7357 2 1.80826 15.6289 24.5019
6980 2 2.71518 17.2512 27.0554
1086 1 3.62482 15.6514 25.7925
7030 2 4.53816 17.2034 24.477
7028 2 5.4419 15.6753 27.0795
764 1 6.35458 17.2263 25.768
811 1 9.08106 15.6514 25.7925
7029 2 7.2645 15.6289 24.5019
6702 2 8.17142 17.2512 27.0554
493 1 11.8108 17.2263 25.768
6707 2 9.99439 17.2034 24.477
6701 2 10.8981 15.6753 27.0795
492 1 14.5373 15.6514 25.7925
6469 2 15.4506 17.2034 24.477
6747 2 12.7207 15.6289 24.5019
6438 2 13.6277 17.2512 27.0554
251 1 17.2671 17.2263 25.768
6468 2 18.177 15.6289 24.5019
6467 2 16.3544 15.6753 27.0795
275 1 19.9935 15.6514 25.7925
6280 2 20.9069 17.2034 24.477
6277 2 19.0839 17.2512 27.0554
7314 2 21.8106 15.6753 27.0795
1048 1 0.902476 20.3728 25.716
7316 2 1.81206 18.7768 24.4511
6979 2 2.71886 20.3996 27.0043
1089 1 3.62837 18.8002 25.7425
6984 2 4.54248 20.3491 24.4244
6978 2 5.44498 18.826 27.0304
762 1 9.08461 18.8002 25.7425
763 1 6.35871 20.3728 25.716
7032 2 7.2683 18.7768 24.4511
6663 2 8.17509 20.3996 27.0043
458 1 11.815 20.3728 25.716
6706 2 9.99872 20.3491 24.4244
6704 2 10.9012 18.826 27.0304
495 1 14.5409 18.8002 25.7425
6442 2 15.455 20.3491 24.4244
6705 2 12.7245 18.7768 24.4511
6437 2 13.6313 20.3996 27.0043
250 1 17.2712 20.3728 25.716
6471 2 18.1808 18.7768 24.4511
6436 2 16.3575 18.826 27.0304
249 1 19.9971 18.8002 25.7425
6279 2 20.9112 20.3491 24.4244
7315 2 21.8137 18.826 27.0304
6262 2 19.0876 20.3996 27.0043
7317 2 1.81694 21.9204 24.3966
1047 1 0.907934 23.5141 25.6598
6940 2 2.72395 23.5425 26.949
1046 1 3.63315 21.9441 25.6885
6981 2 5.44933 21.9717 26.9773
6983 2 4.54794 23.4904 24.3679
765 1 9.08939 21.9441 25.6885
6982 2 7.27318 21.9204 24.3966
719 1 6.36417 23.5141 25.6598
6662 2 8.18019 23.5425 26.949
6661 2 10.9056 21.9717 26.9773
457 1 11.8204 23.5141 25.6598
6667 2 10.0042 23.4904 24.3679
456 1 14.5456 21.9441 25.6885
6708 2 12.7294 21.9204 24.3966
6441 2 15.4604 23.4904 24.3679
6410 2 13.6364 23.5425 26.949
6440 2 18.1857 21.9204 24.3966
6439 2 16.3618 21.9717 26.9773
227 1 17.2766 23.5141 25.6598
252 1 20.0019 21.9441 25.6885
7282 2 21.818 21.9717 26.9773
6264 2 20.9167 23.4904 24.3679
6261 2 19.0927 23.5425 26.949
1049 1 3.63931 25.0826 25.6301
6938 2 5.45523 25.1116 26.9197
717 1 9.09555 25.0826 25.6301
6664 2 10.9115 25.1116 26.9197
459 1 14.5518 25.0826 25.6301
6408 2 16.3677 25.1116 26.9197
225 1 20.008 25.0826 25.6301
7283 2 21.8239 25.1116 26.9197
1016 1 0.914787 26.6497 25.5992
6939 2 2.73071 26.6792 26.8891
1014 1 3.64679 28.2156 25.5674
6941 2 5.46283 28.2452 26.8573
718 1 6.37103 26.6497 25.5992
720 1 9.10303 28.2156 25.5674
6624 2 8.18695 26.6792 26.8891
422 1 11.8273 26.6497 25.5992
6622 2 10.9191 28.2452 26.8573
420 1 14.5593 28.2156 25.5674
6409 2 13.6432 26.6792 26.8891
226 1 17.2835 26.6497 25.5992
6411 2 16.3753 28.2452 26.8573
228 1 20.0155 28.2156 25.5674
7258 2 21.8315 28.2452 26.8573
6246 2 19.0994 26.6792 26.8891
1015 1 0.922794 29.7803 25.5347
6908 2 2.73909 29.8098 26.8246
1017 1 3.65519 31.3443 25.5015
6906 2 5.47189 31.3731 26.7911
679 1 9.11143 31.3443 25.5015
681 1 6.37903 29.7803 25.5347
6623 2 8.19533 29.8098 26.8246
421 1 11.8353 29.7803 25.5347
6625 2 10.9281 31.3731 26.7911
423 1 14.5677 31.3443 25.5015
6382 2 13.6516 29.8098 26.8246
203 1 17.2915 29.7803 25.5347
6380 2 16.3844 31.3731 26.7911
201 1 20.0239 31.3443 25.5015
7259 2 21.8406 31.3731 26.7911
6245 2 19.1078 29.8098 26.8246
992 1 0.931478 32.9079 25.4684
6907 2 2.74868 32.9356 26.7575
990 1 3.66416 34.4716 25.4363
6909 2 5.48193 34.4976 26.7246
680 1 6.38772 32.9079 25.4684
682 1 9.1204 34.4716 25.4363
6592 2 8.20492 32.9356 26.7575
387 1 11.844 32.9079 25.4684
6590 2 10.9382 34.4976 26.7246
385 1 14.5766 34.4716 25.4363
6381 2 13.6612 32.9356 26.7575
202 1 17.3002 32.9079 25.4684
6383 2 16.3944 34.4976 26.7246
204 1 20.0329 34.4716 25.4363
7242 2 21.8506 34.4976 26.7246
6230 2 19.1174 32.9356 26.7575
991 1 0.940853 36.0356 25.4061
6884 2 2.75927 36.0596 26.6935
7243 2 0.0370572 37.6218 26.6652
993 1 3.67412 37.6001 25.3786
6882 2 5.4933 37.6218 26.6652
649 1 9.13036 37.6001 25.3786
651 1 6.39709 36.0356 25.4061
6591 2 8.21551 36.0596 26.6935
386 1 11.8533 36.0356 25.4061
6593 2 10.9495 37.6218 26.6652
388 1 14.5866 37.6001 25.3786
6355 2 13.6717 36.0596 26.6935
179 1 17.3096 36.0356 25.4061
6353 2 16.4058 37.6218 26.6652
177 1 20.0428 37.6001 25.3786
6229 2 19.128 36.0596 26.6935
976 1 0.951619 39.165 25.3546
6883 2 2.77162 39.1843 26.6407
7234 2 0.0504494 40.7466 26.6205
974 1 3.68569 40.7299 25.3347
6885 2 5.50669 40.7466 26.6205
650 1 6.40786 39.165 25.3546
652 1 9.14193 40.7299 25.3347
6568 2 8.22786 39.1843 26.6407
359 1 11.8641 39.165 25.3546
6566 2 10.9629 40.7466 26.6205
357 1 14.5982 40.7299 25.3347
6354 2 13.6841 39.1843 26.6407
178 1 17.3203 39.165 25.3546
6356 2 16.4192 40.7466 26.6205
180 1 20.0544 40.7299 25.3347
6214 2 19.1403 39.1843 26.6407
975 1 0.96368 42.2944 25.319
6868 2 2.78565 42.3085 26.605
7235 2 0.0642394 43.8694 26.5939
977 1 3.69748 43.8582 25.3075
6866 2 5.52048 43.8694 26.5939
627 1 9.15372 43.8582 25.3075
629 1 6.41992 42.2944 25.319
6567 2 8.24189 42.3085 26.605
358 1 11.8762 42.2944 25.319
6569 2 10.9767 43.8694 26.5939
360 1 14.61 43.8582 25.3075
6335 2 13.6981 42.3085 26.605
156 1 17.3324 42.2944 25.319
6333 2 16.433 43.8694 26.5939
154 1 20.0662 43.8582 25.3075
6213 2 19.1544 42.3085 26.605
968 1 0.974074 45.421 25.2997
6867 2 2.79784 45.4292 26.5869
7233 2 0.073298 46.9879 26.5832
966 1 3.70519 46.983 25.2954
6869 2 5.52954 46.9879 26.5832
628 1 6.43031 45.421 25.2997
630 1 9.16143 46.983 25.2954
6552 2 8.25408 45.4292 26.5869
339 1 11.8866 45.421 25.2997
6550 2 10.9858 46.9879 26.5832
337 1 14.6177 46.983 25.2954
6334 2 13.7103 45.4292 26.5869
155 1 17.3428 45.421 25.2997
6336 2 16.442 46.9879 26.5832
157 1 20.0739 46.983 25.2954
6199 2 19.1666 45.4292 26.5869
967 1 0.977974 48.5445 25.2942
6857 2 2.8025 48.5458 26.5822
9622 2 0.0727304 50.1039 26.5836
3272 1 3.70469 50.1059 25.2959
9289 2 5.52897 50.1039 26.5836
612 1 6.43421 48.5445 25.2942
6551 2 8.25874 48.5458 26.5822
2929 1 9.16093 50.1059 25.2959
338 1 11.8905 48.5445 25.2942
8976 2 10.9852 50.1039 26.5836
6320 2 13.715 48.5458 26.5822
2616 1 14.6172 50.1059 25.2959
137 1 17.3467 48.5445 25.2942
8681 2 16.4414 50.1039 26.5836
6198 2 19.1712 48.5458 26.5822
2345 1 20.0734 50.1059 25.2959
7070 2 0.889233 1.48949 29.8285
846 1 4.52647 1.47341 28.545
6770 2 6.34547 1.48949 29.8285
546 1 9.98271 1.47341 28.545
6486 2 11.8017 1.48949 29.8285
286 1 15.4389 1.47341 28.545
6298 2 17.2579 1.48949 29.8285
112 1 20.8952 1.47341 28.545
1179 1 1.79845 3.05622 28.5287
7069 2 0.88921 4.65655 29.7955
845 1 4.5267 4.63865 28.5116
7068 2 3.61733 3.0732 29.8124
844 1 7.25468 3.05622 28.5287
6738 2 6.34545 4.65655 29.7955
6771 2 9.07357 3.0732 29.8124
522 1 9.98294 4.63865 28.5116
6485 2 11.8017 4.65655 29.7955
285 1 15.4392 4.63865 28.5116
547 1 12.7109 3.05622 28.5287
6484 2 14.5298 3.0732 29.8124
284 1 18.1672 3.05622 28.5287
6290 2 17.2579 4.65655 29.7955
111 1 20.8954 4.63865 28.5116
6299 2 19.986 3.0732 29.8124
1131 1 1.79877 6.22063 28.4937
7023 2 0.889345 7.82197 29.7594
806 1 4.52714 7.80213 28.4751
7071 2 3.61737 6.23949 29.7778
847 1 7.25501 6.22063 28.4937
6736 2 9.07361 6.23949 29.7778
6737 2 6.34558 7.82197 29.7594
521 1 9.98338 7.80213 28.4751
6462 2 11.8018 7.82197 29.7594
270 1 15.4396 7.80213 28.4751
520 1 12.7112 6.22063 28.4937
6487 2 14.5298 6.23949 29.7778
287 1 18.1675 6.22063 28.4937
6289 2 17.2581 7.82197 29.7594
110 1 20.8959 7.80213 28.4751
6288 2 19.9861 6.23949 29.7778
1132 1 1.79936 9.38307 28.4556
7022 2 0.889758 10.9853 29.7203
805 1 4.52793 10.9634 28.4354
7021 2 3.61763 9.40393 29.7403
804 1 7.2556 9.38307 28.4556
6699 2 6.346 10.9853 29.7203
6739 2 9.07386 9.40393 29.7403
490 1 9.98416 10.9634 28.4354
6461 2 11.8022 10.9853 29.7203
269 1 15.4404 10.9634 28.4354
523 1 12.7118 9.38307 28.4556
6460 2 14.5301 9.40393 29.7403
268 1 18.1681 9.38307 28.4556
6275 2 17.2585 10.9853 29.7203
103 1 20.8966 10.9634 28.4354
6291 2 19.9863 9.40393 29.7403
1084 1 1.80039 12.543 28.4144
6976 2 0.890623 14.1459 29.6782
760 1 4.52925 14.1217 28.3926
7024 2 3.61824 12.566 29.6996
807 1 7.25662 12.543 28.4144
6697 2 9.07448 12.566 29.6996
6698 2 6.34686 14.1459 29.6782
489 1 9.98548 14.1217 28.3926
6434 2 11.8031 14.1459 29.6782
247 1 15.4417 14.1217 28.3926
488 1 12.7129 12.543 28.4144
6463 2 14.5307 12.566 29.6996
271 1 18.1691 12.543 28.4144
6274 2 17.2593 14.1459 29.6782
102 1 20.898 14.1217 28.3926
6273 2 19.987 12.566 29.6996
1085 1 1.80207 15.6996 28.3699
6975 2 0.892192 17.303 29.6327
759 1 4.53136 17.2764 28.3464
6974 2 3.61942 15.7249 29.6559
758 1 7.2583 15.6996 28.3699
6659 2 6.34843 17.303 29.6327
6700 2 9.07566 15.7249 29.6559
454 1 9.9876 17.2764 28.3464
6433 2 11.8047 17.303 29.6327
246 1 15.4438 17.2764 28.3464
491 1 12.7145 15.6996 28.3699
6432 2 14.5319 15.7249 29.6559
245 1 18.1708 15.6996 28.3699
6259 2 17.2609 17.303 29.6327
91 1 20.9001 17.2764 28.3464
6276 2 19.9881 15.7249 29.6559
1044 1 1.80471 18.852 28.3219
6936 2 0.894816 20.4555 29.5837
715 1 4.53462 20.4263 28.2964
6977 2 3.62146 18.8799 29.6087
761 1 7.26094 18.852 28.3219
6657 2 9.0777 18.8799 29.6087
6658 2 6.35105 20.4555 29.5837
453 1 9.99086 20.4263 28.2964
6406 2 11.8073 20.4555 29.5837
223 1 15.4471 20.4263 28.2964
452 1 12.7172 18.852 28.3219
6435 2 14.5339 18.8799 29.6087
248 1 18.1734 18.852 28.3219
6258 2 17.2635 20.4555 29.5837
90 1 20.9033 20.4263 28.2964
6257 2 19.9902 18.8799 29.6087
1045 1 1.80869 21.9991 28.2698
6935 2 0.89896 23.602 29.5303
6934 2 3.62478 22.0296 29.5576
714 1 4.53945 23.5702 28.242
713 1 7.26493 21.9991 28.2698
6660 2 9.08102 22.0296 29.5576
6620 2 6.3552 23.602 29.5303
418 1 9.99569 23.5702 28.242
6405 2 11.8114 23.602 29.5303
455 1 12.7212 21.9991 28.2698
6404 2 14.5373 22.0296 29.5576
222 1 15.4519 23.5702 28.242
221 1 18.1774 21.9991 28.2698
6243 2 17.2677 23.602 29.5303
6260 2 19.9935 22.0296 29.5576
79 1 20.9082 23.5702 28.242
1012 1 1.81446 25.1395 28.213
6937 2 3.62989 25.1726 29.5017
716 1 7.2707 25.1395 28.213
6618 2 9.08613 25.1726 29.5017
416 1 12.7269 25.1395 28.213
6407 2 14.5424 25.1726 29.5017
224 1 18.1832 25.1395 28.213
6241 2 19.9986 25.1726 29.5017
1013 1 1.82227 28.2721 28.1505
6904 2 0.905169 26.741 29.4716
677 1 4.54622 26.7068 28.1825
6902 2 3.63732 28.3073 29.4399
675 1 7.27851 28.2721 28.1505
6619 2 6.36141 26.741 29.4716
6621 2 9.09356 28.3073 29.4399
417 1 10.0025 26.7068 28.1825
6378 2 11.8176 26.741 29.4716
199 1 15.4587 26.7068 28.1825
419 1 12.7347 28.2721 28.1505
6376 2 14.5498 28.3073 29.4399
197 1 18.191 28.2721 28.1505
6242 2 17.2739 26.741 29.4716
78 1 20.9149 26.7068 28.1825
6244 2 20.006 28.3073 29.4399
988 1 1.83193 31.397 28.0821
6903 2 0.913878 29.8713 29.4065
676 1 4.55503 29.8354 28.117
6905 2 3.64729 31.433 29.3716
678 1 7.28817 31.397 28.0821
6586 2 9.10353 31.433 29.3716
6588 2 6.37012 29.8713 29.4065
383 1 10.0113 29.8354 28.117
6377 2 11.8264 29.8713 29.4065
198 1 15.4675 29.8354 28.117
381 1 12.7444 31.397 28.0821
6379 2 14.5598 31.433 29.3716
200 1 18.2006 31.397 28.0821
6227 2 17.2826 29.8713 29.4065
67 1 20.9237 29.8354 28.117
6225 2 20.016 31.433 29.3716
989 1 1.84275 34.5169 28.0104
6880 2 0.924971 32.9927 29.3353
647 1 4.56535 32.9572 28.0463
6878 2 3.65931 34.5509 29.2986
645 1 7.29899 34.5169 28.0104
6587 2 6.38121 32.9927 29.3353
6589 2 9.11555 34.5509 29.2986
382 1 10.0216 32.9572 28.0463
6351 2 11.8374 32.9927 29.3353
175 1 15.4778 32.9572 28.0463
384 1 12.7552 34.5169 28.0104
6349 2 14.5718 34.5509 29.2986
173 1 18.2115 34.5169 28.0104
6226 2 17.2937 32.9927 29.3353
66 1 20.9341 32.9572 28.0463
6228 2 20.028 34.5509 29.2986
972 1 1.8553 37.6377 27.9448
6879 2 0.937859 36.1083 29.263
646 1 4.57682 36.0769 27.9761
6881 2 3.67343 37.6658 29.2305
648 1 7.31154 37.6377 27.9448
6562 2 9.12967 37.6658 29.2305
6564 2 6.3941 36.1083 29.263
355 1 10.0331 36.0769 27.9761
6350 2 11.8503 36.1084 29.263
174 1 15.4893 36.0769 27.9761
353 1 12.7678 37.6377 27.9448
6352 2 14.5859 37.6658 29.2305
176 1 18.224 37.6377 27.9448
6211 2 17.3066 36.1084 29.263
55 1 20.9455 36.0769 27.9761
6209 2 20.0421 37.6658 29.2306
973 1 1.87108 40.7604 27.8966
6864 2 0.953713 39.2235 29.2029
625 1 4.59088 39.1989 27.9178
6862 2 3.69143 40.7811 29.1812
623 1 7.32732 40.7604 27.8966
6563 2 6.40995 39.2235 29.2029
6565 2 9.14766 40.7812 29.1812
354 1 10.0471 39.1989 27.9178
6331 2 11.8662 39.2235 29.2029
152 1 15.5034 39.1989 27.9178
356 1 12.7836 40.7604 27.8966
6329 2 14.6039 40.7811 29.1812
150 1 18.2398 40.7604 27.8966
6210 2 17.3224 39.2235 29.2029
54 1 20.9596 39.1989 27.9178
6212 2 20.0601 40.7811 29.1812
964 1 1.88853 43.8804 27.8711
6863 2 0.973505 42.338 29.1663
624 1 4.60815 42.3211 27.8809
6865 2 3.71167 43.8932 29.1573
626 1 7.34477 43.8804 27.8711
6546 2 9.16791 43.8932 29.1573
6548 2 6.42974 42.338 29.1663
335 1 10.0644 42.3211 27.8809
6330 2 11.886 42.338 29.1663
151 1 15.5206 42.3211 27.8809
333 1 12.801 43.8804 27.8711
6332 2 14.6241 43.8932 29.1573
153 1 18.2572 43.8804 27.8711
6196 2 17.3422 42.338 29.1663
43 1 20.9769 42.3211 27.8809
6194 2 20.0804 43.8932 29.1573
6856 2 0.991818 45.4464 29.1534
965 1 1.9006 46.9931 27.8631
611 1 4.62386 45.4378 27.8653
6854 2 3.72549 46.9976 29.1527
6547 2 6.44805 45.4464 29.1534
609 1 7.35684 46.9931 27.8631
6549 2 9.18173 46.9976 29.1527
334 1 10.0801 45.4378 27.8653
6319 2 11.9043 45.4464 29.1534
136 1 15.5363 45.4378 27.8653
336 1 12.8131 46.9931 27.8631
6317 2 14.638 46.9976 29.1527
6195 2 17.3605 45.4464 29.1534
134 1 18.2693 46.9931 27.8631
42 1 20.9926 45.4379 27.8653
6197 2 20.0942 46.9976 29.1527
6855 2 0.998963 48.5482 29.1527
3226 1 1.89982 50.1012 27.8634
610 1 4.63026 48.547 27.8628
9288 2 3.72465 50.099 29.1527
6537 2 6.4552 48.5482 29.1527
2928 1 7.35606 50.1012 27.8634
8945 2 9.18088 50.099 29.1527
320 1 10.0865 48.547 27.8628
6318 2 11.9114 48.5482 29.1527
135 1 15.5427 48.547 27.8628
2593 1 12.8123 50.1012 27.8633
8680 2 14.6371 50.099 29.1527
6185 2 17.3677 48.5482 29.1527
2344 1 18.2685 50.1012 27.8633
31 1 20.999 48.547 27.8628
8473 2 20.0934 50.099 29.1527
842 1 2.70763 1.50598 31.115
6734 2 4.52702 1.52234 32.3977
518 1 8.16386 1.50598 31.115
6482 2 9.98326 1.52234 32.3977
282 1 13.6201 1.50598 31.115
6286 2 15.4395 1.52234 32.3977
109 1 19.0763 1.50598 31.115
6176 2 20.8957 1.52234 32.3977
802 1 2.70729 4.6749 31.0825
7067 2 1.79863 3.10792 32.382
843 1 5.43557 3.09061 31.0991
6733 2 4.52647 4.69319 32.3655
517 1 8.16353 4.6749 31.0825
6732 2 7.25486 3.10792 32.382
516 1 10.8918 3.09061 31.0991
6458 2 9.98271 4.69319 32.3655
266 1 13.6198 4.6749 31.0825
6285 2 15.4389 4.69319 32.3655
6483 2 12.7111 3.10792 32.382
283 1 16.348 3.09061 31.0991
6284 2 18.1673 3.10792 32.382
1129 1 21.8043 3.09061 31.0991
108 1 19.076 4.6749 31.0825
6175 2 20.8952 4.69319 32.3655
801 1 2.70705 7.84231 31.047
7019 2 1.79809 6.27813 32.3483
800 1 5.43528 6.25882 31.0651
6695 2 4.52597 7.86269 32.3304
486 1 8.16329 7.84231 31.047
6735 2 7.25433 6.27813 32.3483
519 1 10.8915 6.25882 31.0651
6457 2 9.9822 7.86269 32.3304
265 1 13.6195 7.84231 31.047
6271 2 15.4384 7.86269 32.3304
6456 2 12.7106 6.27813 32.3483
264 1 16.3478 6.25882 31.0651
6287 2 18.1668 6.27813 32.3483
1130 1 21.804 6.25882 31.0651
101 1 19.0758 7.84231 31.047
6174 2 20.8947 7.86269 32.3304
756 1 2.70702 11.0078 31.0087
7020 2 1.79764 9.44681 32.3118
803 1 5.43512 9.42532 31.0282
6694 2 4.5256 11.0304 32.2925
485 1 8.16326 11.0078 31.0087
6693 2 7.25388 9.44681 32.3118
484 1 10.8914 9.42532 31.0282
6430 2 9.98184 11.0304 32.2925
243 1 13.6195 11.0078 31.0087
6270 2 15.4381 11.0304 32.2925
6459 2 12.7101 9.44681 32.3118
267 1 16.3476 9.42532 31.0282
6269 2 18.1664 9.44681 32.3118
1082 1 21.8038 9.42532 31.0282
100 1 19.0757 11.0078 31.0087
6171 2 20.8943 11.0304 32.2925
755 1 2.70736 14.1707 30.9674
6972 2 1.79739 12.6135 32.2724
754 1 5.43525 12.5896 30.9884
6655 2 4.52551 14.1959 32.2517
450 1 8.1636 14.1707 30.9674
6696 2 7.25363 12.6135 32.2724
487 1 10.8915 12.5896 30.9884
6429 2 9.98175 14.1959 32.2517
242 1 13.6198 14.1707 30.9674
6255 2 15.438 14.1959 32.2517
6428 2 12.7099 12.6135 32.2724
241 1 16.3477 12.5896 30.9884
6272 2 18.1661 12.6135 32.2724
1083 1 21.804 12.5896 30.9884
89 1 19.0761 14.1707 30.9674
6170 2 20.8942 14.1959 32.2517
711 1 2.70832 17.3303 30.9232
6973 2 1.79752 15.7776 32.2303
757 1 5.43586 15.751 30.9457
6654 2 4.52592 17.3584 32.2081
449 1 8.16456 17.3303 30.9232
6653 2 7.25375 15.7776 32.2303
448 1 10.8921 15.751 30.9457
6402 2 9.98216 17.3584 32.2081
219 1 13.6208 17.3303 30.9232
6254 2 15.4384 17.3584 32.2081
6431 2 12.71 15.7776 32.2303
244 1 16.3483 15.751 30.9457
6253 2 18.1662 15.7776 32.2303
1042 1 21.8046 15.751 30.9457
88 1 19.077 17.3303 30.9232
6167 2 20.8946 17.3584 32.2081
710 1 2.7103 20.4853 30.8755
6932 2 1.7983 18.9381 32.185
709 1 5.43727 18.9084 30.8998
6616 2 4.52717 20.5167 32.1611
414 1 8.16653 20.4853 30.8755
6656 2 7.25454 18.9381 32.185
451 1 10.8935 18.9084 30.8998
6401 2 9.98341 20.5167 32.1611
218 1 13.6228 20.4853 30.8755
6239 2 15.4397 20.5167 32.1611
6400 2 12.7108 18.9381 32.185
217 1 16.3498 18.9084 30.8998
6256 2 18.167 18.9381 32.185
1043 1 21.806 18.9084 30.8998
77 1 19.079 20.4853 30.8755
6166 2 20.8959 20.5167 32.1611
6933 2 1.80015 22.0938 32.1362
673 1 2.71383 23.6343 30.8238
712 1 5.43994 22.0607 30.8503
6614 2 7.25638 22.0938 32.1362
413 1 8.17006 23.6343 30.8238
412 1 10.8962 22.0607 30.8503
6403 2 12.7126 22.0938 32.1362
195 1 13.6263 23.6343 30.8238
220 1 16.3524 22.0607 30.8503
6237 2 18.1689 22.0938 32.1362
1010 1 21.8087 22.0607 30.8503
76 1 19.0825 23.6343 30.8238
6900 2 1.80369 25.2427 32.0828
6615 2 4.52977 23.6693 32.1102
671 1 5.44452 25.2059 30.7961
6617 2 7.25993 25.2427 32.0828
6374 2 9.98601 23.6693 32.1102
415 1 10.9008 25.2059 30.7961
6238 2 15.4423 23.6693 32.1102
6372 2 12.7162 25.2427 32.0828
193 1 16.357 25.2059 30.7961
6240 2 18.1724 25.2427 32.0828
6163 2 20.8985 23.6693 32.1102
1011 1 21.8132 25.2059 30.7961
672 1 2.71964 26.7751 30.7668
6901 2 1.8098 28.3823 32.0231
674 1 5.45175 28.3417 30.7359
6584 2 4.53448 26.8139 32.0539
379 1 8.17587 26.7751 30.7668
6582 2 7.26604 28.3823 32.0231
377 1 10.908 28.3417 30.7359
6373 2 9.99072 26.8139 32.0539
194 1 13.6321 26.7751 30.7668
6223 2 15.447 26.8139 32.0539
6375 2 12.7223 28.3823 32.0231
196 1 16.3642 28.3417 30.7359
6221 2 18.1785 28.3823 32.0231
986 1 21.8205 28.3417 30.7359
65 1 19.0884 26.7751 30.7668
6162 2 20.9032 26.8139 32.0539
643 1 2.72842 29.9052 30.7029
6876 2 1.81944 31.5096 31.9548
641 1 5.46208 31.4655 30.6677
6583 2 4.54225 29.9477 31.9902
378 1 8.18466 29.9052 30.7029
6585 2 7.27568 31.5096 31.9548
380 1 10.9183 31.4655 30.6677
6347 2 9.99849 29.9477 31.9902
171 1 13.6409 29.9052 30.7029
6222 2 15.4547 29.9477 31.9902
6345 2 12.7319 31.5096 31.9548
169 1 16.3746 31.4655 30.6677
6224 2 18.1882 31.5096 31.9548
987 1 21.8308 31.4655 30.6677
64 1 19.0971 29.9052 30.7029
6159 2 20.911 29.9477 31.9902
642 1 2.74014 33.0228 30.6303
6877 2 1.83297 34.6224 31.8761
644 1 5.47483 34.5775 30.5909
6560 2 4.55386 33.0678 31.9167
351 1 8.19637 33.0228 30.6303
6558 2 7.2892 34.6224 31.8761
349 1 10.9311 34.5775 30.5909
6346 2 10.0101 33.0678 31.9167
170 1 13.6526 33.0228 30.6303
6207 2 15.4663 33.0678 31.9167
6348 2 12.7454 34.6224 31.8761
172 1 16.3873 34.5775 30.5909
6205 2 18.2017 34.6224 31.8761
970 1 21.8435 34.5775 30.5909
53 1 19.1089 33.0228 30.6303
6158 2 20.9226 33.0678 31.9167
621 1 2.75366 36.1312 30.5509
6860 2 1.84995 37.7241 31.7945
619 1 5.48974 37.6862 30.5138
6559 2 4.56906 36.174 31.8343
350 1 8.2099 36.1312 30.5509
6561 2 7.30619 37.7241 31.7945
352 1 10.946 37.6862 30.5138
6327 2 10.0253 36.174 31.8343
148 1 13.6661 36.1312 30.5509
6206 2 15.4815 36.174 31.8343
6325 2 12.7624 37.7241 31.7945
146 1 16.4022 37.6862 30.5138
6208 2 18.2187 37.7241 31.7945
971 1 21.8585 37.6862 30.5138
52 1 19.1224 36.1312 30.5509
6155 2 20.9378 36.174 31.8343
620 1 2.77182 39.2424 30.4824
6861 2 1.87387 40.8245 31.7379
962 1 0.0551421 40.7991 30.4588
622 1 5.51138 40.7991 30.4588
6544 2 4.58903 39.2745 31.762
331 1 8.22806 39.2424 30.4824
6542 2 7.33011 40.8245 31.7379
329 1 10.9676 40.7991 30.4588
6326 2 10.0453 39.2746 31.762
147 1 13.6843 39.2424 30.4824
6192 2 15.5015 39.2746 31.762
6328 2 12.7863 40.8245 31.7379
149 1 16.4239 40.7991 30.4588
6190 2 18.2426 40.8245 31.7379
41 1 19.1405 39.2424 30.4824
6154 2 20.9577 39.2745 31.762
607 1 2.79711 42.355 30.4447
6852 2 1.90442 43.9202 31.7215
963 1 0.0810555 43.9088 30.4384
605 1 5.53729 43.9088 30.4384
6543 2 4.6173 42.3737 31.7254
330 1 8.25335 42.355 30.4447
6545 2 7.36066 43.9202 31.7215
332 1 10.9935 43.9088 30.4384
6315 2 10.0736 42.3736 31.7253
132 1 13.7096 42.355 30.4447
6191 2 15.5298 42.3736 31.7254
6313 2 12.8169 43.9202 31.7215
130 1 16.4498 43.9088 30.4384
6193 2 18.2731 43.9202 31.7215
40 1 19.1658 42.355 30.4447
6151 2 20.986 42.3737 31.7254
606 1 2.82145 45.4581 30.4385
961 1 0.100985 47.0035 30.4409
6853 2 1.92536 47.0067 31.7308
6536 2 4.64555 45.4633 31.7269
608 1 5.55722 47.0035 30.4409
595 1 3.76258 47.011 33.0297
319 1 8.27769 45.4581 30.4385
6534 2 7.3816 47.0067 31.7308
316 1 9.21882 47.011 33.0297
6314 2 10.1018 45.4633 31.7269
317 1 11.0135 47.0035 30.4409
131 1 13.7339 45.4581 30.4385
6184 2 15.558 45.4633 31.7269
6316 2 12.8378 47.0067 31.7308
118 1 14.6751 47.011 33.0297
133 1 16.4697 47.0035 30.4409
6182 2 18.2941 47.0067 31.7308
30 1 19.1902 45.4581 30.4385
6150 2 21.0143 45.4633 31.7269
28 1 20.1313 47.011 33.0297
598 1 2.83094 48.5492 30.4413
596 1 1.03662 48.5515 33.0303
9242 2 1.92417 50.094 31.7299
3225 1 0.0997704 50.095 30.4404
6535 2 4.6558 48.5504 31.7316
2889 1 5.55601 50.095 30.4404
2888 1 3.76147 50.0918 33.0293
318 1 8.28718 48.5492 30.4413
308 1 6.49286 48.5515 33.0303
8944 2 7.38041 50.094 31.7299
2561 1 9.21771 50.0918 33.0293
6308 2 10.112 48.5504 31.7316
119 1 11.9491 48.5515 33.0303
2592 1 11.0122 50.095 30.4404
121 1 13.7434 48.5492 30.4413
6183 2 15.5683 48.5504 31.7316
8657 2 12.8366 50.094 31.7299
2328 1 14.6739 50.0918 33.0293
20 1 17.4053 48.5515 33.0303
2329 1 16.4685 50.095 30.4404
8472 2 18.2929 50.094 31.7299
29 1 19.1997 48.5492 30.4413
6147 2 21.0245 48.5504 31.7316
2153 1 20.1302 50.0918 33.0293
798 1 0.889501 1.53908 33.6835
6730 2 2.70934 1.55568 34.9655
514 1 6.34574 1.53908 33.6835
6454 2 8.16558 1.55568 34.9655
262 1 11.802 1.53908 33.6835
6282 2 13.6218 1.55568 34.9655
106 1 17.2582 1.53908 33.6835
6173 2 19.0781 1.55568 34.9655
797 1 0.888657 4.71191 33.6517
6691 2 2.70833 4.73052 34.9338
796 1 3.61721 3.12562 33.668
6731 2 5.43697 3.14321 34.95
482 1 6.3449 4.71191 33.6517
515 1 9.07344 3.12562 33.668
6453 2 8.16457 4.73052 34.9338
261 1 11.8011 4.71191 33.6517
6452 2 10.8932 3.14321 34.95
260 1 14.5297 3.12562 33.668
6267 2 13.6208 4.73052 34.9338
98 1 17.2574 4.71191 33.6517
6283 2 16.3494 3.14321 34.95
7017 2 21.8057 3.14321 34.95
107 1 19.9859 3.12562 33.668
6172 2 19.077 4.73052 34.9338
752 1 0.887786 7.88357 33.6171
6690 2 2.70726 7.90437 34.8994
799 1 3.61634 6.2979 33.6347
6689 2 5.43592 6.31758 34.9169
480 1 9.07258 6.2979 33.6347
481 1 6.34402 7.88357 33.6171
6426 2 8.1635 7.90437 34.8994
239 1 11.8003 7.88357 33.6171
6455 2 10.8922 6.31758 34.9169
263 1 14.5288 6.2979 33.6347
6266 2 13.6197 7.90437 34.8994
97 1 17.2565 7.88357 33.6171
6265 2 16.3484 6.31758 34.9169
7018 2 21.8046 6.31758 34.9169
96 1 19.9851 6.2979 33.6347
6169 2 19.076 7.90437 34.8994
751 1 0.886964 11.0537 33.5798
6651 2 2.70619 11.077 34.8623
750 1 3.61548 9.46886 33.5988
6692 2 5.43484 9.49084 34.8812
446 1 6.3432 11.0537 33.5798
483 1 9.07172 9.46886 33.5988
6425 2 8.16243 11.077 34.8623
238 1 11.7994 11.0537 33.5798
6424 2 10.8911 9.49084 34.8812
237 1 14.528 9.46886 33.5988
6251 2 13.6187 11.077 34.8623
86 1 17.2557 11.0537 33.5798
6268 2 16.3473 9.49084 34.8812
6970 2 21.8036 9.49084 34.8812
99 1 19.9842 9.46886 33.5988
6168 2 19.0749 11.077 34.8623
707 1 0.886313 14.2219 33.54
6650 2 2.7052 14.2479 34.8227
753 1 3.61473 12.6381 33.5602
6649 2 5.43379 12.6627 34.8428
444 1 9.07096 12.6381 33.5602
445 1 6.34255 14.2219 33.54
6398 2 8.16144 14.2479 34.8227
215 1 11.7988 14.2219 33.54
6427 2 10.89 12.6627 34.8428
240 1 14.5272 12.6381 33.5602
6250 2 13.6177 14.2479 34.8227
85 1 17.255 14.2219 33.54
6249 2 16.3463 12.6627 34.8428
6971 2 21.8025 12.6627 34.8428
84 1 19.9834 12.6381 33.5602
6165 2 19.0739 14.2479 34.8227
706 1 0.88603 17.3875 33.4975
6612 2 2.70447 17.4167 34.7804
705 1 3.61423 15.8051 33.519
6652 2 5.43291 15.8327 34.8019
410 1 6.34227 17.3875 33.4975
447 1 9.07047 15.8051 33.519
6397 2 8.16071 17.4167 34.7804
214 1 11.7985 17.3875 33.4975
6396 2 10.8892 15.8327 34.8019
213 1 14.5267 15.8051 33.519
6235 2 13.6169 17.4167 34.7804
74 1 17.2547 17.3875 33.4975
6252 2 16.3454 15.8327 34.8019
6930 2 21.8016 15.8327 34.8019
87 1 19.9829 15.8051 33.519
6164 2 19.0732 17.4167 34.7804
669 1 0.886435 20.5495 33.4521
6611 2 2.70424 20.5824 34.7353
708 1 3.61424 18.969 33.4752
6610 2 5.43239 19 34.7583
408 1 9.07048 18.969 33.4752
409 1 6.34267 20.5495 33.4521
6370 2 8.16048 20.5824 34.7353
191 1 11.7989 20.5495 33.4521
6399 2 10.8886 19 34.7583
216 1 14.5267 18.969 33.4752
6234 2 13.6167 20.5824 34.7353
73 1 17.2551 20.5495 33.4521
6233 2 16.3449 19 34.7583
6931 2 21.8011 19 34.7583
72 1 19.983 18.969 33.4752
6161 2 19.073 20.5824 34.7353
667 1 3.61517 22.1286 33.4282
6613 2 5.43256 22.1637 34.7115
411 1 9.07141 22.1286 33.4282
6368 2 10.8888 22.1637 34.7115
189 1 14.5276 22.1286 33.4282
6236 2 16.345 22.1637 34.7115
6898 2 21.8013 22.1637 34.7115
75 1 19.9839 22.1286 33.4282
668 1 0.888061 23.7063 33.4034
6580 2 2.70494 23.7436 34.6868
670 1 3.61771 25.282 33.3775
6578 2 5.43396 25.3217 34.6608
375 1 6.3443 23.7063 33.4034
6369 2 8.16118 23.7436 34.6868
373 1 9.07395 25.282 33.3775
190 1 11.8005 23.7063 33.4034
6371 2 10.8902 25.3217 34.6608
6219 2 13.6174 23.7436 34.6868
192 1 14.5302 25.282 33.3775
6217 2 16.3464 25.3217 34.6608
62 1 17.2568 23.7063 33.4034
60 1 19.9864 25.282 33.3775
6899 2 21.8027 25.3217 34.6608
6160 2 19.0737 23.7436 34.6868
6579 2 2.70729 26.8977 34.6334
639 1 0.891794 26.8555 33.3503
6581 2 5.43757 28.471 34.6042
637 1 3.62296 28.4262 33.3216
6343 2 8.16353 26.8977 34.6334
376 1 9.0792 28.4262 33.3216
374 1 6.34803 26.8555 33.3503
6341 2 10.8938 28.471 34.6042
167 1 11.8043 26.8555 33.3503
6218 2 13.6198 26.8977 34.6334
165 1 14.5354 28.4262 33.3216
6220 2 16.35 28.471 34.6042
61 1 17.2605 26.8555 33.3503
6157 2 19.076 26.8977 34.6334
63 1 19.9917 28.4262 33.3216
6874 2 21.8063 28.471 34.6042
6556 2 2.71253 30.0409 34.5726
638 1 0.89893 29.9934 33.291
6554 2 5.44489 31.6065 34.5381
640 1 3.63231 31.5562 33.258
6342 2 8.16877 30.0409 34.5726
347 1 6.35517 29.9934 33.291
345 1 9.08855 31.5562 33.258
6344 2 10.9011 31.6065 34.5381
166 1 11.8114 29.9934 33.291
6203 2 13.625 30.0409 34.5726
168 1 14.5448 31.5562 33.258
6201 2 16.3574 31.6065 34.5381
50 1 17.2676 29.9934 33.291
6156 2 19.0812 30.0409 34.5726
48 1 20.001 31.5562 33.258
6875 2 21.8136 31.6065 34.5381
6555 2 2.72232 33.1668 34.4998
617 1 0.910618 33.1138 33.2221
6557 2 5.45744 34.721 34.4569
615 1 3.64626 34.6655 33.1827
6323 2 8.17856 33.1668 34.4998
348 1 9.1025 34.6655 33.1827
346 1 6.36686 33.1138 33.2221
6321 2 10.9137 34.721 34.4569
144 1 11.8231 33.1138 33.2221
6202 2 13.6348 33.1668 34.4998
142 1 14.5587 34.6655 33.1827
6204 2 16.3699 34.721 34.4569
49 1 17.2793 33.1138 33.2221
6153 2 19.091 33.1668 34.4998
51 1 20.015 34.6655 33.1827
6858 2 21.8262 34.721 34.4569
6540 2 2.73812 36.2677 34.409
616 1 0.926109 36.2114 33.1393
599 1 1.82006 37.8866 35.7079
6538 2 5.47652 37.8076 34.3572
618 1 3.66188 37.7547 33.0934
322 1 4.54203 36.3523 35.7503
6322 2 8.19435 36.2677 34.409
327 1 6.38235 36.2114 33.1393
325 1 9.11812 37.7547 33.0934
324 1 7.2763 37.8866 35.7079
6324 2 10.9327 37.8077 34.3572
143 1 11.8386 36.2114 33.1393
124 1 9.99827 36.3523 35.7503
6188 2 13.6506 36.2677 34.409
145 1 14.5744 37.7547 33.0934
33 1 15.4545 36.3523 35.7503
122 1 12.7325 37.8867 35.7079
6186 2 16.389 37.8077 34.3572
38 1 17.2948 36.2114 33.1393
35 1 18.1888 37.8867 35.7079
6152 2 19.1068 36.2677 34.409
36 1 20.0306 37.7547 33.0934
6859 2 21.8452 37.8076 34.3572
5 1 20.9107 36.3523 35.7503
6539 2 2.75988 39.3429 34.3118
603 1 0.946075 39.3014 33.0533
600 1 1.84282 40.9454 35.6164
6541 2 5.50897 40.8798 34.2856
601 1 3.69072 40.8505 33.0281
311 1 4.55556 39.4058 35.652
6311 2 8.21613 39.3429 34.3118
328 1 9.14696 40.8505 33.0281
326 1 6.40231 39.3014 33.0533
309 1 7.29905 40.9454 35.6164
6309 2 10.9653 40.8797 34.2855
128 1 11.8585 39.3014 33.0533
123 1 10.0118 39.4058 35.6519
6187 2 13.6724 39.3429 34.3118
126 1 14.6032 40.8505 33.0281
23 1 15.4681 39.4058 35.6519
125 1 12.7553 40.9454 35.6164
6189 2 16.4215 40.8797 34.2855
37 1 17.3148 39.3014 33.0533
21 1 18.2116 40.9454 35.6164
6149 2 19.1286 39.3429 34.3118
39 1 20.0594 40.8506 33.0281
6850 2 21.8777 40.8798 34.2856
4 1 20.9243 39.4059 35.652
6532 2 2.80056 42.4121 34.2769
602 1 0.983159 42.4002 33.0118
6851 2 0.100746 43.9384 34.2959
593 1 1.93772 43.9323 35.6492
6530 2 5.55701 43.9384 34.2959
604 1 3.73452 43.9392 33.021
310 1 4.63951 42.4379 35.6231
6310 2 8.25672 42.4122 34.2771
315 1 6.43939 42.4002 33.0118
313 1 9.19075 43.9393 33.021
312 1 7.39397 43.9323 35.6492
6312 2 11.0132 43.9385 34.296
127 1 11.8957 42.4002 33.0118
116 1 10.0956 42.4382 35.6234
6180 2 13.713 42.4122 34.2771
129 1 14.647 43.9393 33.021
22 1 15.5518 42.4382 35.6234
114 1 12.8502 43.9323 35.6492
6178 2 16.4694 43.9385 34.296
27 1 17.3519 42.4002 33.0118
24 1 18.3064 43.9323 35.6492
6148 2 19.1693 42.412 34.2769
25 1 20.1032 43.9392 33.021
3 1 21.0082 42.4379 35.6231
6531 2 2.84925 45.4733 34.3104
597 1 1.02651 45.4715 33.0289
594 1 1.96469 47.0127 35.6225
6849 2 0.135409 47.0126 34.3173
307 1 4.68315 45.4765 35.6268
6533 2 5.59166 47.0126 34.3173
6307 2 8.3055 45.4733 34.3103
314 1 6.48276 45.4715 33.0289
305 1 7.4209 47.0127 35.6224
120 1 11.939 45.4715 33.0289
115 1 10.1394 45.4765 35.6267
6305 2 11.0479 47.0125 34.3173
6179 2 13.7617 45.4733 34.3103
19 1 15.5956 45.4765 35.6267
117 1 12.8771 47.0127 35.6224
26 1 17.3952 45.4715 33.0289
6181 2 16.5041 47.0125 34.3173
17 1 18.3334 47.0127 35.6225
6146 2 19.218 45.4733 34.3104
2 1 21.0519 45.4765 35.6268
6529 2 2.86816 48.5527 34.32
2842 1 1.96489 50.093 35.6242
9241 2 0.133568 50.0925 34.316
306 1 4.69398 48.5546 35.6267
8905 2 5.5898 50.0926 34.316
6306 2 8.32439 48.5526 34.32
2560 1 7.42113 50.093 35.6242
113 1 10.1502 48.5545 35.6268
8656 2 11.046 50.0926 34.316
6177 2 13.7806 48.5526 34.32
18 1 15.6064 48.5546 35.6268
2305 1 12.8774 50.093 35.6242
8457 2 16.5023 50.0926 34.316
2152 1 18.3336 50.093 35.6242
6145 2 19.2369 48.5527 34.32
1 1 21.0627 48.5546 35.6267
8318 2 0.892524 1.58943 37.5316
8320 2 3.62126 -0.000228235 37.5462
478 1 4.52844 1.57262 36.2505
8286 2 9.0775 -0.000228235 37.5462
8287 2 6.34876 1.58943 37.5316
8254 2 11.805 1.58943 37.5316
258 1 9.98468 1.57262 36.2505
8256 2 14.5337 -0.000228235 37.5462
94 1 15.4409 1.57262 36.2505
8223 2 17.2612 1.58943 37.5316
8222 2 19.99 -0.000228235 37.5462
16 1 20.8972 1.57262 36.2505
8317 2 0.891164 4.76837 37.5003
795 1 1.79971 3.16116 36.2352
8316 2 3.61998 3.17897 37.5163
477 1 4.52718 4.74952 36.2191
8284 2 6.3474 4.76837 37.5003
8288 2 9.07622 3.17897 37.5163
476 1 7.25595 3.16116 36.2352
8253 2 11.8036 4.76837 37.5003
235 1 9.98342 4.74952 36.2191
8252 2 14.5325 3.17897 37.5163
93 1 15.4397 4.74952 36.2191
259 1 12.7122 3.16116 36.2352
8220 2 17.2599 4.76837 37.5003
92 1 18.1684 3.16116 36.2352
8224 2 19.9887 3.17897 37.5163
15 1 20.8959 4.74952 36.2191
8314 2 0.889652 7.94676 37.4662
748 1 1.79838 6.3377 36.2024
8319 2 3.61854 6.35764 37.4836
442 1 4.52578 7.92567 36.1851
8282 2 9.07478 6.35764 37.4836
8283 2 6.34589 7.94676 37.4662
479 1 7.25461 6.3377 36.2024
8250 2 11.8021 7.94676 37.4662
234 1 9.98202 7.92567 36.1851
8255 2 14.531 6.35764 37.4836
82 1 15.4383 7.92567 36.1851
233 1 12.7109 6.3377 36.2024
8219 2 17.2584 7.94676 37.4662
95 1 18.1671 6.3377 36.2024
8218 2 19.9873 6.35764 37.4836
14 1 20.8945 7.92567 36.1851
8313 2 0.888018 11.1245 37.4296
749 1 1.79692 9.5134 36.1671
8312 2 3.61697 9.53572 37.4482
441 1 4.52429 11.1009 36.1485
8280 2 6.34426 11.1245 37.4296
8285 2 9.07321 9.53572 37.4482
440 1 7.25316 9.5134 36.1671
8249 2 11.8005 11.1245 37.4296
211 1 9.98053 11.1009 36.1485
8248 2 14.5294 9.53572 37.4482
81 1 15.4368 11.1009 36.1485
236 1 12.7094 9.5134 36.1671
8216 2 17.2567 11.1245 37.4296
80 1 18.1656 9.5134 36.1671
8221 2 19.9857 9.53572 37.4482
13 1 20.893 11.1009 36.1485
8310 2 0.886315 14.3014 37.3905
703 1 1.79541 12.6881 36.1293
14559 1 2.70458 14.329 38.6758
8315 2 3.61529 12.7131 37.4103
406 1 4.52277 14.2749 36.1096
8278 2 9.07153 12.7131 37.4103
8279 2 6.34255 14.3014 37.3905
443 1 7.25165 12.6881 36.1293
14454 1 8.16082 14.329 38.6758
8246 2 11.7988 14.3014 37.3905
210 1 9.97901 14.2749 36.1096
8251 2 14.5278 12.7131 37.4103
70 1 15.4352 14.2749 36.1096
209 1 12.7079 12.6881 36.1293
14270 1 13.6171 14.329 38.6758
8215 2 17.255 14.3014 37.3905
83 1 18.1641 12.6881 36.1293
8214 2 19.984 12.7131 37.4103
12 1 20.8915 14.2749 36.1096
13980 1 19.0733 14.329 38.6758
8309 2 0.884629 17.4772 37.349
704 1 1.79391 15.8614 36.0892
14548 1 2.70227 17.5089 38.635
8308 2 3.61358 15.8894 37.3701
405 1 4.52133 17.4474 36.0683
14561 1 5.43156 15.919 38.6556
8276 2 6.34087 17.4772 37.349
8281 2 9.06982 15.8894 37.3701
404 1 7.25015 15.8614 36.0892
14453 1 8.15851 17.5089 38.635
8245 2 11.7971 17.4772 37.349
187 1 9.97757 17.4474 36.0683
14452 1 10.8878 15.919 38.6556
8244 2 14.5261 15.8894 37.3701
69 1 15.4338 17.4474 36.0683
212 1 12.7064 15.8614 36.0892
14251 1 13.6147 17.5089 38.635
8212 2 17.2533 17.4772 37.349
68 1 18.1626 15.8614 36.0892
14272 1 16.344 15.919 38.6556
8217 2 19.9823 15.8894 37.3701
11 1 20.89 17.4474 36.0683
14586 1 21.8003 15.919 38.6556
13979 1 19.071 17.5089 38.635
8306 2 0.883106 20.6514 37.305
665 1 1.79257 19.0328 36.0468
14547 1 2.69985 20.6885 38.5921
8311 2 3.61195 19.0645 37.3274
371 1 4.52016 20.6177 36.0247
14546 1 5.42919 19.0987 38.6138
8274 2 9.06819 19.0645 37.3274
8275 2 6.33934 20.6514 37.305
407 1 7.24881 19.0328 36.0468
14431 1 8.15609 20.6885 38.5921
8242 2 11.7956 20.6514 37.305
186 1 9.9764 20.6177 36.0247
14455 1 10.8854 19.0987 38.6138
8247 2 14.5244 19.0645 37.3274
58 1 15.4326 20.6177 36.0247
185 1 12.7051 19.0328 36.0468
14250 1 13.6123 20.6885 38.5921
8211 2 17.2518 20.6514 37.305
71 1 18.1613 19.0328 36.0468
14249 1 16.3417 19.0987 38.6138
8210 2 19.9807 19.0645 37.3274
10 1 20.8889 20.6177 36.0247
14587 1 21.7979 19.0987 38.6138
13958 1 19.0686 20.6885 38.5921
666 1 1.79165 22.2017 36.002
8304 2 3.6106 22.2377 37.2819
14549 1 5.42673 22.2783 38.5699
8277 2 9.06684 22.2377 37.2819
369 1 7.24789 22.2017 36.002
14429 1 10.883 22.2783 38.5699
8240 2 14.5231 22.2377 37.2819
188 1 12.7041 22.2017 36.002
56 1 18.1604 22.2017 36.002
14252 1 16.3392 22.2783 38.5699
8213 2 19.9793 22.2377 37.2819
14584 1 21.7954 22.2783 38.5699
8305 2 0.882001 23.8232 37.258
635 1 1.79159 25.3669 35.9545
14536 1 2.69733 23.8682 38.5472
370 1 4.51959 23.7849 35.9786
8307 2 3.60986 25.4077 37.233
14534 1 5.42411 25.4582 38.524
8272 2 6.33824 23.8232 37.258
8270 2 9.0661 25.4077 37.233
372 1 7.24782 25.3669 35.9545
14430 1 8.15357 23.8682 38.5472
8241 2 11.7945 23.8232 37.258
163 1 9.97583 23.7849 35.9786
14432 1 10.8803 25.4582 38.524
57 1 15.4321 23.7849 35.9786
8243 2 14.5223 25.4077 37.233
161 1 12.7041 25.3669 35.9545
14223 1 13.6098 23.8682 38.5472
8208 2 17.2507 23.8232 37.258
59 1 18.1603 25.3669 35.9545
14221 1 16.3366 25.4582 38.524
9 1 20.8883 23.7849 35.9786
8206 2 19.9786 25.4077 37.233
14585 1 21.7928 25.4582 38.524
13957 1 19.066 23.8682 38.5472
8302 2 0.881802 26.9908 37.2067
636 1 1.79324 28.5263 35.9038
14535 1 2.6945 27.0486 38.5004
8300 2 3.61045 28.572 37.1788
343 1 4.52023 26.9475 35.9296
14537 1 5.4208 28.6397 38.4764
8271 2 6.33804 26.9908 37.2067
8273 2 9.06669 28.572 37.1788
341 1 7.24947 28.5263 35.9038
14407 1 8.15074 27.0486 38.5004
8238 2 11.7943 26.9908 37.2067
162 1 9.97647 26.9475 35.9296
14405 1 10.877 28.6397 38.4764
8236 2 14.5229 28.572 37.1788
46 1 15.4327 26.9475 35.9296
164 1 12.7057 28.5263 35.9038
14222 1 13.607 27.0486 38.5004
8207 2 17.2505 26.9908 37.2067
44 1 18.162 28.5263 35.9038
14224 1 16.3333 28.6397 38.4764
8209 2 19.9792 28.572 37.1788
8 1 20.8889 26.9475 35.9296
14582 1 21.7895 28.6397 38.4764
13928 1 19.0632 27.0486 38.5004
8301 2 0.883522 30.1506 37.1486
613 1 1.79812 31.6752 35.849
14524 1 2.6901 30.2323 38.4523
8303 2 3.61382 31.7254 37.1153
14522 1 5.41424 31.8267 38.4282
342 1 4.52326 30.1025 35.877
8266 2 9.07006 31.7254 37.1153
8268 2 6.33976 30.1506 37.1486
344 1 7.25436 31.6752 35.849
14406 1 8.14634 30.2323 38.4523
8237 2 11.796 30.1506 37.1486
14408 1 10.8705 31.8267 38.4282
140 1 9.97949 30.1025 35.877
8239 2 14.5263 31.7254 37.1153
45 1 15.4357 30.1025 35.877
138 1 12.7106 31.6752 35.849
14188 1 13.6026 30.2323 38.4523
8204 2 17.2522 30.1506 37.1486
14186 1 16.3267 31.8267 38.4282
47 1 18.1668 31.6752 35.849
14583 1 21.783 31.8267 38.4282
8202 2 19.9825 31.7254 37.1153
7 1 20.892 30.1025 35.877
13927 1 19.0588 30.2323 38.4523
8298 2 0.889187 33.2947 37.0778
14523 1 2.67939 33.4255 38.4051
614 1 1.80739 34.8028 35.7863
8296 2 3.62246 34.8565 37.0342
14525 1 5.3974 35.0288 38.382
323 1 4.53038 33.2427 35.8191
8267 2 6.34543 33.2947 37.0778
8269 2 9.0787 34.8565 37.0342
14383 1 8.13563 33.4255 38.4051
321 1 7.26363 34.8028 35.7863
8234 2 11.8017 33.2947 37.0778
14381 1 10.8536 35.0288 38.382
139 1 9.98662 33.2427 35.8191
8232 2 14.5349 34.8565 37.0342
14187 1 13.5919 33.4255 38.4051
34 1 15.4429 33.2427 35.8191
141 1 12.7199 34.8028 35.7863
8203 2 17.2579 33.2947 37.0778
14189 1 16.3099 35.0288 38.382
32 1 18.1761 34.8028 35.7863
14580 1 21.7661 35.0288 38.382
8205 2 19.9912 34.8565 37.0342
13890 1 19.0481 33.4255 38.4051
6 1 20.8991 33.2427 35.8191
8297 2 0.900773 36.4073 36.9821
14512 1 2.64757 36.6433 38.3553
8299 2 3.64086 37.9408 36.9177
14510 1 5.31111 38.2899 38.3557
8262 2 9.0971 37.9408 36.9176
8264 2 6.35701 36.4073 36.9821
14382 1 8.10381 36.6433 38.3553
8233 2 11.8132 36.4073 36.9821
14384 1 10.7674 38.2899 38.3557
8235 2 14.5533 37.9408 36.9177
14152 1 13.5601 36.6433 38.3553
8200 2 17.2695 36.4073 36.9821
14150 1 16.2236 38.2899 38.3557
8198 2 20.0096 37.9408 36.9177
13889 1 19.0163 36.6433 38.3553
14581 1 21.6798 38.2899 38.3557
8294 2 0.919667 39.4569 36.8522
14511 1 2.35977 40.0941 38.407
8292 2 3.64262 40.9469 36.8018
14513 1 4.86217 41.8241 38.3523
8263 2 6.37589 39.4569 36.8522
8265 2 9.09883 40.9471 36.8019
14359 1 7.81601 40.0941 38.407
8230 2 11.8321 39.4568 36.8522
14357 1 10.3184 41.8241 38.3522
8228 2 14.5551 40.9471 36.8018
14151 1 13.2722 40.0941 38.407
8199 2 17.2884 39.4568 36.8521
14153 1 15.7746 41.8241 38.3522
8201 2 20.0113 40.9469 36.8017
13845 1 18.7285 40.0941 38.407
14578 1 21.2309 41.8241 38.3523
8293 2 0.96638 42.4207 36.8677
14500 1 2.17766 43.6656 38.2873
8295 2 3.77586 43.9267 36.8695
8260 2 6.42267 42.4207 36.8677
14358 1 7.63367 43.6656 38.2875
8258 2 9.23321 43.9247 36.8684
8229 2 11.8788 42.4208 36.8678
14116 1 13.0899 43.6656 38.2875
8231 2 14.6894 43.9247 36.8684
8196 2 17.335 42.4208 36.8678
13844 1 18.5464 43.6656 38.2873
8194 2 20.1446 43.9267 36.8695
8291 2 1.09206 45.4638 36.8901
14499 1 2.17893 46.9685 38.2305
14498 1 4.90603 45.3405 38.232
8289 2 3.83352 47.007 36.9025
8259 2 6.54799 45.4637 36.89
14336 1 7.63417 46.9703 38.2314
8261 2 9.29015 47.0072 36.9022
8227 2 12.0042 45.4637 36.89
14360 1 10.3624 45.3407 38.2321
14115 1 13.0904 46.9703 38.2314
8225 2 14.7464 47.0072 36.9023
8195 2 17.4607 45.4638 36.8901
14114 1 15.8186 45.3407 38.2321
14579 1 21.2747 45.3405 38.232
13799 1 18.5477 46.9685 38.2305
8197 2 20.2022 47.007 36.9025
8290 2 1.108 48.5557 36.9005
14489 1 2.17468 50.1599 38.2389
10496 2 3.82925 50.1052 36.902
14501 1 4.91012 48.5677 38.2368
10462 2 9.28549 50.1052 36.902
8257 2 6.5643 48.5556 36.9008
14335 1 7.63089 50.1599 38.2389
8226 2 12.0205 48.5556 36.9008
14334 1 10.3664 48.5677 38.2368
10432 2 14.7418 50.1052 36.902
14081 1 13.0871 50.1599 38.2389
8193 2 17.4767 48.5557 36.9005
14117 1 15.8225 48.5677 38.2368
13798 1 18.5434 50.1599 38.2389
10398 2 20.198 50.1052 36.902
14577 1 21.2788 48.5677 38.2369
14575 1 2.71206 1.60653 38.8159
14567 1 0.896633 1.64071 41.3795
20231 2 1.80547 0.0318704 40.1107
14574 1 5.44088 0.0158767 38.8304
14573 1 3.62553 0.048088 41.3941
20198 2 4.53287 1.62349 40.0961
14478 1 8.1683 1.60653 38.8159
14473 1 9.08177 0.048088 41.3941
14474 1 6.35287 1.64071 41.3795
20200 2 7.26171 0.0318704 40.1107
14480 1 10.8971 0.0158767 38.8304
14279 1 11.8091 1.64071 41.3795
20071 2 9.98911 1.62349 40.0961
14287 1 13.6245 1.60653 38.8159
14285 1 14.538 0.048088 41.3941
19846 2 15.4454 1.62349 40.0961
20070 2 12.7179 0.0318704 40.1107
14286 1 16.3534 0.0158767 38.8304
13997 1 17.2653 1.64071 41.3795
19848 2 18.1742 0.0318704 40.1107
14592 1 21.8096 0.0158767 38.8304
14000 1 19.0808 1.60653 38.8159
13996 1 19.9942 0.048088 41.3941
19528 2 20.9016 1.62349 40.0961
14571 1 2.71049 4.7876 38.7846
14566 1 0.894898 4.82599 41.3482
20232 2 1.80399 3.21507 40.0808
14576 1 5.43942 3.1971 38.8006
14565 1 3.62392 3.23334 41.3642
20197 2 4.53128 4.80661 40.0648
14477 1 8.16673 4.7876 38.7846
14466 1 6.35114 4.82599 41.3482
14475 1 9.08015 3.23334 41.3642
20196 2 7.26022 3.21507 40.0808
14476 1 10.8957 3.1971 38.8006
14278 1 11.8074 4.82599 41.3482
20067 2 9.98752 4.80661 40.0648
14283 1 13.623 4.7876 38.7846
14277 1 14.5364 3.23334 41.3642
19845 2 15.4438 4.80661 40.0648
20072 2 12.7165 3.21507 40.0808
14288 1 16.3519 3.1971 38.8006
13991 1 17.2636 4.82599 41.3482
19844 2 18.1727 3.21507 40.0808
14590 1 21.8081 3.1971 38.8006
13999 1 19.0792 4.7876 38.7846
13998 1 19.9926 3.23334 41.3642
19527 2 20.9 4.80661 40.0648
14570 1 2.70872 7.96837 38.7508
14556 1 0.892916 8.01142 41.3141
20228 2 1.80229 6.39813 40.0481
14569 1 5.43775 6.37802 38.768
14568 1 3.62206 6.41868 41.3315
20190 2 4.52949 7.98963 40.0307
14470 1 8.16496 7.96837 38.7508
14464 1 9.0783 6.41868 41.3315
14465 1 6.34915 8.01142 41.3141
20199 2 7.25853 6.39813 40.0481
14479 1 10.894 6.37802 38.768
14267 1 11.8054 8.01142 41.3141
20066 2 9.98573 7.98963 40.0307
14282 1 13.6212 7.96837 38.7508
14280 1 14.5345 6.41868 41.3315
19838 2 15.442 7.98963 40.0307
20065 2 12.7148 6.39813 40.0481
14281 1 16.3502 6.37802 38.768
13990 1 17.2616 8.01142 41.3141
19847 2 18.171 6.39813 40.0481
14591 1 21.8065 6.37802 38.768
13994 1 19.0774 7.96837 38.7508
13989 1 19.9908 6.41868 41.3315
19526 2 20.8982 7.98963 40.0307
14560 1 2.70674 11.1488 38.7144
14555 1 0.890681 11.1972 41.2775
20229 2 1.8004 9.58112 40.0127
14572 1 5.43587 9.55864 38.7329
14554 1 3.61995 9.60425 41.2961
20189 2 4.5275 11.1726 39.994
14469 1 8.16298 11.1488 38.7144
14450 1 6.34692 11.1972 41.2775
14467 1 9.07619 9.60425 41.2961
20188 2 7.25663 9.58112 40.0127
14468 1 10.8921 9.55864 38.7329
14266 1 11.8032 11.1972 41.2775
20055 2 9.98373 11.1726 39.994
14271 1 13.6192 11.1488 38.7144
14265 1 14.5324 9.60425 41.2961
19837 2 15.44 11.1726 39.994
20068 2 12.7129 9.58112 40.0127
14284 1 16.3483 9.55864 38.7329
13977 1 17.2594 11.1972 41.2775
19836 2 18.1691 9.58112 40.0127
14588 1 21.8046 9.55864 38.7329
13993 1 19.0755 11.1488 38.7144
13992 1 19.9887 9.60425 41.2961
19519 2 20.8962 11.1726 39.994
14544 1 0.888185 14.3836 41.2384
20224 2 1.79831 12.7641 39.9748
14558 1 5.4338 12.7389 38.6954
14557 1 3.61759 12.7903 41.2582
20175 2 4.52533 14.3556 39.9549
14448 1 9.07382 12.7903 41.2582
14449 1 6.34442 14.3836 41.2384
20191 2 7.25455 12.7641 39.9748
14471 1 10.89 12.7389 38.6954
14247 1 11.8007 14.3836 41.2384
20054 2 9.98157 14.3556 39.9549
14268 1 14.5301 12.7903 41.2582
19822 2 15.4378 14.3556 39.9549
20053 2 12.7108 12.7641 39.9748
14269 1 16.3463 12.7389 38.6954
13976 1 17.2569 14.3836 41.2384
19839 2 18.167 12.7641 39.9748
14589 1 21.8025 12.7389 38.6954
13975 1 19.9863 12.7903 41.2582
19518 2 20.894 14.3556 39.9549
14543 1 0.885415 17.571 41.1971
20225 2 1.79608 15.9471 39.9344
14542 1 3.61496 15.9771 41.218
20174 2 4.52304 17.5387 39.9133
14427 1 6.34165 17.571 41.1971
14451 1 9.07119 15.9771 41.218
20173 2 7.25232 15.9471 39.9344
14246 1 11.7979 17.571 41.1971
20035 2 9.97927 17.5387 39.9133
14245 1 14.5274 15.9771 41.218
19821 2 15.4355 17.5387 39.9133
20056 2 12.7086 15.9471 39.9344
13955 1 17.2541 17.571 41.1971
19820 2 18.1648 15.9471 39.9344
13978 1 19.9837 15.9771 41.218
19503 2 20.8918 17.5387 39.9133
20220 2 1.79374 19.1303 39.8916
14532 1 0.882318 20.7602 41.1535
14545 1 3.61203 19.1653 41.1756
20159 2 4.52068 20.722 39.8692
14425 1 9.06827 19.1653 41.1756
20176 2 7.24998 19.1303 39.8916
14426 1 6.33856 20.7602 41.1535
14219 1 11.7948 20.7602 41.1535
20034 2 9.97692 20.722 39.8692
14248 1 14.5245 19.1653 41.1756
20033 2 12.7062 19.1303 39.8916
19798 2 15.4332 20.722 39.8692
19823 2 18.1625 19.1303 39.8916
13954 1 17.251 20.7602 41.1535
13953 1 19.9807 19.1653 41.1756
19502 2 20.8894 20.722 39.8692
20221 2 1.7914 22.3137 39.8461
14530 1 3.60872 22.3559 41.1309
14428 1 9.06496 22.3559 41.1309
20157 2 7.24764 22.3137 39.8461
14217 1 14.5212 22.3559 41.1309
20036 2 12.7039 22.3137 39.8461
19796 2 18.1601 22.3137 39.8461
13956 1 19.9774 22.3559 41.1309
14531 1 0.878702 23.9527 41.1077
20216 2 1.78924 25.4973 39.797
14533 1 3.60465 25.5509 41.0838
20158 2 4.5184 23.9055 39.8221
14401 1 9.06089 25.5509 41.0838
14403 1 6.33494 23.9527 41.1077
20160 2 7.24547 25.4973 39.797
14218 1 11.7912 23.9527 41.1077
20008 2 9.97463 23.9055 39.8221
14220 1 14.5171 25.5509 41.0838
19797 2 15.4309 23.9055 39.8221
20006 2 12.7017 25.4973 39.797
13925 1 17.2474 23.9527 41.1077
19799 2 18.158 25.4973 39.797
13923 1 19.9734 25.5509 41.0838
19479 2 20.8871 23.9055 39.8221
14520 1 0.873911 27.1513 41.0593
20217 2 1.78758 28.6809 39.7425
14518 1 3.59867 28.7546 41.0341
20143 2 4.51644 27.0891 39.7706
14402 1 6.33015 27.1513 41.0593
14404 1 9.05491 28.7546 41.0341
20141 2 7.24381 28.6809 39.7425
14184 1 11.7864 27.1513 41.0593
20007 2 9.97267 27.0891 39.7706
14182 1 14.5112 28.7546 41.0341
19766 2 15.4289 27.0891 39.7706
20009 2 12.7001 28.6809 39.7425
13924 1 17.2426 27.1513 41.0593
19764 2 18.1563 28.6809 39.7425
13926 1 19.9674 28.7546 41.0341
19478 2 20.8852 27.0891 39.7706
14519 1 0.866023 30.3622 41.008
20212 2 1.78654 31.8655 39.6788
14521 1 3.58792 31.9752 40.981
20142 2 4.51514 30.2728 39.7121
14377 1 9.04416 31.9752 40.981
14379 1 6.32226 30.3622 41.008
20144 2 7.24278 31.8655 39.6788
14183 1 11.7785 30.3622 41.008
19980 2 9.97137 30.2728 39.7121
14185 1 14.5004 31.9752 40.981
19765 2 15.4276 30.2728 39.7121
19978 2 12.699 31.8655 39.6788
13887 1 17.2347 30.3622 41.008
19767 2 18.1553 31.8655 39.6788
13885 1 19.9566 31.9752 40.981
19447 2 20.8839 30.2728 39.7121
14508 1 0.850829 33.5968 40.9514
20213 2 1.78377 35.0597 39.6
14506 1 3.56484 35.2277 40.9202
20127 2 4.51383 33.4595 39.6417
14378 1 6.30707 33.5968 40.9514
14380 1 9.02108 35.2277 40.9202
20125 2 7.24001 35.0597 39.6
14148 1 11.7633 33.5968 40.9514
19979 2 9.97007 33.4595 39.6417
14146 1 14.4773 35.2277 40.9202
19727 2 15.4263 33.4595 39.6417
19981 2 12.6962 35.0597 39.6
13886 1 17.2195 33.5968 40.9514
19725 2 18.1525 35.0597 39.6
13888 1 19.9336 35.2277 40.9202
19446 2 20.8825 33.4595 39.6417
14507 1 0.817255 36.8788 40.8853
20208 2 1.76818 38.2981 39.4908
20126 2 4.50662 36.665 39.5522
14509 1 3.53119 38.5392 40.8251
14355 1 6.27349 36.8788 40.8853
14353 1 8.98743 38.5392 40.8251
20128 2 7.22442 38.2981 39.4908
14147 1 11.7297 36.8788 40.8853
19952 2 9.96286 36.665 39.5522
19726 2 15.4191 36.665 39.5522
14149 1 14.4437 38.5392 40.8251
19950 2 12.6807 38.2981 39.4908
13842 1 17.186 36.8788 40.8853
19728 2 18.1369 38.2981 39.4908
19407 2 20.8753 36.665 39.5522
13840 1 19.8999 38.5392 40.8251
14496 1 0.831976 40.1886 40.6658
20209 2 1.61972 41.8449 39.3777
20111 2 4.45111 39.9764 39.4242
14354 1 6.28821 40.1886 40.6658
20109 2 7.07598 41.8449 39.3776
14112 1 11.7445 40.1886 40.6658
19951 2 9.90734 39.9764 39.4243
19687 2 15.3636 39.9764 39.4243
19953 2 12.5322 41.8449 39.3776
13841 1 17.2007 40.1886 40.6658
19685 2 17.9884 41.8449 39.3777
19406 2 20.8198 39.9764 39.4242
14495 1 0.742347 43.515 40.6417
14494 1 3.5454 41.8029 40.5699
20110 2 4.2955 43.6156 39.4146
14356 1 9.00164 41.8029 40.5699
14332 1 6.19859 43.515 40.6417
14111 1 11.6548 43.515 40.6417
19924 2 9.75178 43.6155 39.4147
14110 1 14.4579 41.8029 40.5699
19686 2 15.208 43.6155 39.4147
13796 1 17.1111 43.515 40.6417
13843 1 19.9141 41.8029 40.5699
19360 2 20.6642 43.6156 39.4146
14488 1 0.644784 46.9023 40.7614
20204 2 1.52856 45.3021 39.4554
14497 1 3.40601 45.2122 40.723
20096 2 4.24016 46.9378 39.4765
14330 1 8.86225 45.2122 40.723
14331 1 6.10103 46.9023 40.7614
20112 2 6.98476 45.302 39.4555
14080 1 11.5573 46.9023 40.7614
19923 2 9.69647 46.9377 39.4765
14113 1 14.3185 45.2122 40.723
19648 2 15.1527 46.9378 39.4765
19922 2 12.441 45.302 39.4555
13795 1 17.0135 46.9023 40.7614
19688 2 17.8973 45.3021 39.4554
13794 1 19.7747 45.2122 40.723
19359 2 20.6089 46.9378 39.4765
14487 1 0.650441 50.2649 40.7514
20205 2 1.50465 48.5704 39.4875
14486 1 3.37066 48.5832 40.7579
20095 2 4.24275 50.2147 39.47
14313 1 6.10667 50.2649 40.7515
14333 1 8.82688 48.5832 40.7579
20094 2 6.96104 48.5701 39.4871
14079 1 11.5629 50.2649 40.7515
19897 2 9.699 50.2147 39.47
14078 1 14.2831 48.5832 40.7579
19647 2 15.1553 50.2146 39.4699
19925 2 12.4173 48.5701 39.4871
13753 1 17.0192 50.2649 40.7514
19646 2 17.8734 48.5704 39.4875
13797 1 19.7394 48.5832 40.7579
19312 2 20.6115 50.2146 39.4699
14563 1 1.81108 0.0805063 43.9562
20194 2 2.71794 1.65778 42.6589
14462 1 4.5384 1.6751 43.9415
20193 2 5.44682 0.0641977 42.6736
14472 1 7.26732 0.0805063 43.9562
20063 2 8.17417 1.65778 42.6589
14275 1 9.99464 1.6751 43.9415
20069 2 10.9031 0.0641977 42.6736
13987 1 15.4509 1.6751 43.9415
14274 1 12.7236 0.0805063 43.9562
19842 2 13.6304 1.65778 42.6589
13995 1 18.1798 0.0805063 43.9562
19841 2 16.3593 0.0641977 42.6736
20230 2 21.8155 0.0641977 42.6736
13632 1 20.9071 1.6751 43.9415
19525 2 19.0867 1.65778 42.6589
14564 1 1.80943 3.26977 43.926
20186 2 2.71625 4.84509 42.6273
14461 1 4.53664 4.86456 43.9097
20195 2 5.44524 3.25141 42.6435
14460 1 7.26567 3.26977 43.926
20062 2 8.17248 4.84509 42.6273
14263 1 9.99287 4.86456 43.9097
20061 2 10.9015 3.25141 42.6435
13986 1 15.4491 4.86456 43.9097
14276 1 12.7219 3.26977 43.926
19834 2 13.6287 4.84509 42.6273
13985 1 18.1781 3.26977 43.926
19843 2 16.3577 3.25141 42.6435
20226 2 21.814 3.25141 42.6435
13631 1 20.9054 4.86456 43.9097
19524 2 19.085 4.84509 42.6273
14552 1 1.80754 6.45949 43.8927
20185 2 2.71433 8.03272 42.5928
14446 1 4.53462 8.05461 43.875
20184 2 5.44344 6.43885 42.6104
14463 1 7.26378 6.45949 43.8927
20051 2 8.17057 8.03272 42.5928
14262 1 9.99086 8.05461 43.875
20064 2 10.8997 6.43885 42.6104
13973 1 15.4471 8.05461 43.875
14261 1 12.72 6.45949 43.8927
19833 2 13.6268 8.03272 42.5928
13988 1 18.1763 6.45949 43.8927
19832 2 16.3559 6.43885 42.6104
20227 2 21.8122 6.43885 42.6104
13630 1 20.9033 8.05461 43.875
19517 2 19.083 8.03272 42.5928
14553 1 1.8054 9.64996 43.8567
20171 2 2.7122 11.2209 42.5556
14445 1 4.53236 11.2456 43.8376
20187 2 5.44142 9.62673 42.5745
14444 1 7.26164 9.64996 43.8567
20050 2 8.16844 11.2209 42.5556
14243 1 9.9886 11.2456 43.8376
20049 2 10.8977 9.62673 42.5745
13972 1 15.4448 11.2456 43.8376
14264 1 12.7179 9.64996 43.8567
19818 2 13.6247 11.2209 42.5556
13971 1 18.1741 9.64996 43.8567
19835 2 16.3539 9.62673 42.5745
20222 2 21.8101 9.62673 42.5745
13623 1 20.9011 11.2456 43.8376
19516 2 19.0809 11.2209 42.5556
14540 1 1.80301 12.8416 43.8179
20170 2 2.70987 14.4099 42.5157
14423 1 4.52983 14.438 43.7975
20169 2 5.43918 12.8153 42.536
14447 1 7.25925 12.8416 43.8179
20031 2 8.16611 14.4099 42.5157
14242 1 9.98607 14.438 43.7975
20052 2 10.8954 12.8153 42.536
13951 1 15.4423 14.438 43.7975
14241 1 12.7155 12.8416 43.8179
19817 2 13.6223 14.4099 42.5157
13974 1 18.1717 12.8416 43.8179
19816 2 16.3517 12.8153 42.536
20223 2 21.8079 12.8153 42.536
13622 1 20.8985 14.438 43.7975
19501 2 19.0786 14.4099 42.5157
14541 1 1.80035 16.035 43.7765
20155 2 2.70736 17.6003 42.4732
14422 1 4.52702 17.6327 43.7547
20172 2 5.43675 16.0049 42.4948
14421 1 7.25658 16.035 43.7765
20030 2 8.1636 17.6003 42.4732
14215 1 9.98326 17.6327 43.7547
20029 2 10.893 16.0049 42.4948
13950 1 15.4395 17.6327 43.7547
14244 1 12.7128 16.035 43.7765
19794 2 13.6198 17.6003 42.4732
13949 1 18.1691 16.035 43.7765
19819 2 16.3492 16.0049 42.4948
20218 2 21.8055 16.0049 42.4948
13607 1 20.8957 17.6327 43.7547
19500 2 19.0761 17.6003 42.4732
14528 1 1.79738 19.2313 43.7323
20153 2 5.43417 19.1961 42.4509
14424 1 7.25362 19.2313 43.7323
20032 2 10.8904 19.1961 42.4509
14213 1 12.7099 19.2313 43.7323
13952 1 18.1661 19.2313 43.7323
19792 2 16.3466 19.1961 42.4509
20219 2 21.8029 19.1961 42.4509
20154 2 2.70471 20.7925 42.4278
14529 1 1.79399 22.432 43.6852
14399 1 4.52387 20.8309 43.7092
20156 2 5.43148 22.3896 42.4037
20004 2 8.16095 20.7925 42.4278
14397 1 7.25023 22.432 43.6852
14214 1 9.98011 20.8309 43.7092
20002 2 10.8877 22.3896 42.4037
19793 2 13.6172 20.7925 42.4278
13921 1 15.4363 20.8309 43.7092
14216 1 12.7065 22.432 43.6852
13919 1 18.1627 22.432 43.6852
19795 2 16.344 22.3896 42.4037
19477 2 19.0734 20.7925 42.4278
13606 1 20.8926 20.8309 43.7092
20214 2 21.8002 22.3896 42.4037
14516 1 1.78982 25.64 43.6344
20139 2 2.70201 23.9874 42.3787
14398 1 4.52016 24.0348 43.6603
20137 2 5.42878 25.5863 42.3524
14400 1 7.24606 25.64 43.6344
20003 2 8.15825 23.9874 42.3787
14180 1 9.9764 24.0348 43.6603
20005 2 10.885 25.5863 42.3524
13920 1 15.4326 24.0348 43.6603
14178 1 12.7023 25.64 43.6344
19762 2 13.6145 23.9874 42.3787
13922 1 18.1585 25.64 43.6344
19760 2 16.3413 25.5863 42.3524
20215 2 21.7975 25.5863 42.3524
13583 1 20.8889 24.0348 43.6603
19476 2 19.0707 23.9874 42.3787
14517 1 1.78402 28.86 43.5784
20138 2 2.69931 27.1865 42.3244
14375 1 4.51533 27.2481 43.6072
20140 2 5.42602 28.7885 42.2945
14373 1 7.24026 28.86 43.5784
19976 2 8.15554 27.1865 42.3244
14179 1 9.97157 27.2481 43.6072
19974 2 10.8823 28.7885 42.2945
13883 1 15.4278 27.2481 43.6072
14181 1 12.6965 28.86 43.5784
19761 2 13.6118 27.1865 42.3244
13881 1 18.1527 28.86 43.5784
19763 2 16.3385 28.7885 42.2945
20210 2 21.7947 28.7885 42.2945
13582 1 20.884 27.2481 43.6072
19445 2 19.068 27.1865 42.3244
14504 1 1.7749 32.0994 43.5134
20123 2 2.69629 30.3928 42.2619
14374 1 4.50818 30.4767 43.5474
20121 2 5.4223 32.001 42.226
14376 1 7.23113 32.0994 43.5134
19975 2 8.15252 30.3928 42.2619
14144 1 9.96441 30.4767 43.5474
19977 2 10.8785 32.001 42.226
13882 1 15.4207 30.4767 43.5474
14142 1 12.6874 32.0994 43.5134
19723 2 13.6088 30.3928 42.2619
13884 1 18.1436 32.0994 43.5134
19721 2 16.3348 32.001 42.226
20211 2 21.791 32.001 42.226
13551 1 20.8769 30.4767 43.5474
19444 2 19.065 30.3928 42.2619
14505 1 1.76316 35.3671 43.4299
20122 2 2.69084 33.6145 42.1859
14351 1 4.49682 33.7293 43.4756
20124 2 5.4133 35.2369 42.1403
14349 1 7.2194 35.3671 43.4299
19948 2 8.14707 33.6145 42.1859
14143 1 9.95306 33.7293 43.4756
19946 2 10.8695 35.2369 42.1403
13838 1 15.4093 33.7293 43.4756
14145 1 12.6756 35.3671 43.4299
19722 2 13.6033 33.6145 42.1859
13836 1 18.1319 35.3671 43.4299
19724 2 16.3258 35.2369 42.1403
20206 2 21.782 35.2369 42.1403
13550 1 20.8655 33.7293 43.4756
19405 2 19.0596 33.6145 42.1859
20107 2 2.67512 36.8745 42.0864
14492 1 1.75078 38.6582 43.293
14350 1 4.4888 37.0118 43.3661
20105 2 5.38487 38.5412 42.0237
19947 2 8.13136 36.8745 42.0864
14352 1 7.20702 38.6582 43.293
14108 1 9.94504 37.0118 43.3661
19949 2 10.8411 38.5412 42.0237
13837 1 15.4013 37.0118 43.3661
19683 2 13.5876 36.8745 42.0864
14106 1 12.6633 38.6582 43.293
13839 1 18.1195 38.6582 43.293
19681 2 16.2973 38.5412 42.0237
13511 1 20.8575 37.0118 43.3661
19404 2 19.0438 36.8745 42.0864
20207 2 21.7536 38.5412 42.0237
20106 2 2.62973 40.2202 41.9616
14328 1 4.45622 40.298 43.245
19920 2 8.08597 40.2202 41.9616
14107 1 9.91246 40.298 43.245
13792 1 15.3687 40.298 43.245
19682 2 13.5422 40.2202 41.9616
13510 1 20.8249 40.298 43.245
19358 2 18.9984 40.2202 41.9616
14493 1 1.70359 41.9325 43.2115
20092 2 2.55894 43.5624 41.9401
20108 2 5.32432 41.8846 41.9338
14327 1 4.4136 43.5631 43.1898
14326 1 7.15983 41.9325 43.2115
19919 2 8.01519 43.5624 41.9401
19918 2 10.7806 41.8846 41.9338
14076 1 9.86984 43.5631 43.1898
14109 1 12.6161 41.9325 43.2115
13791 1 15.3261 43.5631 43.1898
19644 2 13.4714 43.5624 41.9401
19684 2 16.2368 41.8846 41.9338
13790 1 18.0723 41.9325 43.2115
20202 2 21.693 41.8846 41.9338
13465 1 20.7823 43.5631 43.1898
19357 2 18.9277 43.5624 41.9401
14484 1 1.67254 45.2254 43.2053
20091 2 2.51801 46.9198 41.9886
14312 1 4.38291 46.9034 43.2341
20090 2 5.26058 45.2449 41.9699
14329 1 7.12877 45.2254 43.2053
19896 2 7.97425 46.9198 41.9886
14075 1 9.83915 46.9034 43.2341
19921 2 10.7168 45.2449 41.9699
13752 1 15.2954 46.9034 43.2341
14074 1 12.585 45.2254 43.2053
19643 2 13.4305 46.9198 41.9886
13793 1 18.0413 45.2254 43.2053
19642 2 16.173 45.2449 41.9699
20203 2 21.6293 45.2449 41.9699
13464 1 20.7516 46.9034 43.2341
19311 2 18.8867 46.9198 41.9886
14485 1 1.64826 48.5882 43.2446
20081 2 2.52057 50.2472 41.9824
14311 1 4.38576 50.2716 43.2276
20093 2 5.24041 48.5831 41.9935
14310 1 7.1045 48.5882 43.2446
19895 2 7.97681 50.2472 41.9824
14049 1 9.842 50.2716 43.2276
19894 2 10.6966 48.5831 41.9935
13751 1 15.2982 50.2716 43.2276
14077 1 12.5607 48.5882 43.2446
19609 2 13.433 50.2472 41.9825
13750 1 18.017 48.5882 43.2446
19645 2 16.1529 48.583 41.9934
20201 2 21.6092 48.583 41.9935
13419 1 20.7545 50.2716 43.2276
19310 2 18.8893 50.2472 41.9824
20182 2 0.903937 1.69224 45.22
14458 1 2.72487 1.70961 46.5018
14562 1 -0.00248699 0.113077 46.5168
20192 2 3.63281 0.0966962 45.235
14457 1 5.45375 0.113077 46.5168
20058 2 9.08905 0.0966962 45.235
20059 2 6.36018 1.69224 45.22
14259 1 8.18111 1.70961 46.5018
19830 2 11.8164 1.69224 45.22
14273 1 10.91 0.113077 46.5168
19840 2 14.5453 0.0966962 45.235
13983 1 13.6373 1.70961 46.5018
19522 2 17.2727 1.69224 45.22
13982 1 16.3662 0.113077 46.5168
19521 2 20.0015 0.0966962 45.235
13629 1 19.0936 1.70961 46.5018
20181 2 0.902268 4.88367 45.1879
14442 1 2.72318 4.90318 46.4693
14550 1 -0.00406893 3.3063 46.486
20180 2 3.63125 3.28788 45.2043
14459 1 5.45217 3.3063 46.486
20047 2 6.35851 4.88367 45.1879
20060 2 9.08749 3.28788 45.2043
14258 1 8.17942 4.90318 46.4693
19829 2 11.8147 4.88367 45.1879
14257 1 10.9084 3.3063 46.486
19828 2 14.5437 3.28788 45.2043
13969 1 13.6357 4.90318 46.4693
19514 2 17.271 4.88367 45.1879
13984 1 16.3646 3.3063 46.486
19523 2 20 3.28788 45.2043
13628 1 19.0919 4.90318 46.4693
20167 2 0.900397 8.07582 45.1526
14441 1 2.72129 8.09771 46.4338
14551 1 -0.00585687 6.5003 46.4519
20183 2 3.62948 6.47964 45.1706
14440 1 5.45038 6.5003 46.4519
20045 2 9.08572 6.47964 45.1706
20046 2 6.35664 8.07582 45.1526
14239 1 8.17753 8.09771 46.4338
19814 2 11.8129 8.07582 45.1526
14260 1 10.9066 6.5003 46.4519
19831 2 14.542 6.47964 45.1706
13968 1 13.6338 8.09771 46.4338
19513 2 17.2691 8.07582 45.1526
13967 1 16.3629 6.5003 46.4519
19512 2 19.9982 6.47964 45.1706
13621 1 19.09 8.09771 46.4338
20166 2 0.898331 11.2691 45.1144
14419 1 2.71919 11.2937 46.3951
20165 2 3.62751 9.67227 45.1339
14443 1 5.44839 9.69548 46.4148
20027 2 6.35457 11.2691 45.1144
20048 2 9.08375 9.67227 45.1339
14238 1 8.17543 11.2937 46.3951
19813 2 11.8108 11.2691 45.1144
14237 1 10.9046 9.69548 46.4148
19812 2 14.54 9.67227 45.1339
13947 1 13.6317 11.2937 46.3951
19498 2 17.267 11.2691 45.1144
13970 1 16.3609 9.69548 46.4148
14538 1 21.8171 9.69548 46.4148
19515 2 19.9962 9.67227 45.1339
13620 1 19.0879 11.2937 46.3951
20151 2 0.896088 14.4639 45.0732
14418 1 2.71689 14.4918 46.3533
20168 2 3.62535 12.8662 45.0942
14417 1 5.44619 12.8924 46.3746
20025 2 9.08159 12.8662 45.0942
20026 2 6.35233 14.4639 45.0732
14211 1 8.17313 14.4918 46.3533
19790 2 11.8086 14.4639 45.0732
14240 1 10.9024 12.8924 46.3746
19815 2 14.5378 12.8662 45.0942
13946 1 13.6294 14.4918 46.3533
19497 2 17.2648 14.4639 45.0732
13945 1 16.3587 12.8924 46.3746
14539 1 21.8149 12.8924 46.3746
19496 2 19.9941 12.8662 45.0942
13605 1 19.0856 14.4918 46.3533
20150 2 0.893697 17.661 45.0289
14395 1 2.71439 17.6931 46.3084
20149 2 3.62303 16.0621 45.0515
14420 1 5.44379 16.092 46.3313
20000 2 6.34994 17.661 45.0289
20028 2 9.07927 16.0621 45.0515
14210 1 8.17063 17.6931 46.3084
19789 2 11.8062 17.661 45.0289
14209 1 10.9 16.092 46.3313
19788 2 14.5355 16.0621 45.0515
13917 1 13.6269 17.6931 46.3084
19474 2 17.2624 17.661 45.0289
13948 1 16.3563 16.092 46.3313
14526 1 21.8125 16.092 46.3313
19499 2 19.9917 16.0621 45.0515
13604 1 19.0831 17.6931 46.3084
20152 2 3.62058 19.2607 45.0055
14393 1 5.44117 19.2954 46.2846
19998 2 9.07682 19.2607 45.0055
14212 1 10.8974 19.2954 46.2846
19791 2 14.5331 19.2607 45.0055
13915 1 16.3536 19.2954 46.2846
19472 2 19.9893 19.2607 45.0055
14527 1 21.8099 19.2954 46.2846
20135 2 0.891196 20.8614 44.9811
14394 1 2.71164 20.8991 46.2599
20133 2 3.61803 22.4632 44.9557
14396 1 5.43826 22.5045 46.234
19999 2 6.34743 20.8614 44.9811
20001 2 9.07427 22.4632 44.9557
14176 1 8.16788 20.8991 46.2599
19758 2 11.8037 20.8614 44.9811
14174 1 10.8945 22.5045 46.234
19756 2 14.5305 22.4632 44.9557
13916 1 13.6241 20.8991 46.2599
19473 2 17.2599 20.8614 44.9811
13918 1 16.3507 22.5045 46.234
19475 2 19.9867 22.4632 44.9557
14514 1 21.807 22.5045 46.234
13581 1 19.0804 20.8991 46.2599
20134 2 0.888608 24.0664 44.9289
14371 1 2.70853 24.112 46.2069
20136 2 3.61537 25.6714 44.9006
14369 1 5.43486 25.7221 46.1783
19970 2 9.07161 25.6714 44.9006
19972 2 6.34485 24.0664 44.9289
14175 1 8.16476 24.112 46.2069
19757 2 11.8011 24.0664 44.9289
14177 1 10.8911 25.7221 46.1783
19759 2 14.5279 25.6714 44.9006
13879 1 13.621 24.112 46.2069
19442 2 17.2573 24.0664 44.9289
13877 1 16.3473 25.7221 46.1783
19440 2 19.9841 25.6714 44.9006
14515 1 21.8036 25.7221 46.1783
13580 1 19.0772 24.112 46.2069
20119 2 0.885804 27.2785 44.8704
14370 1 2.70473 27.3352 46.1478
20117 2 3.61227 28.8882 44.8379
14372 1 5.43054 28.9519 46.1151
19971 2 6.34204 27.2785 44.8704
19973 2 9.0685 28.8882 44.8379
14140 1 8.16097 27.3352 46.1478
19719 2 11.7983 27.2785 44.8704
14138 1 10.8868 28.9519 46.1151
19717 2 14.5247 28.8882 44.8379
13878 1 13.6172 27.3352 46.1478
19441 2 17.2545 27.2785 44.8704
13880 1 16.343 28.9519 46.1151
19443 2 19.981 28.8882 44.8379
14502 1 21.7993 28.9519 46.1151
13549 1 19.0734 27.3352 46.1478
20118 2 0.882073 30.5015 44.8026
14347 1 2.69973 30.5727 46.0794
20120 2 3.60733 32.1193 44.7638
14345 1 5.42483 32.1981 46.0401
19942 2 9.06357 32.1193 44.7638
19944 2 6.33831 30.5015 44.8026
14139 1 8.15597 30.5727 46.0794
19718 2 11.7945 30.5015 44.8026
14141 1 10.8811 32.1981 46.0401
19720 2 14.5198 32.1193 44.7638
13834 1 13.6122 30.5727 46.0794
19402 2 17.2508 30.5015 44.8026
13832 1 16.3373 32.1981 46.0401
19400 2 19.976 32.1193 44.7638
14503 1 21.7935 32.1981 46.0401
13548 1 19.0684 30.5727 46.0794
20103 2 0.875045 33.7433 44.7208
14346 1 2.69342 33.8281 45.9955
20101 2 3.59672 35.3759 44.6729
14348 1 5.41689 35.4618 45.945
19943 2 6.33128 33.7433 44.7208
19945 2 9.05295 35.3759 44.6729
14104 1 8.14966 33.8281 45.9955
19679 2 11.7875 33.7433 44.7208
14102 1 10.8731 35.4618 45.945
19677 2 14.5092 35.3759 44.6729
13833 1 13.6059 33.8281 45.9955
19401 2 17.2438 33.7433 44.7208
13835 1 16.3294 35.4618 45.945
19403 2 19.9654 35.3759 44.6729
14490 1 21.7856 35.4618 45.945
13509 1 19.0621 33.8281 45.9955
20102 2 0.858531 37.0168 44.6207
14324 1 2.68073 37.0967 45.8924
20084 2 1.76646 38.7387 47.126
20104 2 3.57213 38.6612 44.5697
14322 1 5.39682 38.7297 45.8454
19916 2 6.31477 37.0168 44.6207
19914 2 9.02837 38.6612 44.5697
14103 1 8.13697 37.0967 45.8924
19913 2 7.2227 38.7387 47.126
19678 2 11.771 37.0168 44.6207
14105 1 10.8531 38.7297 45.8454
19680 2 14.4846 38.6612 44.5697
13788 1 13.5932 37.0967 45.8924
19634 2 12.6789 38.7387 47.126
19355 2 17.2272 37.0168 44.6207
13786 1 16.3093 38.7297 45.8454
19352 2 18.1352 38.7387 47.126
19353 2 19.9408 38.6612 44.5697
13508 1 19.0494 37.0967 45.8924
14491 1 21.7655 38.7297 45.8454
20088 2 0.827382 40.3057 44.5292
14323 1 2.65422 40.3614 45.8074
19888 2 4.4832 40.3722 47.0918
19915 2 6.28362 40.3057 44.5292
14072 1 8.11046 40.3614 45.8074
19640 2 11.7399 40.3057 44.5292
19635 2 9.93943 40.3722 47.0918
13787 1 13.5667 40.3614 45.8074
19304 2 15.3957 40.3722 47.0918
19354 2 17.1961 40.3057 44.5292
13463 1 19.0229 40.3614 45.8074
19022 2 20.8519 40.3722 47.0918
20087 2 0.78807 43.6021 44.4944
14308 1 2.62787 43.6325 45.7629
20085 2 1.74343 42.0075 47.0667
20086 2 3.53546 41.9523 44.5042
14325 1 5.36818 41.9949 45.7797
19887 2 4.46096 43.6464 47.0505
19917 2 8.9917 41.9523 44.5042
19892 2 6.24431 43.6021 44.4944
14071 1 8.08411 43.6325 45.7629
19886 2 7.19966 42.0075 47.0667
19639 2 11.7005 43.6021 44.4944
14070 1 10.8244 41.9949 45.7797
19604 2 9.9172 43.6464 47.0505
19638 2 14.4479 41.9523 44.5042
13748 1 13.5403 43.6325 45.7629
19303 2 15.3734 43.6464 47.0505
19637 2 12.6559 42.0075 47.0667
19308 2 17.1568 43.6021 44.4944
13789 1 16.2807 41.9949 45.7798
19302 2 18.1121 42.0075 47.0667
19356 2 19.9042 41.9523 44.5042
14482 1 21.7369 41.9949 45.7798
13462 1 18.9966 43.6325 45.7629
18979 2 20.8297 43.6464 47.0505
20080 2 0.766067 46.9209 44.5021
14307 1 2.61755 46.9295 45.7503
20076 2 1.7244 45.2902 47.0415
20089 2 3.50154 45.2576 44.4968
14306 1 5.34842 45.2759 45.7525
19872 2 4.44781 46.9389 47.0371
19890 2 8.95778 45.2576 44.4968
19891 2 6.22231 46.9209 44.5021
14048 1 8.07379 46.9295 45.7503
19889 2 7.18063 45.2902 47.0415
19608 2 11.6785 46.9209 44.5021
14073 1 10.8047 45.2759 45.7525
19603 2 9.90405 46.9389 47.0371
19641 2 14.414 45.2576 44.4968
13747 1 13.53 46.9295 45.7503
19264 2 15.3603 46.9389 47.0371
19602 2 12.6369 45.2902 47.0415
19307 2 17.1348 46.9209 44.5021
13746 1 16.2609 45.2759 45.7525
19305 2 18.0931 45.2902 47.0415
19306 2 19.8703 45.2576 44.4968
14483 1 21.7171 45.2759 45.7525
13418 1 18.9863 46.9295 45.7503
18978 2 20.8165 46.9389 47.0371
20079 2 0.767412 50.255 44.4993
14297 1 2.61795 50.248 45.749
20077 2 1.7184 48.5909 47.0357
20078 2 3.4924 48.5883 44.504
14309 1 5.34538 48.5891 45.75
19871 2 4.44859 50.2423 47.0363
19873 2 6.22365 50.255 44.4993
19893 2 8.94863 48.5883 44.504
14047 1 8.07419 50.248 45.749
19870 2 7.17464 48.5909 47.0357
19607 2 11.6799 50.255 44.4993
14046 1 10.8016 48.5891 45.75
19577 2 9.90483 50.2423 47.0363
19606 2 14.4049 48.5883 44.504
13713 1 13.5304 50.248 45.749
19263 2 15.3611 50.2423 47.0363
19605 2 12.6309 48.5909 47.0357
19265 2 17.1361 50.255 44.4993
13749 1 16.2579 48.5891 45.75
19262 2 18.0871 48.5909 47.0357
19309 2 19.8611 48.5883 44.504
14481 1 21.7141 48.5891 45.75
13417 1 18.9867 50.248 45.749
18935 2 20.8173 50.2423 47.0363
20178 2 1.81966 0.129312 47.7948
14438 1 0.912196 1.74419 49.0606
20043 2 4.54707 1.72677 47.7796
14456 1 3.64101 0.145748 49.076
20057 2 7.2759 0.129312 47.7948
14254 1 9.09725 0.145748 49.076
14255 1 6.36843 1.74419 49.0606
19826 2 10.0033 1.72677 47.7796
13965 1 11.8247 1.74419 49.0606
19510 2 15.4595 1.72677 47.7796
19825 2 12.7321 0.129312 47.7948
13981 1 14.5535 0.145748 49.076
19520 2 18.1884 0.129312 47.7948
13626 1 17.2809 1.74419 49.0606
19144 2 20.9158 1.72677 47.7796
13625 1 20.0097 0.145748 49.076
20179 2 1.81819 3.3244 47.7635
14437 1 0.910688 4.94173 49.0273
20042 2 4.54552 4.92224 47.7467
14436 1 3.63958 3.34283 49.0444
20041 2 7.27443 3.3244 47.7635
14235 1 6.36693 4.94173 49.0273
14256 1 9.09582 3.34283 49.0444
19810 2 10.0018 4.92224 47.7467
13964 1 11.8232 4.94173 49.0273
19509 2 15.458 4.92224 47.7467
19827 2 12.7307 3.3244 47.7635
13963 1 14.5521 3.34283 49.0444
19508 2 18.1869 3.3244 47.7635
13618 1 17.2794 4.94173 49.0273
19143 2 20.9142 4.92224 47.7467
13627 1 20.0083 3.34283 49.0444
20163 2 1.81657 6.52033 47.7289
14415 1 0.909033 8.14053 48.9905
20023 2 4.54382 8.11873 47.7104
14439 1 3.638 6.54094 49.0093
20044 2 7.27281 6.52033 47.7289
14233 1 9.09424 6.54094 49.0093
14234 1 6.36527 8.14053 48.9905
19809 2 10.0001 8.11873 47.7104
13943 1 11.8215 8.14053 48.9905
19494 2 15.4563 8.11873 47.7104
19808 2 12.729 6.52033 47.7289
13966 1 14.5505 6.54094 49.0093
19511 2 18.1853 6.52033 47.7289
13617 1 17.2777 8.14053 48.9905
19142 2 20.9125 8.11873 47.7104
13616 1 20.0067 6.54094 49.0093
20164 2 1.81479 9.7175 47.691
14414 1 0.907245 11.3412 48.9502
20022 2 4.54197 11.3167 47.6708
14413 1 3.63627 9.74057 48.9708
20021 2 7.27103 9.7175 47.691
14207 1 6.36348 11.3412 48.9502
14236 1 9.09251 9.74057 48.9708
19786 2 9.99821 11.3167 47.6708
13942 1 11.8197 11.3412 48.9502
19493 2 15.4544 11.3167 47.6708
19811 2 12.7273 9.7175 47.691
13941 1 14.5488 9.74057 48.9708
19492 2 18.1835 9.7175 47.691
13602 1 17.276 11.3412 48.9502
19135 2 20.9107 11.3167 47.6708
13619 1 20.005 9.74057 48.9708
20147 2 1.81288 12.9165 47.6497
14391 1 0.905342 14.5444 48.9065
19996 2 4.54001 14.5169 47.6278
14416 1 3.63443 12.9424 48.9288
20024 2 7.26912 12.9165 47.6497
14205 1 9.09066 12.9424 48.9288
14206 1 6.36158 14.5444 48.9065
19785 2 9.99625 14.5169 47.6278
13913 1 11.8178 14.5444 48.9065
19470 2 15.4525 14.5169 47.6278
19784 2 12.7254 12.9165 47.6497
13944 1 14.5469 12.9424 48.9288
19495 2 18.1816 12.9165 47.6497
13601 1 17.2741 14.5444 48.9065
19134 2 20.9087 14.5169 47.6278
13600 1 20.0031 12.9424 48.9288
20148 2 1.81087 16.118 47.605
14390 1 0.903336 17.7514 48.8589
19995 2 4.53796 17.72 47.5812
14389 1 3.63247 16.1473 48.8832
19994 2 7.26711 16.118 47.605
14172 1 6.35957 17.7514 48.8589
14208 1 9.08871 16.1473 48.8832
19754 2 9.99419 17.72 47.5812
13912 1 11.8158 17.7514 48.8589
19469 2 15.4504 17.72 47.5812
19787 2 12.7233 16.118 47.605
13911 1 14.5449 16.1473 48.8832
19468 2 18.1796 16.118 47.605
13578 1 17.2721 17.7514 48.8589
19119 2 20.9067 17.72 47.5812
13603 1 20.0012 16.1473 48.8832
20131 2 1.80879 19.3231 47.5564
14392 1 3.63041 19.3567 48.8335
19997 2 7.26503 19.3231 47.5564
14170 1 9.08665 19.3567 48.8335
19752 2 12.7213 19.3231 47.5564
13914 1 14.5429 19.3567 48.8335
19471 2 18.1775 19.3231 47.5564
13576 1 19.9991 19.3567 48.8335
20132 2 1.80663 22.5331 47.5032
14367 1 0.901219 20.9635 48.8069
19963 2 2.72557 20.9897 50.0771
20113 2 -0.00344367 22.5983 50.0481
19968 2 4.53584 20.9274 47.5305
14365 1 3.62822 22.5722 48.779
19965 2 5.45279 22.5983 50.0481
19966 2 7.26286 22.5331 47.5032
14171 1 6.35746 20.9635 48.8069
14173 1 9.08446 22.5722 48.779
19711 2 8.1818 20.9897 50.0771
19753 2 9.99208 20.9274 47.5305
13875 1 11.8137 20.9635 48.8069
19709 2 10.909 22.5983 50.0481
19438 2 15.4483 20.9274 47.5305
19755 2 12.7191 22.5331 47.5032
13873 1 14.5407 22.5722 48.779
19433 2 13.638 20.9897 50.0771
19436 2 18.1753 22.5331 47.5032
13577 1 17.2699 20.9635 48.8069
19435 2 16.3653 22.5983 50.0481
19118 2 20.9046 20.9274 47.5305
13579 1 19.9969 22.5722 48.779
19093 2 19.0943 20.9897 50.0771
20115 2 1.80425 25.75 47.4442
14366 1 0.898913 24.1829 48.7497
19936 2 2.7237 24.2087 50.0177
20114 2 -0.00553126 25.821 49.9856
19967 2 4.5336 24.1406 47.4746
14368 1 3.62575 25.796 48.7185
19934 2 5.45071 25.821 49.9856
19969 2 7.26049 25.75 47.4442
14134 1 9.08199 25.796 48.7185
14136 1 6.35515 24.1829 48.7497
19710 2 8.17994 24.2087 50.0177
19715 2 9.98984 24.1406 47.4746
13874 1 11.8114 24.1829 48.7497
19712 2 10.9069 25.821 49.9856
19437 2 15.4461 24.1406 47.4746
19713 2 12.7167 25.75 47.4442
13876 1 14.5382 25.796 48.7185
19394 2 13.6362 24.2087 50.0177
19439 2 18.173 25.75 47.4442
13546 1 17.2676 24.1829 48.7497
19392 2 16.3632 25.821 49.9856
19095 2 20.9023 24.1406 47.4746
13544 1 19.9945 25.796 48.7185
19092 2 19.0924 24.2087 50.0177
20116 2 1.80113 28.9765 47.3772
14343 1 0.8962 27.4117 48.6854
19935 2 2.72123 27.4355 49.9517
20097 2 -0.00862617 29.0524 49.9158
19940 2 4.53097 27.3619 47.4118
14341 1 3.62267 29.0303 48.6499
19937 2 5.44761 29.0524 49.9158
19938 2 7.25737 28.9765 47.3772
14135 1 6.35244 27.4117 48.6854
14137 1 9.07891 29.0303 48.6499
19671 2 8.17747 27.4355 49.9517
19714 2 9.9872 27.3619 47.4118
13830 1 11.8087 27.4117 48.6854
19669 2 10.9039 29.0524 49.9158
19398 2 15.4434 27.3619 47.4118
19716 2 12.7136 28.9765 47.3772
13828 1 14.5352 29.0303 48.6499
19393 2 13.6337 27.4355 49.9517
19396 2 18.1698 28.9765 47.3772
13545 1 17.2649 27.4117 48.6854
19395 2 16.3601 29.0524 49.9158
19094 2 20.8997 27.3619 47.4118
13547 1 19.9914 29.0303 48.6499
19061 2 19.0899 27.4355 49.9517
20099 2 1.79581 32.2166 47.2997
14342 1 0.89259 30.6519 48.6117
20098 2 -0.0141191 32.2939 49.8383
19908 2 2.71717 30.6718 49.878
19939 2 4.52701 30.5946 47.3399
14344 1 3.61817 32.2763 48.5704
19906 2 5.44212 32.2939 49.8383
19941 2 7.25205 32.2166 47.2997
14098 1 9.07441 32.2763 48.5704
14100 1 6.34883 30.6519 48.6117
19670 2 8.17341 30.6718 49.878
19675 2 9.98325 30.5946 47.3399
13829 1 11.8051 30.6519 48.6117
19672 2 10.8984 32.2939 49.8383
19397 2 15.4395 30.5946 47.3399
19673 2 12.7083 32.2166 47.2997
13831 1 14.5306 32.2763 48.5704
19347 2 13.6296 30.6718 49.878
19399 2 18.1645 32.2166 47.2997
13506 1 17.2613 30.6519 48.6117
19345 2 16.3546 32.2939 49.8383
19063 2 20.8957 30.5946 47.3399
13504 1 19.9869 32.2763 48.5704
19060 2 19.0859 30.6718 49.878
20100 2 1.78496 35.4732 47.2114
14320 1 0.886415 33.9028 48.5265
19907 2 2.70974 33.9181 49.7975
19912 2 4.51948 33.843 47.2566
14318 1 3.60909 35.5305 48.4818
19909 2 5.43242 35.5437 49.7569
19910 2 7.2412 35.4732 47.2114
14099 1 6.34265 33.9028 48.5265
14101 1 9.06533 35.5305 48.4818
19632 2 8.16598 33.9181 49.7975
19674 2 9.97572 33.843 47.2566
13784 1 11.7989 33.9028 48.5265
19630 2 10.8887 35.5437 49.7569
19351 2 15.432 33.843 47.2566
19676 2 12.6974 35.4732 47.2114
13782 1 14.5216 35.5305 48.4818
19346 2 13.6222 33.9181 49.7975
19349 2 18.1537 35.4732 47.2114
13505 1 17.2551 33.9028 48.5265
19348 2 16.3449 35.5437 49.7569
20082 2 21.8011 35.5437 49.7569
19062 2 20.8882 33.843 47.2566
13507 1 19.9778 35.5305 48.4818
19021 2 19.0785 33.9181 49.7975
14319 1 0.873496 37.1581 48.439
19884 2 2.6978 37.17 49.718
19911 2 4.50463 37.1056 47.1668
14068 1 6.32973 37.1581 48.439
19631 2 8.15404 37.17 49.718
19636 2 9.96087 37.1056 47.1668
13783 1 11.786 37.1581 48.439
19350 2 15.4171 37.1056 47.1668
19300 2 13.6103 37.17 49.718
13460 1 17.2422 37.1581 48.439
19023 2 20.8733 37.1056 47.1668
19020 2 19.0665 37.17 49.718
14304 1 0.854878 40.4135 48.3677
19883 2 2.68291 40.4243 49.6518
14321 1 3.59263 38.7856 48.4005
19882 2 5.41862 38.7968 49.6825
14066 1 9.04886 38.7856 48.4005
14067 1 6.31112 40.4135 48.3677
19600 2 8.13915 40.4243 49.6518
19633 2 10.8749 38.7968 49.6825
13744 1 11.7674 40.4135 48.3677
13785 1 14.5051 38.7856 48.4005
19299 2 13.5954 40.4243 49.6518
19298 2 16.3311 38.7968 49.6825
13459 1 17.2236 40.4135 48.3677
20083 2 21.7873 38.7968 49.6825
13458 1 19.9613 38.7856 48.4005
18977 2 19.0516 40.4243 49.6518
14303 1 0.839335 43.6754 48.3211
19868 2 2.66911 43.6846 49.6083
14302 1 3.57429 42.043 48.3413
19885 2 5.40368 42.0533 49.627
14044 1 6.29557 43.6754 48.3211
14069 1 9.03053 42.043 48.3413
19599 2 8.12535 43.6846 49.6083
13743 1 11.7518 43.6754 48.3211
19598 2 10.8599 42.0533 49.627
13742 1 14.4868 42.043 48.3413
19260 2 13.5816 43.6846 49.6083
13415 1 17.2081 43.6754 48.3211
19301 2 16.3162 42.0533 49.627
20074 2 21.7724 42.0533 49.627
13461 1 19.943 42.043 48.3413
18976 2 19.0378 43.6846 49.6083
14296 1 0.832706 46.9501 48.2978
19867 2 2.66105 46.9554 49.5878
14305 1 3.56305 45.3113 48.3068
19866 2 5.39224 45.3187 49.5954
14042 1 9.01929 45.3113 48.3068
14043 1 6.28894 46.9501 48.2978
19576 2 8.11729 46.9554 49.5878
13712 1 11.7452 46.9501 48.2978
19601 2 10.8485 45.3187 49.5954
13745 1 14.4755 45.3113 48.3068
19259 2 13.5735 46.9554 49.5878
13414 1 17.2014 46.9501 48.2978
19258 2 16.3047 45.3187 49.5954
20075 2 21.761 45.3187 49.5954
13413 1 19.9318 45.3113 48.3068
18934 2 19.0298 46.9554 49.5878
14295 1 0.832976 50.2317 48.2979
19857 2 2.66152 50.2309 49.5879
14294 1 3.56039 48.5911 48.2947
19869 2 5.38827 48.5933 49.5853
14025 1 6.28921 50.2317 48.2979
14045 1 9.01663 48.5911 48.2947
19575 2 8.11776 50.2309 49.5879
13711 1 11.7455 50.2317 48.2979
19574 2 10.8445 48.5933 49.5853
13710 1 14.4729 48.5911 48.2947
19225 2 13.574 50.2309 49.5879
13374 1 17.2017 50.2317 48.2979
19261 2 16.3007 48.5933 49.5853
20073 2 21.757 48.5933 49.5853
13416 1 19.9291 48.5911 48.2947
18933 2 19.0302 50.2309 49.5879
20039 2 2.73477 1.76133 50.3377
20177 2 0.00729015 0.161994 50.3533
14434 1 1.82903 0.178467 51.6338
20015 2 0.923205 1.79585 52.8945
20038 2 5.46353 0.161994 50.3533
14231 1 4.55654 1.77876 51.618
20037 2 3.65187 0.194696 52.9105
19806 2 8.19101 1.76133 50.3377
14253 1 7.28527 0.178467 51.6338
19801 2 9.10811 0.194696 52.9105
19802 2 6.37944 1.79585 52.8945
19824 2 10.9198 0.161994 50.3533
13961 1 10.0128 1.77876 51.618
19486 2 11.8357 1.79585 52.8945
19506 2 13.6473 1.76133 50.3377
13614 1 15.469 1.77876 51.618
13960 1 12.7415 0.178467 51.6338
19504 2 14.5643 0.194696 52.9105
19505 2 16.376 0.161994 50.3533
13624 1 18.1977 0.178467 51.6338
19138 2 17.2919 1.79585 52.8945
19141 2 19.1035 1.76133 50.3377
13264 1 20.9253 1.77876 51.618
19137 2 20.0206 0.194696 52.9105
20019 2 2.73342 4.96068 50.3038
20161 2 0.00599165 3.36087 50.3212
14435 1 1.8278 3.37929 51.6013
20014 2 0.922078 4.99891 52.8596
20040 2 5.46223 3.36087 50.3212
14230 1 4.55527 4.98012 51.5836
20013 2 3.65077 3.39723 52.8775
19805 2 8.18966 4.96068 50.3038
14229 1 7.28404 3.37929 51.6013
19778 2 6.37832 4.99891 52.8596
19803 2 9.10701 3.39723 52.8775
19804 2 10.9185 3.36087 50.3212
13939 1 10.0115 4.98012 51.5836
19485 2 11.8346 4.99891 52.8596
19490 2 13.6459 4.96068 50.3038
13613 1 15.4677 4.98012 51.5836
13962 1 12.7403 3.37929 51.6013
19484 2 14.5632 3.39723 52.8775
19507 2 16.3747 3.36087 50.3212
13612 1 18.1965 3.37929 51.6013
19130 2 17.2908 4.99891 52.8596
19140 2 19.1021 4.96068 50.3038
13263 1 20.924 4.98012 51.5836
19139 2 20.0195 3.39723 52.8775
20018 2 2.73197 8.16127 50.2663
20162 2 0.00458515 6.56079 50.2855
14411 1 1.82648 6.5813 51.565
19988 2 0.920912 8.20333 52.8207
20017 2 5.46082 6.56079 50.2855
14203 1 4.55392 8.1829 51.5455
20016 2 3.64962 6.60092 52.8406
19782 2 8.1882 8.16127 50.2663
14232 1 7.28272 6.5813 51.565
19776 2 9.10586 6.60092 52.8406
19777 2 6.37715 8.20333 52.8207
19807 2 10.9171 6.56079 50.2855
13938 1 10.0102 8.1829 51.5455
19462 2 11.8334 8.20333 52.8207
19489 2 13.6444 8.16127 50.2663
13598 1 15.4664 8.1829 51.5455
13937 1 12.739 6.5813 51.565
19487 2 14.5621 6.60092 52.8406
19488 2 16.3733 6.56079 50.2855
13615 1 18.1952 6.5813 51.565
19129 2 17.2896 8.20333 52.8207
19133 2 19.1007 8.16127 50.2663
13262 1 20.9226 8.1829 51.5455
19128 2 20.0183 6.60092 52.8406
19992 2 2.73044 11.3637 50.2251
20145 2 0.00309023 9.76221 50.2461
14412 1 1.8251 9.78502 51.525
19987 2 0.919731 11.4097 52.7777
20020 2 5.45933 9.76221 50.2461
14202 1 4.55251 11.3877 51.5035
19986 2 3.64844 9.80622 52.7997
19781 2 8.18667 11.3637 50.2251
14201 1 7.28134 9.78502 51.525
19746 2 6.37597 11.4097 52.7777
19779 2 9.10468 9.80622 52.7997
19780 2 10.9156 9.76221 50.2461
13909 1 10.0088 11.3877 51.5035
19461 2 11.8322 11.4097 52.7777
19466 2 13.6429 11.3637 50.2251
13597 1 15.465 11.3877 51.5035
13940 1 12.7376 9.78502 51.525
19460 2 14.5609 9.80622 52.7997
19491 2 16.3718 9.76221 50.2461
13596 1 18.1938 9.78502 51.525
19114 2 17.2884 11.4097 52.7777
19132 2 19.0992 11.3637 50.2251
13255 1 20.9212 11.3877 51.5035
19131 2 20.0172 9.80622 52.7997
19991 2 2.72885 14.5685 50.18
20146 2 0.00153088 12.9657 50.203
14387 1 1.82368 12.9911 51.481
19960 2 0.918548 14.6186 52.7305
19990 2 5.45777 12.9657 50.203
14168 1 4.55108 14.5954 51.4575
19989 2 3.64726 13.0138 52.7547
19750 2 8.18509 14.5685 50.18
14204 1 7.27992 12.9911 51.481
19744 2 9.1035 13.0138 52.7547
19745 2 6.37479 14.6186 52.7305
19783 2 10.914 12.9657 50.203
13908 1 10.0073 14.5954 51.4575
19430 2 11.831 14.6186 52.7305
19465 2 13.6413 14.5685 50.18
13574 1 15.4636 14.5954 51.4575
13907 1 12.7362 12.9911 51.481
19463 2 14.5597 13.0138 52.7547
19464 2 16.3702 12.9657 50.203
13599 1 18.1924 12.9911 51.481
19113 2 17.2873 14.6186 52.7305
19117 2 19.0976 14.5685 50.18
13254 1 20.9198 14.5954 51.4575
19112 2 20.016 13.0138 52.7547
19964 2 2.72724 17.7768 50.1309
20129 2 -6.94524e-05 16.1722 50.156
14388 1 1.82224 16.2006 51.4329
19959 2 0.917355 17.831 52.6789
19993 2 5.45617 16.1722 50.156
14167 1 4.54963 17.8069 51.4071
19958 2 3.64607 16.2243 52.7053
19749 2 8.18348 17.7768 50.1309
14166 1 7.27847 16.2006 51.4329
19707 2 6.37359 17.831 52.6789
19747 2 9.10231 16.2243 52.7053
19748 2 10.9124 16.1722 50.156
13871 1 10.0059 17.8069 51.4071
19429 2 11.8298 17.831 52.6789
19434 2 13.6397 17.7768 50.1309
13573 1 15.4621 17.8069 51.4071
13910 1 12.7347 16.2006 51.4329
19428 2 14.5586 16.2243 52.7053
19467 2 16.3686 16.1722 50.156
13572 1 18.191 16.2006 51.4329
19090 2 17.2861 17.831 52.6789
19116 2 19.096 17.7768 50.1309
13239 1 20.9183 17.8069 51.4071
19115 2 20.0148 16.2243 52.7053
20130 2 -0.00170616 19.3826 50.1046
14363 1 1.82077 19.4146 51.3801
19962 2 5.45453 19.3826 50.1046
19961 2 3.64485 19.4388 52.6512
14169 1 7.27701 19.4146 51.3801
19705 2 9.10109 19.4388 52.6512
19751 2 10.9108 19.3826 50.1046
13869 1 12.7332 19.4146 51.3801
19431 2 14.5573 19.4388 52.6512
19432 2 16.367 19.3826 50.1046
13575 1 18.1895 19.4146 51.3801
19088 2 20.0136 19.4388 52.6512
14364 1 1.81923 22.6344 51.3222
19932 2 0.916075 21.0479 52.6223
14132 1 4.54814 21.0236 51.3519
19930 2 3.64346 22.6584 52.592
14130 1 7.27547 22.6344 51.3222
19706 2 6.37231 21.0479 52.6223
19708 2 9.0997 22.6584 52.592
13870 1 10.0044 21.0236 51.3519
19390 2 11.8286 21.0479 52.6223
13542 1 15.4606 21.0236 51.3519
13872 1 12.7317 22.6344 51.3222
19388 2 14.5559 22.6584 52.592
13540 1 18.1879 22.6344 51.3222
19089 2 17.2848 21.0479 52.6223
13238 1 20.9169 21.0236 51.3519
19091 2 20.0122 22.6584 52.592
14339 1 1.81742 25.8614 51.258
19931 2 0.914487 24.2704 52.5602
14131 1 4.5465 24.2469 51.291
19933 2 3.64156 25.884 52.527
14133 1 7.27366 25.8614 51.258
19665 2 9.0978 25.884 52.527
19667 2 6.37073 24.2704 52.5602
13826 1 10.0027 24.2469 51.291
19389 2 11.827 24.2704 52.5602
13541 1 15.459 24.2469 51.291
13824 1 12.7299 25.8614 51.258
19391 2 14.554 25.884 52.527
13543 1 18.1861 25.8614 51.258
19058 2 17.2832 24.2704 52.5602
13215 1 20.9152 24.2469 51.291
19056 2 20.0103 25.884 52.527
14340 1 1.81482 29.0965 51.1866
19904 2 0.912099 27.4994 52.4923
14096 1 4.54439 27.478 51.2233
19902 2 3.63846 29.1165 52.4562
14094 1 7.27105 29.0965 51.1866
19666 2 6.36834 27.4994 52.4923
19668 2 9.0947 29.1165 52.4562
13825 1 10.0006 27.478 51.2233
19343 2 11.8246 27.4994 52.4923
13502 1 15.4569 27.478 51.2233
13827 1 12.7273 29.0965 51.1866
19341 2 14.5509 29.1165 52.4562
13500 1 18.1835 29.0965 51.1866
19057 2 17.2808 27.4994 52.4923
13214 1 20.9131 27.478 51.2233
19059 2 20.0072 29.1165 52.4562
14316 1 1.81014 32.3389 51.1081
19903 2 0.90803 30.7353 52.419
14095 1 4.54099 30.717 51.1481
19905 2 3.63315 32.3554 52.381
14097 1 7.26638 32.3389 51.1081
19626 2 9.08939 32.3554 52.381
19628 2 6.36427 30.7353 52.419
13780 1 9.99722 30.717 51.1481
19342 2 11.8205 30.7353 52.419
13501 1 15.4535 30.717 51.1481
13778 1 12.7226 32.3389 51.1081
19344 2 14.5456 32.3554 52.381
13503 1 18.1789 32.3389 51.1081
19018 2 17.2767 30.7353 52.419
13183 1 20.9097 30.717 51.1481
19016 2 20.0019 32.3554 52.381
14317 1 1.80144 35.5848 51.028
19880 2 0.90129 33.9765 52.343
14064 1 4.53449 33.9617 51.0676
19878 2 3.62496 35.5982 52.306
14062 1 7.25768 35.5848 51.028
19627 2 6.35753 33.9765 52.343
19629 2 9.0812 35.5982 52.306
13779 1 9.99073 33.9617 51.0676
19296 2 11.8138 33.9765 52.343
13456 1 15.447 33.9617 51.0676
13781 1 12.7139 35.5848 51.028
19294 2 14.5374 35.5982 52.306
13454 1 18.1702 35.5848 51.028
19017 2 17.27 33.9765 52.343
13182 1 20.9032 33.9617 51.0676
19019 2 19.9937 35.5982 52.306
19879 2 0.891824 37.2203 52.271
14063 1 4.52365 37.2081 50.9906
19596 2 6.34806 37.2203 52.271
13740 1 9.97989 37.2081 50.9906
19295 2 11.8043 37.2203 52.271
13455 1 15.4361 37.2081 50.9906
18974 2 17.2605 37.2203 52.271
13147 1 20.8924 37.2081 50.9906
14300 1 1.78906 38.8316 50.9564
19864 2 0.881173 40.4657 52.2108
19881 2 3.61461 38.8427 52.239
14040 1 4.51078 40.4556 50.9265
14065 1 7.2453 38.8316 50.9564
19594 2 9.07085 38.8427 52.239
19595 2 6.33741 40.4657 52.2108
13739 1 9.96702 40.4556 50.9265
19256 2 11.7937 40.4657 52.2108
13738 1 12.7015 38.8316 50.9564
19297 2 14.5271 38.8427 52.239
13411 1 15.4233 40.4556 50.9265
13457 1 18.1578 38.8316 50.9564
18973 2 17.2499 40.4657 52.2108
18972 2 19.9833 38.8427 52.239
13146 1 20.8795 40.4556 50.9265
14301 1 1.77698 42.0807 50.9012
19863 2 0.871962 43.7145 52.1684
14039 1 4.50059 43.7071 50.8809
19862 2 3.60433 42.0895 52.1871
14038 1 7.23321 42.0807 50.9012
19572 2 6.3282 43.7145 52.1684
19597 2 9.06057 42.0895 52.1871
13708 1 9.95683 43.7071 50.8809
19255 2 11.7844 43.7145 52.1684
13410 1 15.4131 43.7071 50.8809
13741 1 12.6895 42.0807 50.9012
19254 2 14.5168 42.0895 52.1871
13409 1 18.1457 42.0807 50.9012
18931 2 17.2407 43.7145 52.1684
13111 1 20.8693 43.7071 50.8809
18975 2 19.973 42.0895 52.1871
14292 1 1.76938 45.3351 50.866
19856 2 0.866735 46.9682 52.1468
14024 1 4.49571 46.9642 50.8568
19865 2 3.59683 45.3408 52.1549
14041 1 7.22562 45.3351 50.866
19570 2 9.05307 45.3408 52.1549
19571 2 6.32297 46.9682 52.1468
13707 1 9.95195 46.9642 50.8568
19224 2 11.7792 46.9682 52.1468
13373 1 15.4082 46.9642 50.8568
13706 1 12.6819 45.3351 50.866
19257 2 14.5093 45.3408 52.1549
13412 1 18.1381 45.3351 50.866
18930 2 17.2354 46.9682 52.1468
13110 1 20.8644 46.9642 50.8568
18929 2 19.9655 45.3408 52.1549
14293 1 1.76707 48.5938 50.8538
19855 2 0.86702 50.2238 52.1472
14023 1 4.49593 50.2233 50.8572
19854 2 3.59427 48.5961 52.1442
14022 1 7.22331 48.5938 50.8538
19553 2 6.32326 50.2238 52.1472
19573 2 9.05051 48.5961 52.1442
13681 1 9.95217 50.2233 50.8572
19223 2 11.7795 50.2238 52.1472
13372 1 15.4084 50.2233 50.8572
13709 1 12.6795 48.5938 50.8538
19222 2 14.5067 48.5961 52.1442
13371 1 18.1358 48.5938 50.8538
18892 2 17.2357 50.2238 52.1472
13075 1 20.8646 50.2233 50.8572
18932 2 19.963 48.5961 52.1442
14227 1 2.74533 1.81327 54.1742
14433 1 0.0177103 0.211186 54.1904
20011 2 1.84083 0.227376 55.4666
14226 1 5.47395 0.211186 54.1904
19774 2 4.5685 1.83028 55.4502
13935 1 8.20157 1.81327 54.1742
19800 2 7.29706 0.227376 55.4666
13959 1 10.9302 0.211186 54.1904
19482 2 10.0247 1.83028 55.4502
13610 1 13.6578 1.81327 54.1742
19126 2 15.481 1.83028 55.4502
19481 2 12.7533 0.227376 55.4666
13609 1 16.3864 0.211186 54.1904
19136 2 18.2095 0.227376 55.4666
13261 1 19.114 1.81327 54.1742
18792 2 20.9372 1.83028 55.4502
14199 1 2.74431 5.01825 54.1387
14409 1 0.0167023 3.4156 54.157
20012 2 1.83993 3.43343 55.4327
14228 1 5.47294 3.4156 54.157
19773 2 4.56759 5.03687 55.4141
13934 1 8.20055 5.01825 54.1387
19772 2 7.29616 3.43343 55.4327
13933 1 10.9292 3.4156 54.157
19458 2 10.0238 5.03687 55.4141
13594 1 13.6568 5.01825 54.1387
19125 2 15.4801 5.03687 55.4141
19483 2 12.7524 3.43343 55.4327
13611 1 16.3854 3.4156 54.157
19124 2 18.2086 3.43343 55.4327
13260 1 19.113 5.01825 54.1387
18791 2 20.9363 5.03687 55.4141
14198 1 2.74328 8.22471 54.0991
14410 1 0.0156735 6.62126 54.1194
19984 2 1.83903 6.64064 55.3945
14197 1 5.47191 6.62126 54.1194
19742 2 4.56671 8.24482 55.3739
13905 1 8.19952 8.22471 54.0991
19775 2 7.29527 6.64064 55.3945
13936 1 10.9282 6.62126 54.1194
19457 2 10.0229 8.24482 55.3739
13593 1 13.6558 8.22471 54.0991
19110 2 15.4792 8.24482 55.3739
19456 2 12.7515 6.64064 55.3945
13592 1 16.3844 6.62126 54.1194
19127 2 18.2077 6.64064 55.3945
13253 1 19.112 8.22471 54.0991
18790 2 20.9354 8.24482 55.3739
14164 1 2.74227 11.4332 54.0553
14385 1 0.0146494 9.82867 54.0778
19985 2 1.83816 9.84946 55.3521
14200 1 5.47089 9.82867 54.0778
19741 2 4.56586 11.4546 55.3292
13904 1 8.1985 11.4332 54.0553
19740 2 7.2944 9.84946 55.3521
13903 1 10.9271 9.82867 54.0778
19426 2 10.0221 11.4546 55.3292
13570 1 13.6547 11.4332 54.0553
19109 2 15.4783 11.4546 55.3292
19459 2 12.7506 9.84946 55.3521
13595 1 16.3834 9.82867 54.0778
19108 2 18.2069 9.84946 55.3521
13252 1 19.111 11.4332 54.0553
18783 2 20.9346 11.4546 55.3292
14163 1 2.74128 14.6446 54.0071
14386 1 0.0136512 13.0385 54.0318
19956 2 1.83732 13.0604 55.3052
14162 1 5.46989 13.0385 54.0318
19703 2 4.56503 14.667 55.28
13867 1 8.19752 14.6446 54.0071
19743 2 7.29356 13.0604 55.3052
13906 1 10.9261 13.0385 54.0318
19425 2 10.0213 14.667 55.28
13569 1 13.6538 14.6446 54.0071
19086 2 15.4775 14.667 55.28
19424 2 12.7498 13.0604 55.3052
13568 1 16.3824 13.0385 54.0318
19111 2 18.206 13.0604 55.3052
13237 1 19.11 14.6446 54.0071
18782 2 20.9337 14.667 55.28
14128 1 2.74033 17.8596 53.9542
14361 1 0.0126849 16.2516 53.9812
19957 2 1.83649 16.2743 55.2537
14165 1 5.46892 16.2516 53.9812
13866 1 8.19656 17.8596 53.9542
19701 2 7.29273 16.2743 55.2537
13865 1 10.9252 16.2516 53.9812
13538 1 13.6528 17.8596 53.9542
19427 2 12.749 16.2743 55.2537
13571 1 16.3814 16.2516 53.9812
19084 2 18.2052 16.2743 55.2537
13236 1 19.109 17.8596 53.9542
14362 1 0.011718 19.4688 53.9258
19928 2 1.8356 19.4917 55.1973
19702 2 4.56418 17.8825 55.2261
14126 1 5.46796 19.4688 53.9258
19704 2 7.29183 19.4917 55.1973
19386 2 10.0204 17.8825 55.2261
13868 1 10.9242 19.4688 53.9258
19085 2 15.4767 17.8825 55.2261
19384 2 12.7481 19.4917 55.1973
13536 1 16.3804 19.4688 53.9258
19087 2 18.2043 19.4917 55.1973
18767 2 20.9329 17.8825 55.2261
14127 1 2.73932 21.0792 53.8961
14337 1 0.0106288 22.6911 53.865
19929 2 1.83443 22.7134 55.1359
14129 1 5.46687 22.6911 53.865
19663 2 4.56318 21.1019 55.1672
13822 1 8.19556 21.0792 53.8961
19661 2 7.29067 22.7134 55.1359
13820 1 10.9231 22.6911 53.865
19385 2 10.0194 21.1019 55.1672
13537 1 13.6518 21.0792 53.8961
19054 2 15.4757 21.1019 55.1672
19387 2 12.7469 22.7134 55.1359
13539 1 16.3793 22.6911 53.865
19052 2 18.2031 22.7134 55.1359
13213 1 19.108 21.0792 53.8961
18766 2 20.9319 21.1019 55.1672
14092 1 2.73807 24.3043 53.8326
14338 1 0.00910868 25.9191 53.7986
19900 2 1.83262 25.9398 55.0696
14090 1 5.46535 25.9191 53.7986
19662 2 4.56175 24.326 55.1034
13821 1 8.19431 24.3043 53.8326
19664 2 7.28885 25.9398 55.0696
13823 1 10.9216 25.9191 53.7986
19339 2 10.018 24.326 55.1034
13498 1 13.6505 24.3043 53.8326
19053 2 15.4742 24.326 55.1034
19337 2 12.7451 25.9398 55.0696
13496 1 16.3778 25.9191 53.7986
19055 2 18.2013 25.9398 55.0696
13212 1 19.1068 24.3043 53.8326
18743 2 20.9305 24.326 55.1034
14091 1 2.73612 27.5352 53.7633
14314 1 0.00650391 29.1526 53.7267
19901 2 1.82957 29.171 54.9992
14093 1 5.46274 29.1526 53.7267
19624 2 4.55941 27.5549 55.0348
13776 1 8.19236 27.5352 53.7633
19622 2 7.28581 29.171 54.9992
13774 1 10.919 29.1526 53.7267
19338 2 10.0156 27.5549 55.0348
13497 1 13.6486 27.5352 53.7633
19014 2 15.4719 27.5549 55.0348
19340 2 12.742 29.171 54.9992
13499 1 16.3752 29.1526 53.7267
19012 2 18.1983 29.171 54.9992
13181 1 19.1048 27.5352 53.7633
18742 2 20.9281 27.5549 55.0348
14060 1 2.73259 30.7711 53.6893
14315 1 0.00175656 32.3903 53.6515
19876 2 1.82468 32.4059 54.927
14058 1 5.45799 32.3903 53.6515
19623 2 4.5555 30.7881 54.9631
13775 1 8.18882 30.7711 53.6893
19625 2 7.28092 32.4059 54.927
13777 1 10.9142 32.3903 53.6515
19292 2 10.0117 30.7881 54.9631
13452 1 13.6451 30.7711 53.6893
19013 2 15.468 30.7881 54.9631
19290 2 12.7372 32.4059 54.927
13450 1 16.3705 32.3903 53.6515
19015 2 18.1934 32.4059 54.927
13180 1 19.1013 30.7711 53.6893
18712 2 20.9242 30.7881 54.9631
14059 1 2.72643 34.0099 53.6142
14298 1 -0.00579013 35.6296 53.5781
19877 2 1.81785 35.6425 54.8574
14061 1 5.45045 35.6296 53.5781
19592 2 4.5496 34.0241 54.8916
13736 1 8.18267 34.0099 53.6142
19590 2 7.27409 35.6425 54.8574
13734 1 10.9067 35.6296 53.5781
19291 2 10.0058 34.0241 54.8916
13451 1 13.6389 34.0099 53.6142
18970 2 15.4621 34.0241 54.8916
19293 2 12.7303 35.6425 54.8574
13453 1 16.3629 35.6296 53.5781
18968 2 18.1866 35.6425 54.8574
13145 1 19.0951 34.0099 53.6142
18711 2 20.9183 34.0241 54.8916
14036 1 2.71775 37.2494 53.5442
19591 2 4.54204 37.261 54.8253
13735 1 8.17399 37.2494 53.5442
19252 2 9.99828 37.261 54.8253
13407 1 13.6302 37.2494 53.5442
18969 2 15.4545 37.261 54.8253
13144 1 19.0865 37.2494 53.5442
18680 2 20.9108 37.261 54.8253
14299 1 -0.0151046 38.8693 53.5131
19860 2 1.80989 38.8797 54.7959
14035 1 2.70846 40.4895 53.4855
14034 1 5.44113 38.8693 53.5131
19568 2 4.53409 40.4987 54.7699
19593 2 7.26613 38.8797 54.7959
13704 1 8.16469 40.4895 53.4855
13737 1 10.8974 38.8693 53.5131
19251 2 9.99033 40.4987 54.7699
19250 2 12.7224 38.8797 54.7959
13406 1 13.6209 40.4895 53.4855
18927 2 15.4466 40.4987 54.7699
13405 1 16.3536 38.8693 53.5131
18971 2 18.1786 38.8797 54.7959
13109 1 19.0772 40.4895 53.4855
18679 2 20.9028 40.4987 54.7699
14020 1 2.70113 43.7313 53.4428
14290 1 -0.0237047 42.1102 53.4619
19861 2 1.8024 42.118 54.7478
14037 1 5.43253 42.1102 53.4619
19567 2 4.5275 43.7377 54.7301
13703 1 8.15737 43.7313 53.4428
19566 2 7.25864 42.118 54.7478
13702 1 10.8888 42.1102 53.4619
19220 2 9.98374 43.7377 54.7301
13369 1 13.6136 43.7313 53.4428
18926 2 15.44 43.7377 54.7301
19253 2 12.7149 42.118 54.7478
13408 1 16.345 42.1102 53.4619
18925 2 18.1711 42.118 54.7478
13108 1 19.0698 43.7313 53.4428
18648 2 20.8962 43.7377 54.7301
14019 1 2.69734 46.9748 53.4203
19852 2 1.79711 45.3579 54.7172
14018 1 5.42687 45.3529 53.4288
19552 2 4.52385 46.9785 54.7095
13680 1 8.15358 46.9748 53.4203
19569 2 7.25335 45.3579 54.7172
13705 1 10.8831 45.3529 53.4288
19219 2 9.98009 46.9785 54.7095
13368 1 13.6098 46.9748 53.4203
18891 2 15.4363 46.9785 54.7095
19218 2 12.7096 45.3579 54.7172
13367 1 16.3393 45.3529 53.4288
18928 2 18.1658 45.3579 54.7172
14291 1 21.7956 45.3529 53.4288
13074 1 19.0661 46.9748 53.4203
18647 2 20.8926 46.9785 54.7095
14009 1 2.69753 50.219 53.4208
19853 2 1.79533 48.5992 54.7071
14021 1 5.42505 48.597 53.4176
19551 2 4.52405 50.2199 54.71
13679 1 8.15377 50.219 53.4208
19550 2 7.25157 48.5992 54.7071
13678 1 10.8813 48.597 53.4176
19193 2 9.98029 50.2199 54.71
13336 1 13.61 50.219 53.4208
18890 2 15.4365 50.2199 54.71
19221 2 12.7078 48.5992 54.7071
13370 1 16.3375 48.597 53.4176
18889 2 18.164 48.5992 54.7071
14289 1 21.7938 48.597 53.4176
13073 1 19.0662 50.219 53.4208
18616 2 20.8928 50.2199 54.71
14195 1 0.934686 1.84767 56.7293
19770 2 2.75807 1.8646 58.0049
20010 2 0.0303187 0.259996 58.0217
14225 1 3.66321 0.243865 56.746
19769 2 5.48656 0.259996 58.0217
13930 1 9.11945 0.243865 56.746
13931 1 6.39092 1.84767 56.7293
19454 2 8.21431 1.8646 58.0049
13590 1 11.8472 1.84767 56.7293
19480 2 10.9428 0.259996 58.0217
13608 1 14.5757 0.243865 56.746
19122 2 13.6705 1.8646 58.0049
13258 1 17.3034 1.84767 56.7293
19121 2 16.399 0.259996 58.0217
13257 1 20.0319 0.243865 56.746
18789 2 19.1268 1.8646 58.0049
14194 1 0.9339 5.05607 56.6928
19738 2 2.75736 5.07453 57.9678
19982 2 0.0295887 3.46943 57.9869
14193 1 3.66241 3.45172 56.7116
19771 2 5.48583 3.46943 57.9869
13901 1 6.39014 5.05607 56.6928
13932 1 9.11865 3.45172 56.7116
19453 2 8.2136 5.07453 57.9678
13589 1 11.8464 5.05607 56.6928
19452 2 10.9421 3.46943 57.9869
13588 1 14.5749 3.45172 56.7116
19106 2 13.6698 5.07453 57.9678
13250 1 17.3026 5.05607 56.6928
19123 2 16.3983 3.46943 57.9869
13259 1 20.0311 3.45172 56.7116
18788 2 19.1261 5.07453 57.9678
14160 1 0.933164 8.26589 56.6518
19737 2 2.75671 8.28572 57.9262
19983 2 0.0289074 6.67994 57.9476
14196 1 3.66164 6.66077 56.6728
19736 2 5.48515 6.67994 57.9476
13899 1 9.11788 6.66077 56.6728
13900 1 6.3894 8.26589 56.6518
19422 2 8.21295 8.28572 57.9262
13566 1 11.8456 8.26589 56.6518
19455 2 10.9414 6.67994 57.9476
13591 1 14.5741 6.66077 56.6728
19105 2 13.6692 8.28572 57.9262
13249 1 17.3019 8.26589 56.6518
19104 2 16.3976 6.67994 57.9476
13248 1 20.0304 6.66077 56.6728
18781 2 19.1254 8.28572 57.9262
14159 1 0.932495 11.4776 56.6063
19699 2 2.75612 11.4986 57.88
19954 2 0.0282899 9.89191 57.9037
14158 1 3.66094 9.87148 56.6296
19739 2 5.48453 9.89191 57.9037
13863 1 6.38873 11.4776 56.6063
13902 1 9.11718 9.87148 56.6296
19421 2 8.21236 11.4986 57.88
13565 1 11.845 11.4776 56.6063
19420 2 10.9408 9.89191 57.9037
13564 1 14.5734 9.87148 56.6296
19082 2 13.6686 11.4986 57.88
13234 1 17.3012 11.4776 56.6063
19107 2 16.397 9.89191 57.9037
13251 1 20.0297 9.87148 56.6296
18780 2 19.1248 11.4986 57.88
14124 1 0.931889 14.6919 56.556
19698 2 2.75557 14.7136 57.8291
19955 2 0.0277259 13.1058 57.8552
14161 1 3.6603 13.0844 56.5818
19697 2 5.48396 13.1058 57.8552
13861 1 9.11654 13.0844 56.5818
13862 1 6.38813 14.6919 56.556
19382 2 8.21181 14.7136 57.8291
13534 1 11.8444 14.6919 56.556
19423 2 10.9402 13.1058 57.8552
13567 1 14.5728 13.0844 56.5818
19081 2 13.668 14.7136 57.8291
13233 1 17.3006 14.6919 56.556
19080 2 16.3964 13.1058 57.8552
13232 1 20.029 13.0844 56.5818
18765 2 19.1243 14.7136 57.8291
19926 2 0.0271617 16.3221 57.8018
14122 1 3.65972 16.3002 56.5291
19700 2 5.4834 16.3221 57.8018
13864 1 9.11595 16.3002 56.5291
19380 2 10.9396 16.3221 57.8018
13532 1 14.5722 16.3002 56.5291
19083 2 16.3959 16.3221 57.8018
13235 1 20.0284 16.3002 56.5291
14123 1 0.931298 17.9093 56.5009
19659 2 2.75496 17.9313 57.7733
19927 2 0.0264719 19.5413 57.7436
14125 1 3.65909 19.5194 56.4714
19657 2 5.48271 19.5413 57.7436
13818 1 6.38754 17.9093 56.5009
19381 2 8.2112 17.9313 57.7733
13816 1 9.11533 19.5194 56.4714
13533 1 11.8438 17.9093 56.5009
19383 2 10.9389 19.5413 57.7436
19050 2 13.6674 17.9313 57.7733
13535 1 14.5716 19.5194 56.4714
13210 1 17.3 17.9093 56.5009
19048 2 16.3952 19.5413 57.7436
18764 2 19.1237 17.9313 57.7733
13208 1 20.0278 19.5194 56.4714
14088 1 0.930592 21.1306 56.4407
19658 2 2.75413 21.1522 57.7128
19898 2 0.0254247 22.7638 57.6809
14086 1 3.65824 22.7427 56.4087
19660 2 5.48166 22.7638 57.6809
13817 1 6.38683 21.1306 56.4407
13819 1 9.11448 22.7427 56.4087
19335 2 8.21037 21.1522 57.7128
13494 1 11.8431 21.1306 56.4407
19333 2 10.9379 22.7638 57.6809
13492 1 14.5707 22.7427 56.4087
19049 2 13.6666 21.1522 57.7128
13209 1 17.2993 21.1306 56.4407
19051 2 16.3941 22.7638 57.6809
13211 1 20.027 22.7427 56.4087
18741 2 19.1228 21.1522 57.7128
14087 1 0.929494 24.3559 56.3756
19620 2 2.75278 24.3764 57.6479
19899 2 0.0236579 25.9897 57.6141
14089 1 3.65677 25.9701 56.3413
19618 2 5.4799 25.9897 57.6141
13770 1 9.11301 25.9701 56.3413
13772 1 6.38573 24.3559 56.3756
19334 2 8.20902 24.3764 57.6479
13493 1 11.842 24.3559 56.3756
19336 2 10.9361 25.9897 57.6141
13495 1 14.5692 25.9701 56.3413
19010 2 13.6653 24.3764 57.6479
13178 1 17.2982 24.3559 56.3756
19008 2 16.3924 25.9897 57.6141
13176 1 20.0255 25.9701 56.3413
18740 2 19.1215 24.3764 57.6479
14056 1 0.92751 27.5851 56.3062
19619 2 2.75048 27.6037 57.5797
19874 2 0.0207301 29.2183 57.5448
14054 1 3.6541 29.2009 56.2704
19621 2 5.47697 29.2183 57.5448
13771 1 6.38375 27.5851 56.3062
13773 1 9.11033 29.2009 56.2704
19288 2 8.20672 27.6037 57.5797
13448 1 11.84 27.5851 56.3062
19286 2 10.9332 29.2183 57.5448
13446 1 14.5666 29.2009 56.2704
19009 2 13.663 27.6037 57.5797
13177 1 17.2962 27.5851 56.3062
19011 2 16.3894 29.2183 57.5448
13179 1 20.0228 29.2009 56.2704
18710 2 19.1192 27.6037 57.5797
14055 1 0.923974 30.8172 56.2344
19588 2 2.74684 30.8334 57.51
19875 2 0.0163351 32.4487 57.4757
14057 1 3.64959 32.4338 56.1986
19586 2 5.47257 32.4487 57.4757
13730 1 9.10582 32.4338 56.1986
13732 1 6.38021 30.8172 56.2344
19287 2 8.20308 30.8334 57.51
13447 1 11.8365 30.8172 56.2344
19289 2 10.9288 32.4487 57.4757
13449 1 14.5621 32.4338 56.1986
18966 2 13.6593 30.8334 57.51
13142 1 17.2927 30.8172 56.2344
18964 2 16.3851 32.4487 57.4757
13140 1 20.0183 32.4338 56.1986
18709 2 19.1156 30.8334 57.51
14032 1 0.918478 34.0506 56.1638
19587 2 2.74173 34.0642 57.4423
19858 2 0.01061 35.6797 57.4104
14030 1 3.64322 35.6673 56.1304
19589 2 5.46685 35.6797 57.4104
13731 1 6.37472 34.0506 56.1638
13733 1 9.09946 35.6673 56.1304
19248 2 8.19796 34.0642 57.4423
13403 1 11.831 34.0506 56.1638
19246 2 10.9231 35.6797 57.4104
13401 1 14.5557 35.6673 56.1304
18965 2 13.6542 34.0642 57.4423
13141 1 17.2872 34.0506 56.1638
18967 2 16.3793 35.6797 57.4104
13143 1 20.0119 35.6673 56.1304
18678 2 19.1104 34.0642 57.4423
14031 1 0.911492 37.284 56.0991
19564 2 2.73558 37.2951 57.3805
13700 1 6.36773 37.284 56.0991
19247 2 8.19182 37.2951 57.3805
13402 1 11.824 37.284 56.0991
18923 2 13.6481 37.2951 57.3805
13106 1 17.2802 37.284 56.0991
18677 2 19.1043 37.2951 57.3805
19859 2 0.00429055 38.9104 57.3533
14016 1 0.904387 40.5172 56.045
19563 2 2.72938 40.5257 57.3292
14033 1 3.63597 38.9006 56.0704
19562 2 5.46053 38.9104 57.3533
13672 1 4.55522 40.5404 58.6049
13698 1 9.09221 38.9006 56.0704
13699 1 6.36063 40.5172 56.045
19216 2 8.18562 40.5257 57.3292
19249 2 10.9168 38.9104 57.3533
13365 1 11.8169 40.5172 56.045
13360 1 10.0115 40.5404 58.6049
13404 1 14.5484 38.9006 56.0704
18922 2 13.6419 40.5257 57.3292
13067 1 15.4677 40.5404 58.6049
18921 2 16.373 38.9104 57.3533
13105 1 17.2731 40.5172 56.045
13104 1 20.0047 38.9006 56.0704
18646 2 19.0981 40.5257 57.3292
12879 1 20.9239 40.5404 58.6049
14015 1 0.898759 43.7504 56.0058
19548 2 2.72439 43.7564 57.2924
19850 2 -0.00145877 42.141 57.3088
14013 1 1.82463 42.1535 58.5849
14014 1 3.62942 42.1338 56.0233
19565 2 5.45478 42.141 57.3088
13671 1 4.55072 43.7663 58.5689
13676 1 6.355 43.7504 56.0058
13701 1 9.08566 42.1338 56.0233
19215 2 8.18062 43.7564 57.2924
13670 1 7.28087 42.1535 58.5849
13364 1 11.8112 43.7504 56.0058
19214 2 10.911 42.141 57.3088
13331 1 10.007 43.7663 58.5689
13363 1 14.5419 42.1338 56.0233
18887 2 13.6369 43.7564 57.2924
13066 1 15.4632 43.7663 58.5689
13362 1 12.7371 42.1535 58.5849
13071 1 17.2675 43.7504 56.0058
18924 2 16.3673 42.141 57.3088
13065 1 18.1933 42.1535 58.5849
13107 1 19.9981 42.1338 56.0233
18645 2 19.0931 43.7564 57.2924
12856 1 20.9194 43.7663 58.5689
14008 1 0.895764 46.9837 55.9853
19547 2 2.72166 46.9872 57.2734
19851 2 -0.00543098 45.3718 57.2805
14004 1 1.82109 45.379 58.5573
14017 1 3.62501 45.3671 55.993
19546 2 5.45081 45.3718 57.2805
13656 1 4.5483 46.9916 58.5502
13674 1 9.08124 45.3671 55.993
13675 1 6.352 46.9837 55.9853
19192 2 8.1779 46.9872 57.2734
13673 1 7.27733 45.379 58.5573
13335 1 11.8082 46.9837 55.9853
19217 2 10.907 45.3718 57.2805
13330 1 10.0045 46.9916 58.5502
13366 1 14.5375 45.3671 55.993
18886 2 13.6341 46.9872 57.2734
13039 1 15.4608 46.9916 58.5502
13329 1 12.7336 45.379 58.5573
13070 1 17.2645 46.9837 55.9853
18885 2 16.3633 45.3718 57.2805
13068 1 18.1898 45.379 58.5573
13069 1 19.9937 45.3671 55.993
18615 2 19.0904 46.9872 57.2734
12855 1 20.917 46.9916 58.5502
14007 1 0.895935 50.2171 55.9858
19537 2 2.72183 50.2181 57.2739
19849 2 -0.00674795 48.6027 57.2711
14005 1 1.81993 48.6041 58.548
14006 1 3.62356 48.6004 55.9829
19549 2 5.44949 48.6027 57.2711
13655 1 4.54847 50.2166 58.5507
13657 1 6.35217 50.2171 55.9858
13677 1 9.0798 48.6004 55.9829
19191 2 8.17807 50.2181 57.2739
13654 1 7.27617 48.6041 58.548
13334 1 11.8084 50.2171 55.9858
19190 2 10.9057 48.6027 57.2711
13306 1 10.0047 50.2166 58.5507
13333 1 14.536 48.6004 55.9829
18856 2 13.6343 50.2181 57.2739
13038 1 15.4609 50.2166 58.5507
13332 1 12.7324 48.6041 58.548
13040 1 17.2647 50.2171 55.9858
18888 2 16.362 48.6027 57.2711
13037 1 18.1886 48.6041 58.548
13072 1 19.9923 48.6004 55.9829
18614 2 19.0905 50.2181 57.2739
12832 1 20.9172 50.2166 58.5507
14191 1 1.85296 0.276473 59.3007
19734 2 0.948071 1.89877 60.5587
13897 1 4.58075 1.88193 59.2836
19768 2 3.6765 0.292527 60.576
13929 1 7.30919 0.276473 59.3007
19449 2 9.13274 0.292527 60.576
19450 2 6.40431 1.89877 60.5587
13586 1 10.037 1.88193 59.2836
19102 2 11.8605 1.89877 60.5587
13246 1 15.4932 1.88193 59.2836
13585 1 12.7654 0.276473 59.3007
19120 2 14.589 0.292527 60.576
13256 1 18.2217 0.276473 59.3007
18786 2 17.3168 1.89877 60.5587
12976 1 20.9495 1.88193 59.2836
18785 2 20.0452 0.292527 60.576
14192 1 1.85232 3.48762 59.2654
19733 2 0.947496 5.11189 60.5207
13896 1 4.58015 5.09357 59.2461
19732 2 3.67589 3.50522 60.5403
13895 1 7.30856 3.48762 59.2654
19418 2 6.40373 5.11189 60.5207
19451 2 9.13213 3.50522 60.5403
13562 1 10.0364 5.09357 59.2461
19101 2 11.86 5.11189 60.5207
13245 1 15.4926 5.09357 59.2461
13587 1 12.7648 3.48762 59.2654
19100 2 14.5884 3.50522 60.5403
13244 1 18.221 3.48762 59.2654
18778 2 17.3162 5.11189 60.5207
12975 1 20.9489 5.09357 59.2461
18787 2 20.0446 3.50522 60.5403
14156 1 1.85176 6.69983 59.2255
19695 2 0.947009 8.32607 60.4781
13859 1 4.57964 8.30644 59.2038
19735 2 3.67536 6.71883 60.5
13898 1 7.308 6.69983 59.2255
19416 2 9.1316 6.71883 60.5
19417 2 6.40325 8.32607 60.4781
13561 1 10.0359 8.30644 59.2038
19078 2 11.8595 8.32607 60.4781
13230 1 15.4921 8.30644 59.2038
13560 1 12.7642 6.69983 59.2255
19103 2 14.5878 6.71883 60.5
13247 1 18.2205 6.69983 59.2255
18777 2 17.3157 8.32607 60.4781
12974 1 20.9484 8.30644 59.2038
18776 2 20.0441 6.71883 60.5
14157 1 1.8513 9.91346 59.1809
19694 2 0.9466 11.5416 60.4306
13858 1 4.57923 11.5209 59.1568
19693 2 3.67492 9.93365 60.4549
13857 1 7.30754 9.91346 59.1809
19378 2 6.40284 11.5416 60.4306
19419 2 9.13115 9.93365 60.4549
13530 1 10.0355 11.5209 59.1568
19077 2 11.8591 11.5416 60.4306
13229 1 15.4917 11.5209 59.1568
13563 1 12.7638 9.91346 59.1809
19076 2 14.5874 9.93365 60.4549
13228 1 18.22 9.91346 59.1809
18762 2 17.3153 11.5416 60.4306
12967 1 20.9479 11.5209 59.1568
18779 2 20.0436 9.93365 60.4549
14120 1 1.85093 13.1289 59.1315
19655 2 0.946217 14.7588 60.3782
13814 1 4.57889 14.7375 59.1049
19696 2 3.67453 13.15 60.405
13860 1 7.30717 13.1289 59.1315
19376 2 9.13077 13.15 60.405
19377 2 6.40246 14.7588 60.3782
13529 1 10.0351 14.7375 59.1049
19046 2 11.8587 14.7588 60.3782
13206 1 15.4914 14.7375 59.1049
13528 1 12.7634 13.1289 59.1315
19079 2 14.587 13.15 60.405
13231 1 18.2196 13.1289 59.1315
18761 2 17.3149 14.7588 60.3782
12966 1 20.9476 14.7375 59.1049
18760 2 20.0432 13.15 60.405
14121 1 1.85059 16.3467 59.077
19653 2 3.67412 16.3681 60.3502
13812 1 7.30683 16.3467 59.077
19379 2 9.13036 16.3681 60.3502
13531 1 12.7631 16.3467 59.077
19044 2 14.5866 16.3681 60.3502
13204 1 18.2193 16.3467 59.077
18763 2 20.0428 16.3681 60.3502
19654 2 0.945745 17.978 60.321
14084 1 1.85015 19.5671 59.0178
13813 1 4.57852 17.9565 59.048
19656 2 3.67354 19.5884 60.2908
19331 2 6.40198 17.978 60.321
13815 1 7.30639 19.5671 59.0178
19329 2 9.12978 19.5884 60.2908
13490 1 10.0348 17.9565 59.048
19045 2 11.8582 17.978 60.321
13205 1 15.491 17.9565 59.048
13488 1 12.7626 19.5671 59.0178
19047 2 14.586 19.5884 60.2908
18738 2 17.3145 17.978 60.321
13207 1 18.2189 19.5671 59.0178
12951 1 20.9472 17.9565 59.048
18736 2 20.0423 19.5884 60.2908
14085 1 1.84937 22.7902 58.954
19616 2 0.944987 21.1993 60.2595
13768 1 4.57795 21.1783 58.9864
19614 2 3.67254 22.8108 60.2272
13766 1 7.30561 22.7902 58.954
19330 2 6.40123 21.1993 60.2595
19332 2 9.12877 22.8108 60.2272
13489 1 10.0342 21.1783 58.9864
19006 2 11.8575 21.1993 60.2595
13174 1 15.4904 21.1783 58.9864
13491 1 12.7619 22.7902 58.954
19004 2 14.585 22.8108 60.2272
13172 1 18.2181 22.7902 58.954
18737 2 17.3137 21.1993 60.2595
12950 1 20.9467 21.1783 58.9864
18739 2 20.0413 22.8108 60.2272
14052 1 1.84788 26.016 58.8865
19615 2 0.943664 24.4227 60.1942
13724 1 2.76767 24.4465 61.4678
14051 1 0.0386762 26.0584 61.434
13767 1 4.57686 24.4028 58.9206
19617 2 3.67081 26.0351 60.1607
13722 1 5.49491 26.0584 61.434
13769 1 7.30412 26.016 58.8865
19282 2 9.12705 26.0351 60.1607
19284 2 6.3999 24.4227 60.1942
13439 1 8.22391 24.4465 61.4678
13444 1 10.0331 24.4028 58.9206
19005 2 11.8561 24.4227 60.1942
13441 1 10.9512 26.0584 61.434
13173 1 15.4893 24.4028 58.9206
13442 1 12.7604 26.016 58.8865
19007 2 14.5833 26.0351 60.1607
13134 1 13.6801 24.4465 61.4678
13175 1 18.2166 26.016 58.8865
18707 2 17.3124 24.4227 60.1942
13132 1 16.4074 26.0584 61.434
12928 1 20.9456 24.4028 58.9206
18705 2 20.0395 26.0351 60.1607
12925 1 19.1364 24.4465 61.4678
14053 1 1.84522 29.2436 58.817
19584 2 0.941452 27.6478 60.1267
13723 1 2.76566 27.6705 61.4
14026 1 0.0361143 29.2826 61.3661
13728 1 4.57484 27.6296 58.8518
19582 2 3.66805 29.2607 60.0928
13725 1 5.49235 29.2826 61.3661
13726 1 7.30146 29.2436 58.817
19283 2 6.39769 27.6478 60.1267
19285 2 9.12429 29.2607 60.0928
13395 1 8.2219 27.6705 61.4
13443 1 10.0311 27.6296 58.8518
18962 2 11.8539 27.6478 60.1267
13393 1 10.9486 29.2826 61.3661
13138 1 15.4873 27.6296 58.8518
13445 1 12.7577 29.2436 58.817
18960 2 14.5805 29.2607 60.0928
13133 1 13.6781 27.6705 61.4
13136 1 18.2139 29.2436 58.817
18706 2 17.3102 27.6478 60.1267
13135 1 16.4048 29.2826 61.3661
12927 1 20.9436 27.6296 58.8518
18708 2 20.0368 29.2607 60.0928
12902 1 19.1344 27.6705 61.4
14028 1 1.8411 32.4719 58.7484
19583 2 0.93811 30.8736 60.0592
13692 1 2.76252 30.8946 61.3327
14027 1 0.0324071 32.5064 61.3001
13727 1 4.57146 30.8577 58.7824
19585 2 3.66413 32.4866 60.0263
13690 1 5.48865 32.5064 61.3001
13729 1 7.29733 32.4719 58.7484
19242 2 9.12037 32.4866 60.0263
19244 2 6.39435 30.8736 60.0592
13394 1 8.21876 30.8946 61.3327
13399 1 10.0277 30.8577 58.7824
18961 2 11.8506 30.8736 60.0592
13396 1 10.9449 32.5064 61.3001
13137 1 15.4839 30.8577 58.7824
13397 1 12.7536 32.4719 58.7484
18963 2 14.5766 32.4866 60.0263
13098 1 13.675 30.8946 61.3327
13139 1 18.2098 32.4719 58.7484
18675 2 17.3068 30.8736 60.0592
13096 1 16.4011 32.5064 61.3001
12904 1 20.9402 30.8577 58.7824
18673 2 20.0328 32.4866 60.0263
12901 1 19.1312 30.8946 61.3327
14029 1 1.83571 35.6999 58.6842
19560 2 0.933666 34.0995 59.9946
13691 1 2.75831 34.118 61.2688
13696 1 4.56664 34.086 58.7155
13694 1 7.29195 35.6999 58.6842
19243 2 6.3899 34.0995 59.9946
13357 1 8.21454 34.118 61.2688
13398 1 10.0229 34.086 58.7155
18919 2 11.8461 34.0995 59.9946
13102 1 15.4791 34.086 58.7155
13400 1 12.7482 35.6999 58.6842
13097 1 13.6708 34.118 61.2688
13100 1 18.2044 35.6999 58.6842
18674 2 17.3024 34.0995 59.9946
12903 1 20.9354 34.086 58.7155
12878 1 19.127 34.118 61.2688
14010 1 0.0278056 35.7293 61.2392
19559 2 0.928552 37.3246 59.9366
13668 1 2.75348 37.3402 61.2118
19558 2 3.65927 35.7122 59.9645
13693 1 5.48404 35.7293 61.2392
13695 1 4.5609 37.3137 58.655
19245 2 9.11551 35.7122 59.9645
19212 2 6.38479 37.3246 59.9366
13356 1 8.20971 37.3402 61.2118
13355 1 10.9403 35.7293 61.2392
13361 1 10.0171 37.3137 58.655
18918 2 11.841 37.3246 59.9366
18917 2 14.5717 35.7122 59.9645
13101 1 15.4734 37.3137 58.655
13063 1 13.666 37.3402 61.2118
13099 1 16.3965 35.7293 61.2392
18643 2 17.2973 37.3246 59.9366
18676 2 20.028 35.7122 59.9645
12880 1 20.9296 37.3137 58.655
12877 1 19.1222 37.3402 61.2118
14012 1 1.82986 38.9272 58.6284
19544 2 0.923549 40.5488 59.8888
13667 1 2.74879 40.561 61.165
14011 1 0.0229416 38.9508 61.1869
19561 2 3.6541 38.9368 59.9112
13666 1 5.47918 38.9508 61.1869
13697 1 7.2861 38.9272 58.6284
19210 2 9.11034 38.9368 59.9112
19211 2 6.37979 40.5488 59.8888
13327 1 8.20503 40.561 61.165
18883 2 11.836 40.5488 59.8888
13358 1 10.9354 38.9508 61.1869
13359 1 12.7423 38.9272 58.6284
18920 2 14.5666 38.9368 59.9112
13062 1 13.6613 40.561 61.165
13103 1 18.1986 38.9272 58.6284
18642 2 17.2923 40.5488 59.8888
13061 1 16.3917 38.9508 61.1869
18641 2 20.0228 38.9368 59.9112
12854 1 19.1175 40.561 61.165
19543 2 0.919581 43.7722 59.8547
13652 1 2.7451 43.7804 61.1317
14002 1 0.0186473 42.1709 61.1464
19542 2 3.6495 42.1606 59.8698
13669 1 5.47489 42.1709 61.1464
19188 2 6.37582 43.7722 59.8547
19213 2 9.10574 42.1606 59.8698
13326 1 8.20133 43.7804 61.1317
18882 2 11.8321 43.7722 59.8547
13325 1 10.9311 42.1709 61.1464
18881 2 14.562 42.1606 59.8698
13035 1 13.6576 43.7804 61.1317
18612 2 17.2883 43.7722 59.8547
13064 1 16.3874 42.1709 61.1464
18644 2 20.0182 42.1606 59.8698
12853 1 19.1138 43.7804 61.1317
19536 2 0.917448 46.995 59.8371
13651 1 2.74313 46.9989 61.1145
14003 1 0.015741 45.3897 61.1209
19545 2 3.64637 45.3836 59.8437
13650 1 5.47198 45.3897 61.1209
19186 2 9.1026 45.3836 59.8437
19187 2 6.37369 46.995 59.8371
13305 1 8.19936 46.9989 61.1145
18855 2 11.8299 46.995 59.8371
13328 1 10.9282 45.3897 61.1209
18884 2 14.5588 45.3836 59.8437
13034 1 13.6556 46.9989 61.1145
18611 2 17.2862 46.995 59.8371
13033 1 16.3845 45.3897 61.1209
18610 2 20.0151 45.3836 59.8437
12831 1 19.1118 46.9989 61.1145
19535 2 0.917606 50.2176 59.8375
13641 1 2.74329 50.217 61.1149
14001 1 0.0148132 48.6079 61.1124
19534 2 3.64535 48.6063 59.835
13653 1 5.47105 48.6079 61.1124
19169 2 6.37384 50.2176 59.8375
19189 2 9.10159 48.6063 59.835
13304 1 8.19953 50.217 61.1149
18854 2 11.8301 50.2176 59.8375
13303 1 10.9273 48.6079 61.1124
18853 2 14.5578 48.6063 59.835
13012 1 13.6558 50.217 61.1149
18585 2 17.2863 50.2176 59.8375
13036 1 16.3835 48.6079 61.1124
18613 2 20.0141 48.6063 59.835
12830 1 19.112 50.217 61.1149
13893 1 2.77094 1.91608 61.8373
14190 1 0.043105 0.309013 61.8547
19730 2 1.86684 0.324939 63.1294
13851 1 0.961397 1.95022 64.3907
13892 1 5.49934 0.309013 61.8547
19414 2 4.59466 1.93279 63.1118
13891 1 3.68979 0.341584 64.4085
13558 1 8.22718 1.91608 61.8373
19448 2 7.32308 0.324939 63.1294
13553 1 9.14603 0.341584 64.4085
13554 1 6.41764 1.95022 64.3907
13584 1 10.9556 0.309013 61.8547
19098 2 10.0509 1.93279 63.1118
13222 1 11.8739 1.95022 64.3907
13242 1 13.6834 1.91608 61.8373
18774 2 15.5071 1.93279 63.1118
19097 2 12.7793 0.324939 63.1294
13240 1 14.6023 0.341584 64.4085
13241 1 16.4118 0.309013 61.8547
18784 2 18.2356 0.324939 63.1294
12970 1 17.3301 1.95022 64.3907
12973 1 19.1397 1.91608 61.8373
18536 2 20.9634 1.93279 63.1118
12969 1 20.0585 0.341584 64.4085
13855 1 2.77045 5.13079 61.7989
14154 1 0.042564 3.52333 61.8187
19731 2 1.86627 3.54081 63.093
13850 1 0.960927 5.16792 64.3516
13894 1 5.4988 3.52333 61.8187
19413 2 4.59415 5.14899 63.0731
13849 1 3.68927 3.559 64.3718
13557 1 8.22669 5.13079 61.7989
19412 2 7.32251 3.54081 63.093
13522 1 6.41717 5.16792 64.3516
13555 1 9.1455 3.559 64.3718
13556 1 10.955 3.52333 61.8187
19074 2 10.0504 5.14899 63.0731
13221 1 11.8734 5.16792 64.3516
13226 1 13.6829 5.13079 61.7989
18773 2 15.5066 5.14899 63.0731
19099 2 12.7788 3.54081 63.093
13220 1 14.6017 3.559 64.3718
13243 1 16.4113 3.52333 61.8187
18772 2 18.235 3.54081 63.093
12962 1 17.3296 5.16792 64.3516
12972 1 19.1392 5.13079 61.7989
18535 2 20.9629 5.14899 63.0731
12971 1 20.058 3.559 64.3718
13854 1 2.77008 8.34647 61.7556
14155 1 0.0421324 6.7385 61.7778
19691 2 1.86581 6.75738 63.0519
13806 1 0.960588 8.38624 64.3075
13853 1 5.49837 6.7385 61.7778
19374 2 4.59373 8.36598 63.0295
13852 1 3.68886 6.77699 64.3302
13526 1 8.22632 8.34647 61.7556
19415 2 7.32205 6.75738 63.0519
13521 1 6.41683 8.38624 64.3075
13520 1 9.1451 6.77699 64.3302
13559 1 10.9546 6.7385 61.7778
19073 2 10.05 8.36598 63.0295
13198 1 11.8731 8.38624 64.3075
13225 1 13.6826 8.34647 61.7556
18758 2 15.5062 8.36598 63.0295
19072 2 12.7783 6.75738 63.0519
13223 1 14.6013 6.77699 64.3302
13224 1 16.4108 6.7385 61.7778
18775 2 18.2345 6.75738 63.0519
12961 1 17.3293 8.38624 64.3075
12965 1 19.1388 8.34647 61.7556
18534 2 20.9624 8.36598 63.0295
12960 1 20.0576 6.77699 64.3302
13810 1 2.76982 11.5634 61.7073
14118 1 0.0418207 9.95475 61.7321
19692 2 1.86544 9.97481 63.0059
13805 1 0.960364 11.6053 64.2584
13856 1 5.49806 9.95475 61.7321
19373 2 4.5934 11.5839 62.981
13804 1 3.68858 9.99566 64.2836
13525 1 8.22606 11.5634 61.7073
19372 2 7.32168 9.97481 63.0059
13482 1 6.4166 11.6053 64.2584
13523 1 9.14482 9.99566 64.2836
13524 1 10.9543 9.95475 61.7321
19042 2 10.0496 11.5839 62.981
13197 1 11.8728 11.6053 64.2584
13202 1 13.6823 11.5634 61.7073
18757 2 15.5059 11.5839 62.981
19075 2 12.7779 9.97481 63.0059
13196 1 14.6011 9.99566 64.2836
13227 1 16.4105 9.95475 61.7321
18756 2 18.2342 9.97481 63.0059
12946 1 17.3291 11.6053 64.2584
12964 1 19.1385 11.5634 61.7073
18527 2 20.9621 11.5839 62.981
12963 1 20.0573 9.99566 64.2836
13809 1 2.76962 14.7817 61.6541
14119 1 0.0415995 13.1723 61.6814
19651 2 1.86513 13.1933 62.9549
13760 1 0.960182 14.8251 64.2043
13808 1 5.49784 13.1723 61.6814
19327 2 4.59309 14.8029 62.9276
13807 1 3.68839 13.2151 64.232
13486 1 8.22586 14.7817 61.6541
19375 2 7.32137 13.1933 62.9549
13480 1 9.14463 13.2151 64.232
13481 1 6.41642 14.8251 64.2043
13527 1 10.9541 13.1723 61.6814
19041 2 10.0493 14.8029 62.9276
13166 1 11.8727 14.8251 64.2043
13201 1 13.6821 14.7817 61.6541
18734 2 15.5056 14.8029 62.9276
19040 2 12.7776 13.1933 62.9549
13199 1 14.6009 13.2151 64.232
13200 1 16.4103 13.1723 61.6814
18759 2 18.2338 13.1933 62.9549
12945 1 17.3289 14.8251 64.2043
12949 1 19.1383 14.7817 61.6541
18526 2 20.9618 14.8029 62.9276
12944 1 20.0571 13.2151 64.232
14082 1 0.0413799 16.3915 61.6257
19652 2 1.86478 16.4128 62.8991
13811 1 5.49762 16.3915 61.6257
13758 1 3.68818 16.4353 64.1755
19325 2 7.32101 16.4128 62.8991
13483 1 9.14442 16.4353 64.1755
13484 1 10.9539 16.3915 61.6257
19043 2 12.7773 16.4128 62.8991
13164 1 14.6007 16.4353 64.1755
13203 1 16.4101 16.3915 61.6257
18732 2 18.2335 16.4128 62.8991
12947 1 20.0569 16.4353 64.1755
13764 1 2.76934 18.0017 61.5961
13759 1 0.959893 18.0457 64.1456
14083 1 0.0409969 19.6123 61.5654
19612 2 1.86421 19.6336 62.8389
19326 2 4.59265 18.0231 62.8695
13762 1 5.49724 19.6123 61.5654
13761 1 3.68776 19.6562 64.1146
13485 1 8.22558 18.0017 61.5961
13436 1 6.41613 18.0457 64.1456
19328 2 7.32045 19.6336 62.8389
13434 1 9.144 19.6562 64.1146
19002 2 10.0489 18.0231 62.8695
13165 1 11.8724 18.0457 64.1456
13487 1 10.9535 19.6123 61.5654
13170 1 13.6818 18.0017 61.5961
18733 2 15.5051 18.0231 62.8695
19000 2 12.7767 19.6336 62.8389
13167 1 14.6002 19.6562 64.1146
12923 1 17.3286 18.0457 64.1456
13168 1 16.4097 19.6123 61.5654
18735 2 18.2329 19.6336 62.8389
12948 1 19.1381 18.0017 61.5961
18511 2 20.9614 18.0231 62.8695
12921 1 20.0565 19.6562 64.1146
13763 1 2.76879 21.2234 61.5337
14050 1 0.0402022 22.8348 61.5011
19613 2 1.86321 22.8553 62.7751
13720 1 0.959287 21.2668 64.0828
13765 1 5.49644 22.8348 61.5011
19280 2 4.5919 21.2443 62.8074
13718 1 3.68691 22.8776 64.0503
13440 1 8.22503 21.2234 61.5337
19278 2 7.31944 22.8553 62.7751
13435 1 6.41553 21.2668 64.0828
13437 1 9.14315 22.8776 64.0503
13438 1 10.9527 22.8348 61.5011
19001 2 10.0481 21.2443 62.8074
13130 1 11.8718 21.2668 64.0828
13169 1 13.6813 21.2234 61.5337
18703 2 15.5044 21.2443 62.8074
19003 2 12.7757 22.8553 62.7751
13128 1 14.5994 22.8776 64.0503
13171 1 16.4089 22.8348 61.5011
18701 2 18.2319 22.8553 62.7751
12922 1 17.328 21.2668 64.0828
12926 1 19.1375 21.2234 61.5337
18510 2 20.9606 21.2443 62.8074
12924 1 20.0556 22.8776 64.0503
19580 2 1.86152 26.0776 62.7091
13719 1 0.958123 24.4883 64.0173
19279 2 4.59058 24.4664 62.7423
13721 1 3.68538 26.0989 63.984
19281 2 7.31776 26.0776 62.7091
13389 1 9.14161 26.0989 63.984
13391 1 6.41436 24.4883 64.0173
18958 2 10.0468 24.4664 62.7423
13129 1 11.8706 24.4883 64.0173
18702 2 15.5031 24.4664 62.7423
18956 2 12.774 26.0776 62.7091
13131 1 14.5979 26.0989 63.984
18704 2 18.2302 26.0776 62.7091
12899 1 17.3268 24.4883 64.0173
18491 2 20.9593 24.4664 62.7423
12897 1 20.0541 26.0989 63.984
19581 2 1.85894 29.2999 62.6427
13688 1 0.956167 27.7094 63.9506
19240 2 4.58847 27.6888 62.6758
13686 1 3.68296 29.3197 63.9176
19238 2 7.31518 29.2999 62.6427
13390 1 6.41241 27.7094 63.9506
13392 1 9.1392 29.3197 63.9176
18957 2 10.0447 27.6888 62.6758
13094 1 11.8686 27.7094 63.9506
18671 2 15.5009 27.6888 62.6758
18959 2 12.7714 29.2999 62.6427
13092 1 14.5954 29.3197 63.9176
18669 2 18.2277 29.2999 62.6427
12898 1 17.3249 27.7094 63.9506
18490 2 20.9572 27.6888 62.6758
12900 1 20.0517 29.3197 63.9176
19556 2 1.85545 32.5215 62.5785
13687 1 0.953287 30.9296 63.8853
19239 2 4.58542 30.9109 62.6101
13689 1 3.67964 32.5392 63.8539
19241 2 7.31168 32.5215 62.5785
13351 1 9.13588 32.5392 63.8539
13353 1 6.40953 30.9296 63.8853
18915 2 10.0417 30.9109 62.6101
13093 1 11.8658 30.9296 63.8853
18670 2 15.4979 30.9109 62.6101
18913 2 12.7679 32.5215 62.5785
13095 1 14.5921 32.5392 63.8539
18672 2 18.2242 32.5215 62.5785
12875 1 17.322 30.9296 63.8853
18471 2 20.9541 30.9109 62.6101
12873 1 20.0484 32.5392 63.8539
13664 1 0.949593 34.1483 63.8239
19208 2 4.58153 34.1319 62.5482
13352 1 6.40583 34.1483 63.8239
18914 2 10.0378 34.1319 62.5482
13059 1 11.8621 34.1483 63.8239
18639 2 15.494 34.1319 62.5482
12874 1 17.3183 34.1483 63.8239
18470 2 20.9502 34.1319 62.5482
19557 2 1.85126 35.7419 62.5196
13663 1 0.945453 37.3652 63.7695
13662 1 3.67566 35.757 63.7956
19207 2 4.57719 37.3515 62.4931
19206 2 7.3075 35.7419 62.5196
13354 1 9.13189 35.757 63.7956
13323 1 6.40169 37.3652 63.7695
18879 2 10.0334 37.3515 62.4931
13058 1 11.8579 37.3652 63.7695
18916 2 12.7637 35.7419 62.5196
13057 1 14.5881 35.757 63.7956
18638 2 15.4897 37.3515 62.4931
18637 2 18.22 35.7419 62.5196
12851 1 17.3142 37.3652 63.7695
12876 1 20.0444 35.757 63.7956
18451 2 20.9459 37.3515 62.4931
19540 2 1.84692 38.9608 62.4692
13648 1 0.941513 40.5802 63.7253
19184 2 4.57302 40.5696 62.4482
13665 1 3.67155 38.9729 63.746
19209 2 7.30316 38.9608 62.4692
13321 1 9.12778 38.9729 63.746
13322 1 6.39775 40.5802 63.7253
18878 2 10.0293 40.5696 62.4482
13031 1 11.854 40.5802 63.7253
18608 2 15.4855 40.5696 62.4482
18877 2 12.7594 38.9608 62.4692
13060 1 14.584 38.9729 63.746
18640 2 18.2156 38.9608 62.4692
12850 1 17.3102 40.5802 63.7253
18450 2 20.9417 40.5696 62.4482
12849 1 20.0403 38.9729 63.746
19541 2 1.84312 42.1781 62.4305
13647 1 0.938432 43.7936 63.6941
19183 2 4.56976 43.7864 62.4164
13646 1 3.66794 42.1871 63.708
19182 2 7.29935 42.1781 62.4305
13301 1 6.39467 43.7936 63.6941
13324 1 9.12418 42.1871 63.708
18851 2 10.026 43.7864 62.4164
13030 1 11.8509 43.7936 63.6941
18607 2 15.4822 43.7864 62.4164
18880 2 12.7556 42.1781 62.4305
13029 1 14.5804 42.1871 63.708
18606 2 18.2118 42.1781 62.4305
12828 1 17.3071 43.7936 63.6941
18431 2 20.9385 43.7864 62.4164
12852 1 20.0367 42.1871 63.708
19532 2 1.84056 45.3944 62.4062
13640 1 0.936809 47.0059 63.6781
19168 2 4.56804 47.0023 62.4001
13649 1 3.66553 45.3998 63.6841
19185 2 7.2968 45.3944 62.4062
13299 1 9.12177 45.3998 63.6841
13300 1 6.39305 47.0059 63.6781
18850 2 10.0243 47.0023 62.4001
13011 1 11.8493 47.0059 63.6781
18584 2 15.4805 47.0023 62.4001
18849 2 12.753 45.3944 62.4062
13032 1 14.578 45.3998 63.6841
18609 2 18.2093 45.3944 62.4062
12827 1 17.3055 47.0059 63.6781
18430 2 20.9368 47.0023 62.4001
12826 1 20.0342 45.3998 63.6841
19533 2 1.83975 48.6101 62.3981
13639 1 0.936981 50.2178 63.6785
19167 2 4.5682 50.2178 62.4004
13638 1 3.66478 48.6118 63.6762
19166 2 7.29599 48.6101 62.3981
13284 1 6.39322 50.2178 63.6785
13302 1 9.12102 48.6118 63.6762
18828 2 10.0244 50.2178 62.4004
13010 1 11.8495 50.2178 63.6785
18583 2 15.4807 50.2178 62.4004
18852 2 12.7522 48.6101 62.3981
13009 1 14.5773 48.6118 63.6762
18582 2 18.2085 48.6101 62.3981
12809 1 17.3057 50.2178 63.6785
18411 2 20.9369 50.2178 62.4004
12829 1 20.0335 48.6118 63.6762
19410 2 2.7853 1.96662 65.6639
19729 2 0.0574932 0.357169 65.6818
13847 1 1.88034 0.374729 66.9628
19409 2 5.51373 0.357169 65.6818
13518 1 4.60814 1.98493 66.9449
19070 2 8.24154 1.96662 65.6639
13552 1 7.33658 0.374729 66.9628
19096 2 10.97 0.357169 65.6818
13218 1 10.0644 1.98493 66.9449
18770 2 13.6978 1.96662 65.6639
12958 1 15.5206 1.98493 66.9449
13217 1 12.7928 0.374729 66.9628
18769 2 16.4262 0.357169 65.6818
12968 1 18.2491 0.374729 66.9628
18533 2 19.154 1.96662 65.6639
12784 1 20.9769 1.98493 66.9449
19370 2 2.78475 5.18586 65.6247
19689 2 0.0568957 3.57618 65.6449
13848 1 1.87973 3.5952 66.9257
19411 2 5.51313 3.57618 65.6449
13517 1 4.60759 5.20555 66.9053
19069 2 8.24099 5.18586 65.6247
13516 1 7.33597 3.5952 66.9257
19068 2 10.9694 3.57618 65.6449
13194 1 10.0638 5.20555 66.9053
18754 2 13.6972 5.18586 65.6247
12957 1 15.5201 5.20555 66.9053
13219 1 12.7922 3.5952 66.9257
18771 2 16.4256 3.57618 65.6449
12956 1 18.2484 3.5952 66.9257
18532 2 19.1535 5.18586 65.6247
12783 1 20.9763 5.20555 66.9053
19369 2 2.78431 8.40558 65.5804
19690 2 0.056401 6.79566 65.6032
13802 1 1.87925 6.81596 66.8836
19368 2 5.51264 6.79566 65.6032
13478 1 4.60717 8.42644 66.8607
19038 2 8.24055 8.40558 65.5804
13519 1 7.33548 6.81596 66.8836
19071 2 10.9689 6.79566 65.6032
13193 1 10.0634 8.42644 66.8607
18753 2 13.6968 8.40558 65.5804
12942 1 15.5196 8.42644 66.8607
13192 1 12.7917 6.81596 66.8836
18752 2 16.4251 6.79566 65.6032
12959 1 18.248 6.81596 66.8836
18525 2 19.153 8.40558 65.5804
12782 1 20.9759 8.42644 66.8607
19323 2 2.78396 11.6258 65.5313
19649 2 0.05601 10.0156 65.5565
13803 1 1.87889 10.037 66.8365
19371 2 5.51225 10.0156 65.5565
13477 1 4.60687 11.6475 66.8111
19037 2 8.2402 11.6258 65.5313
13476 1 7.33513 10.037 66.8365
19036 2 10.9685 10.0156 65.5565
13162 1 10.0631 11.6475 66.8111
18730 2 13.6964 11.6258 65.5313
12941 1 15.5193 11.6475 66.8111
13195 1 12.7914 10.037 66.8365
18755 2 16.4247 10.0156 65.5565
12940 1 18.2476 10.037 66.8365
18524 2 19.1527 11.6258 65.5313
12775 1 20.9756 11.6475 66.8111
19322 2 2.78362 14.8464 65.4772
19650 2 0.0556756 13.236 65.5048
13756 1 1.87862 13.2581 66.7844
19321 2 5.51191 13.236 65.5048
13432 1 4.60661 14.8687 66.7565
18998 2 8.23986 14.8464 65.4772
13479 1 7.33486 13.2581 66.7844
19039 2 10.9682 13.236 65.5048
13161 1 10.0628 14.8687 66.7565
18729 2 13.6961 14.8464 65.4772
12919 1 15.5191 14.8687 66.7565
13160 1 12.7911 13.2581 66.7844
18728 2 16.4244 13.236 65.5048
12943 1 18.2473 13.2581 66.7844
18509 2 19.1523 14.8464 65.4772
12774 1 20.9753 14.8687 66.7565
19610 2 0.0552875 16.4568 65.4484
13757 1 1.87833 16.4792 66.7275
19324 2 5.51153 16.4568 65.4484
13430 1 7.33457 16.4792 66.7275
18996 2 10.9678 16.4568 65.4484
13163 1 12.7908 16.4792 66.7275
18731 2 16.424 16.4568 65.4484
12917 1 18.247 16.4792 66.7275
19276 2 2.78314 18.0673 65.4186
19611 2 0.0546694 19.6778 65.3879
13716 1 1.87782 19.7 66.6665
13431 1 4.60624 18.0897 66.6975
19274 2 5.51091 19.6778 65.3879
18997 2 8.23938 18.0673 65.4186
13433 1 7.33406 19.7 66.6665
13126 1 10.0625 18.0897 66.6975
18999 2 10.9671 19.6778 65.3879
18699 2 13.6956 18.0673 65.4186
12918 1 15.5187 18.0897 66.6975
13124 1 12.7903 19.7 66.6665
18697 2 16.4234 19.6778 65.3879
12920 1 18.2465 19.7 66.6665
18508 2 19.1519 18.0673 65.4186
12763 1 20.975 18.0897 66.6975
19275 2 2.78233 21.2882 65.3564
19578 2 0.0536235 22.8986 65.3242
13717 1 1.87689 22.9202 66.6024
19277 2 5.50986 22.8986 65.3242
13387 1 4.60553 21.3102 66.6348
18954 2 8.23857 21.2882 65.3564
13385 1 7.33313 22.9202 66.6024
18952 2 10.9661 22.8986 65.3242
13125 1 10.0618 21.3102 66.6348
18698 2 13.6948 21.2882 65.3564
12895 1 15.518 21.3102 66.6348
13127 1 12.7894 22.9202 66.6024
18700 2 16.4223 22.8986 65.3242
12893 1 18.2456 22.9202 66.6024
18489 2 19.151 21.2882 65.3564
12762 1 20.9742 21.3102 66.6348
19236 2 2.781 24.5089 65.2917
19579 2 0.0519727 26.1189 65.2589
13684 1 1.87537 26.1393 66.537
19234 2 5.50821 26.1189 65.2589
13386 1 4.60433 24.53 66.5698
18953 2 8.23724 24.5089 65.2917
13388 1 7.3316 26.1393 66.537
18955 2 10.9644 26.1189 65.2589
13090 1 10.0606 24.53 66.5698
18667 2 13.6935 24.5089 65.2917
12894 1 15.5168 24.53 66.5698
13088 1 12.7878 26.1393 66.537
18665 2 16.4207 26.1189 65.2589
12896 1 18.2441 26.1393 66.537
18488 2 19.1497 24.5089 65.2917
12751 1 20.973 24.53 66.5698
19235 2 2.77899 27.7286 65.2262
19554 2 0.0495719 29.3379 65.1939
13685 1 1.87312 29.3567 66.4721
19237 2 5.50581 29.3379 65.1939
13349 1 4.60246 27.7483 66.5043
18911 2 8.23523 27.7286 65.2262
13347 1 7.32936 29.3567 66.4721
18909 2 10.962 29.3379 65.1939
13089 1 10.0587 27.7483 66.5043
18666 2 13.6915 27.7286 65.2262
12871 1 15.5149 27.7483 66.5043
13091 1 12.7856 29.3567 66.4721
18668 2 16.4183 29.3379 65.1939
12869 1 18.2418 29.3567 66.4721
18469 2 19.1477 27.7286 65.2262
12750 1 20.9712 27.7483 66.5043
19204 2 2.7762 30.9468 65.1623
19555 2 0.0464238 32.5553 65.1317
13660 1 1.87013 32.572 66.4103
19202 2 5.50266 32.5553 65.1317
13348 1 4.59983 30.9646 66.4407
18910 2 8.23244 30.9468 65.1623
13350 1 7.32637 32.572 66.4103
18912 2 10.9589 32.5553 65.1317
13055 1 10.0561 30.9646 66.4407
18635 2 13.6887 30.9468 65.1623
12870 1 15.5123 30.9646 66.4407
13053 1 12.7826 32.572 66.4103
18633 2 16.4151 32.5553 65.1317
12872 1 18.2388 32.572 66.4103
18468 2 19.1449 30.9468 65.1623
12739 1 20.9685 30.9646 66.4407
19203 2 2.77275 34.1632 65.1026
13319 1 4.59655 34.1787 66.3814
18875 2 8.22899 34.1632 65.1026
13054 1 10.0528 34.1787 66.3814
18634 2 13.6852 34.1632 65.1026
12847 1 15.509 34.1787 66.3814
18449 2 19.1415 34.1632 65.1026
12738 1 20.9653 34.1787 66.3814
19538 2 0.042768 35.7705 65.0751
13661 1 1.86665 35.7848 66.3542
19180 2 2.76899 37.3774 65.0499
19205 2 5.49901 35.7705 65.0751
13318 1 4.59297 37.3899 66.3292
13317 1 7.32289 35.7848 66.3542
18874 2 8.22523 37.3774 65.0499
18873 2 10.9552 35.7705 65.0751
13027 1 10.0492 37.3899 66.3292
13056 1 12.7791 35.7848 66.3542
18604 2 13.6815 37.3774 65.0499
12846 1 15.5054 37.3899 66.3292
18636 2 16.4115 35.7705 65.0751
12845 1 18.2354 35.7848 66.3542
18448 2 19.1377 37.3774 65.0499
12727 1 20.9617 37.3899 66.3292
19179 2 2.76542 40.5895 65.0072
19539 2 0.0390202 38.9837 65.0271
13644 1 1.8631 38.9948 66.3067
19178 2 5.49526 38.9837 65.0271
13297 1 4.5896 40.5992 66.287
18847 2 8.22166 40.5895 65.0072
13320 1 7.31934 38.9948 66.3067
18876 2 10.9515 38.9837 65.0271
13026 1 10.0458 40.5992 66.287
18603 2 13.6779 40.5895 65.0072
12824 1 15.5021 40.5992 66.287
13025 1 12.7756 38.9948 66.3067
18602 2 16.4077 38.9837 65.0271
12848 1 18.2318 38.9948 66.3067
18429 2 19.1341 40.5895 65.0072
12726 1 20.9583 40.5992 66.287
19164 2 2.76267 43.8 64.9772
19530 2 0.035788 42.195 64.9905
13645 1 1.86005 42.2032 66.2705
19181 2 5.49203 42.195 64.9905
13296 1 4.587 43.8067 66.2574
18846 2 8.21891 43.8 64.9772
13295 1 7.31629 42.2032 66.2705
18845 2 10.9483 42.195 64.9905
13007 1 10.0432 43.8067 66.2574
18580 2 13.6751 43.8 64.9772
12823 1 15.4995 43.8067 66.2574
13028 1 12.7725 42.2032 66.2705
18605 2 16.4045 42.195 64.9905
12822 1 18.2288 42.2032 66.2705
18428 2 19.1314 43.8 64.9772
12715 1 20.9557 43.8067 66.2574
19163 2 2.76124 47.0094 64.9618
19531 2 0.0336445 45.4048 64.9676
13636 1 1.85803 45.41 66.2479
19162 2 5.48988 45.4048 64.9676
13283 1 4.58565 47.013 66.2423
18827 2 8.21748 47.0094 64.9618
13298 1 7.31426 45.41 66.2479
18848 2 10.9461 45.4048 64.9676
13006 1 10.0419 47.013 66.2423
18579 2 13.6737 47.0094 64.9618
12808 1 15.4981 47.013 66.2423
13005 1 12.7705 45.41 66.2479
18578 2 16.4024 45.4048 64.9676
12825 1 18.2267 45.41 66.2479
18410 2 19.13 47.0094 64.9618
12714 1 20.9544 47.013 66.2423
19153 2 2.76141 50.2184 64.9621
19529 2 0.032999 48.6139 64.96
13637 1 1.85743 48.6159 66.2405
19165 2 5.48924 48.6139 64.96
13282 1 4.58583 50.2189 66.2426
18826 2 8.21765 50.2184 64.9621
13281 1 7.31366 48.6159 66.2405
18825 2 10.9455 48.6139 64.96
12992 1 10.0421 50.2189 66.2426
18561 2 13.6739 50.2184 64.9621
12807 1 15.4983 50.2189 66.2426
13008 1 12.7699 48.6159 66.2405
18581 2 16.4017 48.6139 64.96
12806 1 18.2261 48.6159 66.2405
18409 2 19.1301 50.2184 64.9621
12703 1 20.9545 50.2189 66.2426
13514 1 2.79794 2.01848 69.5032
13846 1 0.0702254 0.406735 69.5213
19366 2 0.976109 2.00004 68.2144
13513 1 5.52646 0.406735 69.5213
19408 2 3.7046 0.388986 68.2324
13190 1 8.25418 2.01848 69.5032
19065 2 9.16083 0.388986 68.2324
19066 2 6.43235 2.00004 68.2144
13216 1 10.9827 0.406735 69.5213
18750 2 11.8886 2.00004 68.2144
12954 1 13.7104 2.01848 69.5032
18768 2 14.6171 0.388986 68.2324
12953 1 16.4389 0.406735 69.5213
18530 2 17.3448 2.00004 68.2144
12781 1 19.1667 2.01848 69.5032
18529 2 20.0733 0.388986 68.2324
13474 1 2.7972 5.24201 69.4634
13800 1 0.0694354 3.63024 69.4839
19365 2 0.975443 5.22236 68.1747
13515 1 5.52567 3.63024 69.4839
19364 2 3.70388 3.61117 68.1952
13189 1 8.25344 5.24201 69.4634
19034 2 6.43168 5.22236 68.1747
19067 2 9.16012 3.61117 68.1952
13188 1 10.9819 3.63024 69.4839
18749 2 11.8879 5.22236 68.1747
12938 1 13.7097 5.24201 69.4634
18748 2 14.6164 3.61117 68.1952
12955 1 16.4382 3.63024 69.4839
18522 2 17.3442 5.22236 68.1747
12780 1 19.1659 5.24201 69.4634
18531 2 20.0726 3.61117 68.1952
13473 1 2.7966 8.46546 69.4185
13801 1 0.0687617 6.85376 69.4416
19319 2 0.974883 8.44486 68.1301
13472 1 5.525 6.85376 69.4416
19367 2 3.70327 6.8336 68.1531
13158 1 8.25283 8.46546 69.4185
19032 2 9.15951 6.8336 68.1531
19033 2 6.43112 8.44486 68.1301
13191 1 10.9812 6.85376 69.4416
18726 2 11.8874 8.44486 68.1301
12937 1 13.7091 8.46546 69.4185
18751 2 14.6157 6.8336 68.1531
12936 1 16.4375 6.85376 69.4416
18521 2 17.3436 8.44486 68.1301
12773 1 19.1653 8.46546 69.4185
18520 2 20.072 6.8336 68.1531
13428 1 2.79611 11.6886 69.3686
13754 1 0.0682224 10.0771 69.3942
19318 2 0.974414 11.6674 68.0806
13475 1 5.52446 10.0771 69.3942
19317 2 3.70276 10.0561 68.106
13157 1 8.25235 11.6886 69.3686
18994 2 6.43065 11.6674 68.0806
19035 2 9.159 10.0561 68.106
13156 1 10.9807 10.0771 69.3942
18725 2 11.8869 11.6674 68.0806
12915 1 13.7086 11.6886 69.3686
18724 2 14.6152 10.0561 68.106
12939 1 16.4369 10.0771 69.3942
18506 2 17.3431 11.6674 68.0806
12772 1 19.1648 11.6886 69.3686
18523 2 20.0715 10.0561 68.106
13427 1 2.79569 14.9111 69.314
13755 1 0.067781 13.2999 69.3419
19272 2 0.973958 14.8897 68.0262
13426 1 5.52402 13.2999 69.3419
19320 2 3.70231 13.2786 68.054
13122 1 8.25193 14.9111 69.314
18992 2 9.15855 13.2786 68.054
18993 2 6.4302 14.8897 68.0262
13159 1 10.9803 13.2999 69.3419
18695 2 11.8864 14.8897 68.0262
12914 1 13.7082 14.9111 69.314
18727 2 14.6148 13.2786 68.054
12913 1 16.4365 13.2999 69.3419
18505 2 17.3427 14.8897 68.0262
12761 1 19.1644 14.9111 69.314
18504 2 20.071 13.2786 68.054
13714 1 0.0673308 16.522 69.285
13429 1 5.52357 16.522 69.285
19270 2 3.70181 16.5006 67.9974
18995 2 9.15805 16.5006 67.9974
13120 1 10.9798 16.522 69.285
18693 2 14.6143 16.5006 67.9974
12916 1 16.436 16.522 69.285
18507 2 20.0705 16.5006 67.9974
13383 1 2.79518 18.1325 69.2551
19271 2 0.973376 18.1114 67.9676
13715 1 0.0667096 19.7427 69.2242
13381 1 5.52295 19.7427 69.2242
19273 2 3.70109 19.7219 67.9369
13121 1 8.25142 18.1325 69.2551
18950 2 6.42961 18.1114 67.9676
18948 2 9.15733 19.7219 67.9369
18694 2 11.8859 18.1114 67.9676
13123 1 10.9792 19.7427 69.2242
12891 1 13.7077 18.1325 69.2551
18696 2 14.6136 19.7219 67.9369
18486 2 17.3421 18.1114 67.9676
12889 1 16.4354 19.7427 69.2242
12760 1 19.1639 18.1325 69.2551
18484 2 20.0698 19.7219 67.9369
13382 1 2.79436 21.3525 69.1926
13682 1 0.0657064 22.9618 69.1605
19232 2 0.972464 21.3321 67.9055
13384 1 5.52194 22.9618 69.1605
19230 2 3.69996 22.9419 67.8736
13086 1 8.2506 21.3525 69.1926
18949 2 6.4287 21.3321 67.9055
18951 2 9.1562 22.9419 67.8736
13084 1 10.9782 22.9618 69.1605
18663 2 11.8849 21.3321 67.9055
12890 1 13.7068 21.3525 69.1926
18661 2 14.6124 22.9419 67.8736
12892 1 16.4344 22.9618 69.1605
18485 2 17.3412 21.3321 67.9055
12749 1 19.1631 21.3525 69.1926
18487 2 20.0687 22.9419 67.8736
13345 1 2.79313 24.5707 69.1283
13683 1 0.0642307 26.1788 69.0961
19231 2 0.971094 24.5513 67.8414
13343 1 5.52047 26.1788 69.0961
19233 2 3.69833 26.1602 67.8091
13085 1 8.24937 24.5707 69.1283
18905 2 9.15457 26.1602 67.8091
18907 2 6.42733 24.5513 67.8414
13087 1 10.9767 26.1788 69.0961
18662 2 11.8836 24.5513 67.8414
12867 1 13.7056 24.5707 69.1283
18664 2 14.6108 26.1602 67.8091
12865 1 16.4329 26.1788 69.0961
18466 2 17.3398 24.5513 67.8414
12748 1 19.1618 24.5707 69.1283
18464 2 20.067 26.1602 67.8091
13344 1 2.79139 27.7863 69.0642
13658 1 0.062155 29.393 69.0327
19200 2 0.969166 27.7684 67.777
13346 1 5.51839 29.393 69.0327
19198 2 3.69607 29.3761 67.7454
13051 1 8.24763 27.7863 69.0642
18906 2 6.4254 27.7684 67.777
18908 2 9.15231 29.3761 67.7454
13049 1 10.9746 29.393 69.0327
18631 2 11.8816 27.7684 67.777
12866 1 13.7039 27.7863 69.0642
18629 2 14.6085 29.3761 67.7454
12868 1 16.4309 29.393 69.0327
18465 2 17.3379 27.7684 67.777
12737 1 19.1601 27.7863 69.0642
18467 2 20.0648 29.3761 67.7454
13315 1 2.78901 30.999 69.0021
13659 1 0.0594882 32.6043 68.9726
19199 2 0.966569 30.983 67.7146
13313 1 5.51573 32.6043 68.9726
19201 2 3.69317 32.5892 67.6849
13050 1 8.24524 30.999 69.0021
18869 2 9.14941 32.5892 67.6849
18871 2 6.42281 30.983 67.7146
13052 1 10.972 32.6043 68.9726
18630 2 11.879 30.983 67.7146
12843 1 13.7015 30.999 69.0021
18632 2 14.6056 32.5892 67.6849
12841 1 16.4282 32.6043 68.9726
18446 2 17.3353 30.983 67.7146
12736 1 19.1577 30.999 69.0021
18444 2 20.0619 32.5892 67.6849
13314 1 2.7861 34.2087 68.9446
19176 2 0.963424 34.1947 67.6567
13023 1 8.24234 34.2087 68.9446
18870 2 6.41966 34.1947 67.6567
18600 2 11.8759 34.1947 67.6567
12842 1 13.6986 34.2087 68.9446
18445 2 17.3321 34.1947 67.6567
12725 1 19.1548 34.2087 68.9446
13642 1 0.0564417 35.8123 68.9183
13293 1 2.783 37.4153 68.8942
19175 2 0.960049 37.4036 67.6059
13316 1 5.51268 35.8123 68.9183
19174 2 3.68985 35.7995 67.6302
18872 2 9.14609 35.7995 67.6302
13022 1 8.23924 37.4153 68.8942
18843 2 6.41629 37.4036 67.6059
13021 1 10.9689 35.8123 68.9183
18599 2 11.8725 37.4036 67.6059
18598 2 14.6023 35.7995 67.6302
12820 1 13.6955 37.4153 68.8942
12844 1 16.4252 35.8123 68.9183
18426 2 17.3288 37.4036 67.6059
18447 2 20.0586 35.7995 67.6302
12724 1 19.1517 37.4153 68.8942
13292 1 2.78008 40.619 68.8536
13643 1 0.0533564 39.0175 68.8725
19160 2 0.956931 40.6097 67.5649
13291 1 5.50959 39.0175 68.8725
19177 2 3.68655 39.0069 67.584
13003 1 8.23632 40.619 68.8536
18841 2 9.14279 39.0069 67.584
18842 2 6.41317 40.6097 67.5649
13024 1 10.9658 39.0175 68.8725
18576 2 11.8694 40.6097 67.5649
12819 1 13.6926 40.619 68.8536
18601 2 14.599 39.0069 67.584
12818 1 16.4221 39.0175 68.8725
18425 2 17.3256 40.6097 67.5649
12713 1 19.1488 40.619 68.8536
18424 2 20.0553 39.0069 67.584
13279 1 2.77786 43.8205 68.8252
13634 1 0.050739 42.22 68.8378
19159 2 0.954544 43.8138 67.5362
13294 1 5.50698 42.22 68.8378
19158 2 3.68374 42.212 67.5489
18818 2 4.60139 43.8277 70.0907
13002 1 8.2341 43.8205 68.8252
18823 2 6.41078 43.8138 67.5362
18844 2 9.13997 42.212 67.5489
13001 1 10.9632 42.22 68.8378
18575 2 11.867 43.8138 67.5362
18556 2 10.0576 43.8277 70.0907
12804 1 13.6903 43.8205 68.8252
18574 2 14.5962 42.212 67.5489
18402 2 15.5139 43.8277 70.0907
12821 1 16.4195 42.22 68.8378
18407 2 17.3233 43.8138 67.5362
12712 1 19.1466 43.8205 68.8252
18427 2 20.0525 42.212 67.5489
18328 2 20.9701 43.8277 70.0907
13278 1 2.77673 47.0206 68.8107
13635 1 0.0490227 45.4207 68.8161
19152 2 0.953324 47.0165 67.5215
19148 2 1.87257 45.4256 70.0818
13277 1 5.50526 45.4207 68.8161
19161 2 3.68189 45.4153 67.527
18807 2 4.6003 47.0232 70.0765
12991 1 8.23297 47.0206 68.8107
18821 2 9.13812 45.4153 67.527
18822 2 6.40956 47.0165 67.5215
18820 2 7.32881 45.4256 70.0818
13004 1 10.9615 45.4207 68.8161
18560 2 11.8658 47.0165 67.5215
18555 2 10.0565 47.0232 70.0765
12803 1 13.6892 47.0206 68.8107
18577 2 14.5944 45.4153 67.527
18391 2 15.5128 47.0232 70.0765
18554 2 12.785 45.4256 70.0818
12802 1 16.4177 45.4207 68.8161
18406 2 17.322 47.0165 67.5215
18404 2 18.2413 45.4256 70.0818
12702 1 19.1454 47.0206 68.8107
18405 2 20.0506 45.4153 67.527
18327 2 20.969 47.0232 70.0765
13270 1 2.77693 50.2203 68.811
13633 1 0.0485395 48.6205 68.809
19151 2 0.953519 50.2188 67.5218
19149 2 1.87212 48.6206 70.0748
13280 1 5.50478 48.6205 68.809
19150 2 3.68136 48.6177 67.5198
18806 2 4.60051 50.2181 70.0768
12990 1 8.23316 50.2203 68.811
18808 2 6.40976 50.2188 67.5218
18824 2 9.1376 48.6177 67.5198
18805 2 7.32836 48.6206 70.0748
12989 1 10.961 48.6205 68.809
18559 2 11.866 50.2188 67.5218
18545 2 10.0568 50.2181 70.0768
12793 1 13.6894 50.2203 68.811
18558 2 14.5938 48.6177 67.5198
18390 2 15.513 50.2181 70.0768
18557 2 12.7846 48.6206 70.0748
12805 1 16.4173 48.6205 68.809
18392 2 17.3222 50.2188 67.5218
18389 2 18.2408 48.6206 70.0748
12701 1 19.1456 50.2203 68.811
18408 2 20.0501 48.6177 67.5198
18320 2 20.9692 50.2181 70.0768
13470 1 0.98271 2.05228 72.0784
19362 2 1.89534 0.419504 70.7783
13512 1 3.71138 0.439039 72.0966
19030 2 4.623 2.03222 70.7603
13185 1 9.16761 0.439039 72.0966
13186 1 6.43895 2.05228 72.0784
19064 2 7.35158 0.419504 70.7783
12934 1 11.8952 2.05228 72.0784
18746 2 10.0792 2.03222 70.7603
12952 1 14.6239 0.439039 72.0966
18518 2 15.5355 2.03222 70.7603
18745 2 12.8078 0.419504 70.7783
12778 1 17.3514 2.05228 72.0784
18528 2 18.2641 0.419504 70.7783
12777 1 20.0801 0.439039 72.0966
18376 2 20.9917 2.03222 70.7603
13469 1 0.981692 5.2786 72.0384
19363 2 1.89444 3.64497 70.741
13468 1 3.7103 3.66547 72.059
19029 2 4.62214 5.25774 70.7204
13154 1 6.43793 5.2786 72.0384
13187 1 9.16654 3.66547 72.059
19028 2 7.35068 3.64497 70.741
12933 1 11.8942 5.2786 72.0384
18722 2 10.0784 5.25774 70.7204
12932 1 14.6228 3.66547 72.059
18517 2 15.5346 5.25774 70.7204
18747 2 12.8069 3.64497 70.741
12770 1 17.3504 5.2786 72.0384
18516 2 18.2632 3.64497 70.741
12779 1 20.079 3.66547 72.059
18375 2 20.9909 5.25774 70.7204
13424 1 0.980827 8.50447 71.9935
19315 2 1.89363 6.87049 70.6987
13471 1 3.70936 6.89161 72.0166
18990 2 4.62138 8.4832 70.6757
13152 1 9.1656 6.89161 72.0166
13153 1 6.43707 8.50447 71.9935
19031 2 7.34986 6.87049 70.6987
12911 1 11.8933 8.50447 71.9935
18721 2 10.0776 8.4832 70.6757
12935 1 14.6218 6.89161 72.0166
18502 2 15.5339 8.4832 70.6757
18720 2 12.8061 6.87049 70.6987
12769 1 17.3495 8.50447 71.9935
18519 2 18.2623 6.87049 70.6987
12768 1 20.0781 6.89161 72.0166
18374 2 20.9901 8.4832 70.6757
13423 1 0.98014 11.7296 71.9437
19316 2 1.89292 10.0958 70.6515
13422 1 3.70858 10.1171 71.9692
18989 2 4.62072 11.7083 70.626
13118 1 6.43638 11.7296 71.9437
13155 1 9.16482 10.1171 71.9692
18988 2 7.34916 10.0958 70.6515
12910 1 11.8926 11.7296 71.9437
18691 2 10.077 11.7083 70.626
12909 1 14.6211 10.1171 71.9692
18501 2 15.5332 11.7083 70.626
18723 2 12.8054 10.0958 70.6515
12758 1 17.3489 11.7296 71.9437
18500 2 18.2616 10.0958 70.6515
12771 1 20.0773 10.1171 71.9692
18368 2 20.9894 11.7083 70.626
19268 2 1.89229 13.3205 70.5994
13425 1 3.70797 13.3417 71.917
18946 2 4.6201 14.9325 70.5717
13116 1 9.16421 13.3417 71.917
18991 2 7.34853 13.3205 70.5994
18690 2 10.0763 14.9325 70.5717
12912 1 14.6204 13.3417 71.917
18482 2 15.5326 14.9325 70.5717
18689 2 12.8048 13.3205 70.5994
18503 2 18.261 13.3205 70.5994
12756 1 20.0767 13.3417 71.917
18367 2 20.9888 14.9325 70.5717
13379 1 0.979587 14.9534 71.8891
19269 2 1.89164 16.5441 70.543
13377 1 3.70744 16.5647 71.8603
13117 1 6.43583 14.9534 71.8891
13119 1 9.16368 16.5647 71.8603
18944 2 7.34788 16.5441 70.543
12887 1 11.8921 14.9534 71.8891
12885 1 14.6199 16.5647 71.8603
18692 2 12.8041 16.5441 70.543
12757 1 17.3483 14.9534 71.8891
18480 2 18.2604 16.5441 70.543
12759 1 20.0762 16.5647 71.8603
13378 1 0.979045 18.1755 71.8304
19228 2 1.89079 19.766 70.4828
18945 2 4.61936 18.1553 70.5133
13380 1 3.70685 19.7856 71.7998
13082 1 6.43528 18.1755 71.8304
13080 1 9.16309 19.7856 71.7998
18947 2 7.34702 19.766 70.4828
12886 1 11.8915 18.1755 71.8304
18659 2 10.0756 18.1553 70.5133
18481 2 15.5318 18.1553 70.5133
12888 1 14.6193 19.7856 71.7998
18657 2 12.8033 19.766 70.4828
12746 1 17.3478 18.1755 71.8304
18483 2 18.2595 19.766 70.4828
18360 2 20.9881 18.1553 70.5133
12744 1 20.0756 19.7856 71.7998
13341 1 0.978391 21.3951 71.7683
19229 2 1.88949 22.9855 70.4201
13339 1 3.70611 23.0037 71.7359
18903 2 4.61833 21.3761 70.4517
13081 1 6.43463 21.3951 71.7683
13083 1 9.16235 23.0037 71.7359
18901 2 7.34573 22.9855 70.4201
12863 1 11.8909 21.3951 71.7683
18658 2 10.0746 21.3761 70.4517
12861 1 14.6186 23.0037 71.7359
18462 2 15.5308 21.3761 70.4517
18660 2 12.802 22.9855 70.4201
12745 1 17.3471 21.3951 71.7683
18460 2 18.2582 22.9855 70.4201
12747 1 20.0748 23.0037 71.7359
18359 2 20.9871 21.3761 70.4517
13340 1 0.977405 24.6114 71.7045
19196 2 1.88791 26.202 70.3565
19195 2 0.0757864 26.2451 72.8918
13342 1 3.70483 26.2184 71.673
18902 2 4.61689 24.5942 70.3883
18861 2 5.53202 26.2451 72.8918
13045 1 9.16107 26.2184 71.673
13047 1 6.43364 24.6114 71.7045
18904 2 7.34414 26.202 70.3565
12862 1 11.8899 24.6114 71.7045
18627 2 10.0731 24.5942 70.3883
18624 2 10.9883 26.2451 72.8918
12864 1 14.6173 26.2184 71.673
18461 2 15.5294 24.5942 70.3883
18625 2 12.8004 26.202 70.3565
12734 1 17.3461 24.6114 71.7045
18463 2 18.2566 26.202 70.3565
18436 2 16.4445 26.2451 72.8918
12732 1 20.0735 26.2184 71.673
18352 2 20.9856 24.5942 70.3883
13311 1 0.975906 27.8244 71.6417
19197 2 1.88573 29.415 70.294
18862 2 2.80295 27.8509 72.8608
19170 2 0.0737434 29.4555 72.8304
13309 1 3.70311 29.4296 71.611
18867 2 4.61501 27.809 70.325
18864 2 5.52998 29.4555 72.8304
13046 1 6.43214 27.8244 71.6417
13048 1 9.15934 29.4296 71.611
18865 2 7.34197 29.415 70.294
18592 2 8.25919 27.8509 72.8608
12839 1 11.8884 27.8244 71.6417
18626 2 10.0713 27.809 70.325
18590 2 10.9862 29.4555 72.8304
12837 1 14.6156 29.4296 71.611
18442 2 15.5275 27.809 70.325
18628 2 12.7982 29.415 70.294
18437 2 13.7154 27.8509 72.8608
12733 1 17.3446 27.8244 71.6417
18440 2 18.2544 29.415 70.294
18439 2 16.4425 29.4555 72.8304
12735 1 20.0718 29.4296 71.611
18351 2 20.9837 27.809 70.325
18342 2 19.1717 27.8509 72.8608
13310 1 0.973945 31.0338 71.5811
19172 2 1.883 32.6242 70.2349
18835 2 2.80063 31.0588 72.8008
19171 2 0.0711632 32.6607 72.7724
13312 1 3.70091 32.637 71.5524
18866 2 4.61254 31.0201 70.2639
18833 2 5.5274 32.6607 72.7724
13017 1 9.15715 32.637 71.5524
13019 1 6.43018 31.0338 71.5811
18868 2 7.33924 32.6242 70.2349
18591 2 8.25687 31.0588 72.8008
12838 1 11.8864 31.0338 71.5811
18596 2 10.0688 31.0201 70.2639
18593 2 10.9836 32.6607 72.7724
12840 1 14.6134 32.637 71.5524
18441 2 15.525 31.0201 70.2639
18594 2 12.7955 32.6242 70.2349
18418 2 13.7131 31.0588 72.8008
12722 1 17.3427 31.0338 71.5811
18443 2 18.2517 32.6242 70.2349
18416 2 16.4399 32.6607 72.7724
12720 1 20.0696 32.637 71.5524
18344 2 20.9813 31.0201 70.2639
18341 2 19.1693 31.0588 72.8008
13289 1 0.971557 34.2392 71.5251
18834 2 2.79784 34.2614 72.7455
18839 2 4.6096 34.2273 70.2074
13018 1 6.4278 34.2392 71.5251
18568 2 8.25408 34.2614 72.7455
12816 1 11.884 34.2392 71.5251
18595 2 10.0658 34.2273 70.2074
18422 2 15.5221 34.2273 70.2074
18417 2 13.7103 34.2614 72.7455
12721 1 17.3403 34.2392 71.5251
18343 2 20.9783 34.2273 70.2074
18334 2 19.1666 34.2614 72.7455
19173 2 1.87992 35.8294 70.1817
13288 1 0.968981 37.4407 71.4763
19154 2 0.0682211 35.8608 72.7204
18815 2 2.79484 37.459 72.6974
13287 1 3.69839 35.8404 71.4996
18838 2 4.60647 37.4306 70.1581
18836 2 5.52446 35.8608 72.7204
13020 1 9.15463 35.8404 71.4996
18837 2 7.33616 35.8294 70.1817
12999 1 6.42522 37.4407 71.4763
18567 2 8.25108 37.459 72.6974
12815 1 11.8815 37.4407 71.4763
18572 2 10.0627 37.4306 70.1581
18566 2 10.9807 35.8608 72.7204
12814 1 14.6109 35.8404 71.4996
18597 2 12.7924 35.8294 70.1817
18421 2 15.519 37.4306 70.1581
18399 2 13.7073 37.459 72.6974
18420 2 18.2486 35.8294 70.1817
12710 1 17.3377 37.4407 71.4763
18419 2 16.4369 35.8608 72.7204
12723 1 20.0671 35.8404 71.4996
18336 2 20.9752 37.4306 70.1581
18333 2 19.1636 37.459 72.6974
13275 1 0.96658 40.6387 71.437
19156 2 1.87685 39.0309 70.1369
18814 2 2.79205 40.6522 72.6588
19155 2 0.0652683 39.0561 72.6768
13290 1 3.69585 39.0401 71.4553
18819 2 4.60358 40.6305 70.1184
18813 2 5.52151 39.0561 72.6768
12997 1 9.15209 39.0401 71.4553
12998 1 6.42282 40.6387 71.437
18840 2 7.33309 39.0309 70.1369
18552 2 8.24829 40.6522 72.6588
12800 1 11.8791 40.6387 71.437
18571 2 10.0598 40.6305 70.1184
18569 2 10.9777 39.0561 72.6768
12817 1 14.6083 39.0401 71.4553
18403 2 15.5161 40.6305 70.1184
18570 2 12.7893 39.0309 70.1369
18398 2 13.7045 40.6522 72.6588
12709 1 17.3353 40.6387 71.437
18423 2 18.2456 39.0309 70.1369
18397 2 16.434 39.0561 72.6768
12708 1 20.0646 39.0401 71.4553
18335 2 20.9723 40.6305 70.1184
18326 2 19.1608 40.6522 72.6588
13274 1 0.964762 43.8339 71.4096
19157 2 1.87425 42.2294 70.1029
18803 2 2.78993 43.8419 72.6319
19146 2 0.0627568 42.2474 72.6438
13273 1 3.69369 42.2366 71.4217
18816 2 5.519 42.2474 72.6438
12987 1 6.421 43.8339 71.4096
13000 1 9.14993 42.2366 71.4217
18817 2 7.33049 42.2294 70.1029
18551 2 8.24617 43.8419 72.6319
12799 1 11.8772 43.8339 71.4096
18550 2 10.9752 42.2474 72.6438
12798 1 14.6062 42.2366 71.4217
18573 2 12.7867 42.2294 70.1029
18387 2 13.7024 43.8419 72.6319
12699 1 17.3335 43.8339 71.4096
18401 2 18.243 42.2294 70.1029
18400 2 16.4315 42.2474 72.6438
12711 1 20.0624 42.2366 71.4217
18325 2 19.1586 43.8419 72.6319
13269 1 0.963866 47.0274 71.3956
18802 2 2.78888 47.0293 72.6181
19147 2 0.0611314 45.4358 72.6232
13276 1 3.6923 45.4308 71.4008
18801 2 5.51737 45.4358 72.6232
12985 1 9.14854 45.4308 71.4008
12986 1 6.4201 47.0274 71.3956
18544 2 8.24512 47.0293 72.6181
12792 1 11.8763 47.0274 71.3956
18553 2 10.9736 45.4358 72.6232
12801 1 14.6048 45.4308 71.4008
18386 2 13.7014 47.0293 72.6181
12698 1 17.3326 47.0274 71.3956
18385 2 16.4298 45.4358 72.6232
12697 1 20.061 45.4308 71.4008
18319 2 19.1576 47.0293 72.6181
13268 1 0.964081 50.2203 71.3958
18796 2 2.78912 50.2161 72.6183
19145 2 0.0607119 48.6227 72.6164
13267 1 3.69195 48.6239 71.3939
18804 2 5.51695 48.6227 72.6164
12980 1 6.42032 50.2203 71.3958
12988 1 9.14819 48.6239 71.3939
18543 2 8.24536 50.2161 72.6183
12791 1 11.8766 50.2203 71.3958
18542 2 10.9732 48.6227 72.6164
12790 1 14.6044 48.6239 71.3939
18380 2 13.7016 50.2161 72.6183
12692 1 17.3328 50.2203 71.3958
18388 2 16.4294 48.6227 72.6164
12700 1 20.0607 48.6239 71.3939
18318 2 19.1578 50.2161 72.6183
13466 1 1.83685 0.480741 74.7476
18982 2 0.972707 2.09965 75.7659
19026 2 2.81175 2.06338 73.2917
19361 2 0.0842122 0.44899 73.3098
13150 1 4.56424 2.09476 74.7294
19024 2 3.70157 0.484225 75.7839
19025 2 5.54045 0.44899 73.3098
13184 1 7.29309 0.480741 74.7476
18713 2 9.15781 0.484225 75.7839
18714 2 6.42895 2.09965 75.7659
18718 2 8.26799 2.06338 73.2917
12930 1 10.0205 2.09476 74.7294
18494 2 11.8852 2.09965 75.7659
18744 2 10.9967 0.44899 73.3098
12766 1 15.4767 2.09476 74.7294
12929 1 12.7493 0.480741 74.7476
18512 2 14.6141 0.484225 75.7839
18514 2 13.7242 2.06338 73.2917
12776 1 18.2056 0.480741 74.7476
18370 2 17.3414 2.09965 75.7659
18513 2 16.4529 0.44899 73.3098
12688 1 20.933 2.09476 74.7294
18369 2 20.0703 0.484225 75.7839
18373 2 19.1805 2.06338 73.2917
13467 1 1.83544 3.70853 74.7101
18981 2 0.971309 5.33018 75.7263
18986 2 2.81064 5.29221 73.2519
19313 2 0.0830685 3.6778 73.2724
13149 1 4.56297 5.32202 74.6896
18980 2 3.70011 3.71498 75.7467
19027 2 5.53931 3.6778 73.2724
13148 1 7.29168 3.70853 74.7101
18683 2 6.42755 5.33018 75.7263
18715 2 9.15634 3.71498 75.7467
18717 2 8.26688 5.29221 73.2519
12907 1 10.0192 5.32202 74.6896
18493 2 11.8838 5.33018 75.7263
18716 2 10.9955 3.6778 73.2724
12765 1 15.4754 5.32202 74.6896
12931 1 12.7479 3.70853 74.7101
18492 2 14.6126 3.71498 75.7467
18498 2 13.7231 5.29221 73.2519
12764 1 18.2042 3.70853 74.7101
18363 2 17.34 5.33018 75.7263
18515 2 16.4518 3.6778 73.2724
12687 1 20.9317 5.32202 74.6896
18371 2 20.0688 3.71498 75.7467
18372 2 19.1794 5.29221 73.2519
13420 1 1.83436 6.9352 74.6679
18938 2 0.970156 8.55995 75.6821
18985 2 2.80965 8.5208 73.2072
19314 2 0.0820128 6.90656 73.2302
13114 1 4.56211 8.54804 74.645
18983 2 3.69881 6.94518 75.7048
18984 2 5.53825 6.90656 73.2302
13151 1 7.29059 6.9352 74.6679
18681 2 9.15505 6.94518 75.7048
18682 2 6.42639 8.55995 75.6821
18687 2 8.26589 8.5208 73.2072
12906 1 10.0184 8.54804 74.645
18474 2 11.8826 8.55995 75.6821
18719 2 10.9945 6.90656 73.2302
12754 1 15.4746 8.54804 74.645
12905 1 12.7468 6.9352 74.6679
18495 2 14.6113 6.94518 75.7048
18497 2 13.7221 8.5208 73.2072
12767 1 18.2031 6.9352 74.6679
18362 2 17.3389 8.55995 75.6821
18496 2 16.4507 6.90656 73.2302
12686 1 20.9308 8.54804 74.645
18361 2 20.0675 6.94518 75.7048
18366 2 19.1784 8.5208 73.2072
13421 1 1.83379 10.1605 74.6209
18937 2 0.969352 11.7885 75.6332
18942 2 2.8088 11.7487 73.1578
19266 2 0.0810922 10.1349 73.1831
13113 1 4.56187 11.7726 74.5956
18936 2 3.69783 10.1744 75.6582
18987 2 5.53733 10.1349 73.1831
13112 1 7.29003 10.1605 74.6209
18651 2 6.42559 11.7885 75.6332
18684 2 9.15406 10.1744 75.6582
18686 2 8.26504 11.7487 73.1578
12883 1 10.0181 11.7726 74.5956
18473 2 11.8818 11.7885 75.6332
18685 2 10.9936 10.1349 73.1831
12753 1 15.4743 11.7726 74.5956
12908 1 12.7463 10.1605 74.6209
18472 2 14.6103 10.1744 75.6582
18478 2 13.7213 11.7487 73.1578
12752 1 18.2025 10.1605 74.6209
18355 2 17.3381 11.7885 75.6332
18499 2 16.4498 10.1349 73.1831
12685 1 20.9306 11.7726 74.5956
18364 2 20.0665 10.1744 75.6582
18365 2 19.1775 11.7487 73.1578
13375 1 1.83389 13.3842 74.5692
19267 2 0.080296 13.3622 73.1314
18939 2 3.69721 13.4021 75.6072
18940 2 5.53653 13.3622 73.1314
13115 1 7.29013 13.3842 74.5692
18649 2 9.15345 13.4021 75.6072
18688 2 10.9928 13.3622 73.1314
12881 1 12.7464 13.3842 74.5692
18475 2 14.6097 13.4021 75.6072
12755 1 18.2026 13.3842 74.5692
18476 2 16.449 13.3622 73.1314
18353 2 20.0659 13.4021 75.6072
18895 2 0.968912 15.0152 75.5801
18941 2 2.80804 14.9752 73.1039
13376 1 1.8347 16.6059 74.5132
19226 2 0.0795304 16.5877 73.0754
13078 1 4.56233 14.9953 74.5417
18893 2 3.69692 16.6276 75.5522
18943 2 5.53577 16.5877 73.0754
18650 2 6.42515 15.0152 75.5801
18655 2 8.26427 14.9752 73.1039
13076 1 7.29094 16.6059 74.5132
18652 2 9.15316 16.6276 75.5522
12882 1 10.0186 14.9953 74.5417
18454 2 11.8814 15.0152 75.5801
18653 2 10.992 16.5877 73.0754
12742 1 15.4748 14.9953 74.5417
18477 2 13.7205 14.9752 73.1039
12884 1 12.7472 16.6059 74.5132
18452 2 14.6094 16.6276 75.5522
18354 2 17.3376 15.0152 75.5801
12740 1 18.2034 16.6059 74.5132
18479 2 16.4482 16.5877 73.0754
12684 1 20.931 14.9953 74.5417
18358 2 19.1768 14.9752 73.1039
18356 2 20.0656 16.6276 75.5522
18894 2 0.968715 18.2392 75.5236
18899 2 2.80721 18.1996 73.0461
13337 1 1.83614 19.8251 74.4539
19227 2 0.0786294 19.8107 73.016
13077 1 4.56348 18.2159 74.4839
18896 2 3.69677 19.8499 75.4944
18897 2 5.53487 19.8107 73.016
18619 2 6.42495 18.2392 75.5236
18654 2 8.26345 18.1996 73.0461
13079 1 7.29238 19.8251 74.4539
18617 2 9.15301 19.8499 75.4944
12859 1 10.0197 18.2159 74.4839
18453 2 11.8812 18.2392 75.5236
18656 2 10.9911 19.8107 73.016
12741 1 15.476 18.2159 74.4839
18458 2 13.7197 18.1996 73.0461
12857 1 12.7486 19.8251 74.4539
18455 2 14.6093 19.8499 75.4944
18347 2 17.3374 18.2392 75.5236
12743 1 18.2049 19.8251 74.4539
18456 2 16.4473 19.8107 73.016
12683 1 20.9322 18.2159 74.4839
18357 2 19.1759 18.1996 73.0461
18345 2 20.0655 19.8499 75.4944
13338 1 1.83831 23.0409 74.3924
18859 2 0.968627 21.4596 75.4649
18898 2 2.80615 21.421 72.9854
19194 2 0.0772238 23.0301 72.9544
13043 1 4.56523 21.4336 74.4234
18857 2 3.69664 23.0682 75.4354
18900 2 5.53346 23.0301 72.9544
13041 1 7.29455 23.0409 74.3924
18618 2 6.42487 21.4596 75.4649
18620 2 9.15288 23.0682 75.4354
18623 2 8.26239 21.421 72.9854
12858 1 10.0215 21.4336 74.4234
18434 2 11.8811 21.4596 75.4649
18621 2 10.9897 23.0301 72.9544
12730 1 15.4777 21.4336 74.4234
12860 1 12.7508 23.0409 74.3924
18432 2 14.6091 23.0682 75.4354
18457 2 13.7186 21.421 72.9854
12728 1 18.207 23.0409 74.3924
18346 2 17.3373 21.4596 75.4649
18459 2 16.4459 23.0301 72.9544
12682 1 20.9339 21.4336 74.4234
18348 2 20.0654 23.0682 75.4354
18350 2 19.1749 21.421 72.9854
13307 1 1.84026 26.2527 74.3297
18858 2 0.968472 24.6756 75.4047
18863 2 2.80471 24.638 72.9231
13042 1 4.56735 24.6471 74.3612
18860 2 3.69645 26.2817 75.374
13044 1 7.2965 26.2527 74.3297
18586 2 9.15269 26.2817 75.374
18588 2 6.42471 24.6756 75.4047
18622 2 8.26095 24.638 72.9231
12835 1 10.0236 24.6471 74.3612
18433 2 11.8809 24.6756 75.4047
12729 1 15.4798 24.6471 74.3612
12833 1 12.7527 26.2527 74.3297
18435 2 14.6089 26.2817 75.374
18438 2 13.7172 24.638 72.9231
12731 1 18.209 26.2527 74.3297
18339 2 17.3372 24.6756 75.4047
12681 1 20.9361 24.6471 74.3612
18337 2 20.0652 26.2817 75.374
18349 2 19.1734 24.638 72.9231
13308 1 1.84239 29.4612 74.268
18831 2 0.968151 27.8864 75.3437
13015 1 4.56945 27.8574 74.2986
18829 2 3.69601 29.4898 75.314
13013 1 7.29863 29.4612 74.268
18587 2 6.42439 27.8864 75.3437
18589 2 9.15224 29.4898 75.314
12834 1 10.0257 27.8574 74.2986
18414 2 11.8806 27.8864 75.3437
12718 1 15.4819 27.8574 74.2986
12836 1 12.7549 29.4612 74.268
18412 2 14.6085 29.4898 75.314
12716 1 18.2111 29.4612 74.268
18338 2 17.3369 27.8864 75.3437
12680 1 20.9382 27.8574 74.2986
18340 2 20.0647 29.4898 75.314
13285 1 1.84436 32.6656 74.2097
18830 2 0.967498 31.0916 75.2853
13014 1 4.57153 31.0639 74.2383
13016 1 7.3006 32.6656 74.2097
18564 2 6.42374 31.0916 75.2853
12812 1 10.0278 31.0639 74.2383
18413 2 11.88 31.0916 75.2853
12717 1 15.484 31.0639 74.2383
12810 1 12.7568 32.6656 74.2097
12719 1 18.2131 32.6656 74.2097
18331 2 17.3362 31.0916 75.2853
12679 1 20.9402 31.0639 74.2383
18811 2 0.966405 34.2909 75.2317
18832 2 3.69512 32.692 75.2577
12995 1 4.57337 34.2661 74.1827
18562 2 9.15136 32.692 75.2577
18563 2 6.42264 34.2909 75.2317
12811 1 10.0296 34.2661 74.1827
18395 2 11.8789 34.2909 75.2317
18415 2 14.6076 32.692 75.2577
12706 1 15.4858 34.2661 74.1827
18330 2 17.3351 34.2909 75.2317
18329 2 20.0638 32.692 75.2577
12678 1 20.9421 34.2661 74.1827
13286 1 1.84607 35.8656 74.1574
18810 2 0.965034 37.4842 75.1851
18809 2 3.69386 35.8883 75.2074
12994 1 4.57493 37.4639 74.1342
12993 1 7.30231 35.8656 74.1574
18565 2 9.1501 35.8883 75.2074
18548 2 6.42127 37.4842 75.1851
12796 1 10.0312 37.4639 74.1342
18394 2 11.8775 37.4842 75.1851
12813 1 12.7585 35.8656 74.1574
18393 2 14.6063 35.8883 75.2074
12705 1 15.4874 37.4639 74.1342
12704 1 18.2148 35.8656 74.1574
18323 2 17.3337 37.4842 75.1851
18332 2 20.0626 35.8883 75.2074
12677 1 20.9436 37.4639 74.1342
13271 1 1.84749 39.0612 74.1134
18799 2 0.963666 40.6721 75.148
12983 1 4.57621 40.6575 74.0953
18812 2 3.69245 39.0788 75.1653
12996 1 7.30373 39.0612 74.1134
18546 2 9.14869 39.0788 75.1653
18547 2 6.4199 40.6721 75.148
12795 1 10.0325 40.6575 74.0953
18383 2 11.8761 40.6721 75.148
12695 1 15.4887 40.6575 74.0953
12794 1 12.76 39.0612 74.1134
18396 2 14.6049 39.0788 75.1653
12707 1 18.2162 39.0612 74.1134
18322 2 17.3324 40.6721 75.148
12676 1 20.9449 40.6575 74.0953
18321 2 20.0612 39.0788 75.1653
13272 1 1.84862 42.2529 74.0802
18798 2 0.962611 43.8557 75.1221
12982 1 4.57718 43.8477 74.0682
18797 2 3.6912 42.2644 75.1335
12981 1 7.30486 42.2529 74.0802
18540 2 6.41885 43.8557 75.1221
18549 2 9.14744 42.2644 75.1335
12788 1 10.0334 43.8477 74.0682
18382 2 11.8751 43.8557 75.1221
12694 1 15.4897 43.8477 74.0682
12797 1 12.7611 42.2529 74.0802
18381 2 14.6037 42.2644 75.1335
12693 1 18.2173 42.2529 74.0802
18316 2 17.3313 43.8557 75.1221
12675 1 20.9459 43.8477 74.0682
18324 2 20.0599 42.2644 75.1335
13265 1 1.8494 45.4419 74.0595
18795 2 0.962131 47.0365 75.1088
12979 1 4.57778 47.0358 74.0543
18800 2 3.69041 45.4464 75.1138
12984 1 7.30564 45.4419 74.0595
18538 2 9.14664 45.4464 75.1138
18539 2 6.41837 47.0365 75.1088
18379 2 11.8746 47.0365 75.1088
12787 1 10.034 47.0358 74.0543
18384 2 14.6029 45.4464 75.1138
12786 1 12.7619 45.4419 74.0595
12691 1 15.4903 47.0358 74.0543
18315 2 17.3308 47.0365 75.1088
12696 1 18.2181 45.4419 74.0595
18314 2 20.0591 45.4464 75.1138
12674 1 20.9465 47.0358 74.0543
18794 2 0.96237 50.2165 75.109
13266 1 1.84981 48.6295 74.0527
18793 2 3.69028 48.6265 75.1072
12978 1 4.57799 50.2232 74.0546
12977 1 7.30605 48.6295 74.0527
18537 2 6.41861 50.2165 75.109
18541 2 9.14651 48.6265 75.1072
12785 1 10.0342 50.2232 74.0546
18378 2 11.8748 50.2165 75.109
12690 1 15.4905 50.2232 74.0546
12789 1 12.7623 48.6295 74.0527
18377 2 14.6028 48.6265 75.1072
12689 1 18.2185 48.6295 74.0527
18313 2 17.3311 50.2165 75.109
12673 1 20.9467 50.2232 74.0546
18317 2 20.059 48.6265 75.1072
10351 2 2.7545 51.6875 -4.07751
10343 2 0.923912 51.6874 -1.58426
10366 2 0.0257923 53.2789 -4.0722
4096 1 1.86678 53.268 -3.02068
4062 1 4.59584 51.6791 -3.02608
10352 2 5.48203 53.2789 -4.0722
10341 2 3.65167 53.2767 -1.5788
10254 2 8.21073 51.6875 -4.07751
10250 2 6.38015 51.6874 -1.58426
10251 2 9.10791 53.2767 -1.5788
4060 1 7.32302 53.268 -3.02068
3935 1 10.0521 51.6791 -3.02608
10055 2 11.8364 51.6874 -1.58426
10252 2 10.9383 53.2789 -4.0722
3710 1 15.5083 51.6791 -3.02608
10063 2 13.667 51.6875 -4.07751
3936 1 12.7793 53.268 -3.02068
10053 2 14.5642 53.2767 -1.5788
9773 2 17.2926 51.6874 -1.58426
3708 1 18.2355 53.268 -3.02068
10064 2 16.3945 53.2789 -4.0722
3392 1 20.9646 51.6791 -3.02608
9776 2 19.1232 51.6875 -4.07751
9774 2 20.0204 53.2767 -1.5788
10347 2 2.75316 54.87 -4.06479
10342 2 0.92312 54.8656 -1.57119
4061 1 4.59364 54.8566 -3.01314
10253 2 8.2094 54.87 -4.06479
10242 2 6.37936 54.8656 -1.57119
3931 1 10.0499 54.8566 -3.01314
10054 2 11.8356 54.8656 -1.57119
3709 1 15.5061 54.8566 -3.01314
10059 2 13.6656 54.87 -4.06479
9767 2 17.2918 54.8656 -1.57119
3391 1 20.9624 54.8566 -3.01314
9775 2 19.1219 54.87 -4.06479
10367 2 0.024145 56.4605 -4.05536
10346 2 2.75123 58.0505 -4.04398
10332 2 0.922051 58.042 -1.54978
4092 1 1.86398 56.4448 -3.00351
10345 2 5.48038 56.4605 -4.05536
10344 2 3.65073 56.4541 -1.56148
4054 1 4.59029 58.0327 -2.99188
10246 2 8.20747 58.0505 -4.04398
10241 2 6.37829 58.042 -1.54978
4063 1 7.32022 56.4448 -3.00351
10240 2 9.10697 56.4541 -1.56148
10255 2 10.9366 56.4605 -4.05536
3930 1 10.0465 58.0327 -2.99188
10043 2 11.8345 58.042 -1.54978
3702 1 15.5028 58.0327 -2.99188
3929 1 12.7765 56.4448 -3.00351
10056 2 14.5632 56.4541 -1.56148
10058 2 13.6637 58.0505 -4.04398
3711 1 18.2327 56.4448 -3.00351
9766 2 17.2908 58.042 -1.54978
10057 2 16.3929 56.4605 -4.05536
3390 1 20.959 58.0327 -2.99188
9765 2 20.0194 56.4541 -1.56148
9770 2 19.1199 58.0505 -4.04398
10364 2 0.0219695 59.6398 -4.03076
10336 2 2.74884 61.2284 -4.01582
10331 2 0.920792 61.2157 -1.52079
4093 1 1.86012 59.6201 -2.97836
10348 2 5.47821 59.6398 -4.03076
10330 2 3.64956 59.6292 -1.53617
4053 1 4.58597 61.2069 -2.96306
10245 2 8.20508 61.2284 -4.01582
10243 2 9.1058 59.6292 -1.53617
4052 1 7.31636 59.6201 -2.97836
10226 2 6.37703 61.2157 -1.52079
10244 2 10.9344 59.6398 -4.03076
3919 1 10.0422 61.2069 -2.96306
10042 2 11.8333 61.2157 -1.52079
3701 1 15.4984 61.2069 -2.96306
3932 1 12.7726 59.6201 -2.97836
10041 2 14.562 59.6292 -1.53617
10047 2 13.6613 61.2284 -4.01582
3700 1 18.2288 59.6201 -2.97836
9753 2 17.2895 61.2157 -1.52079
10060 2 16.3907 59.6398 -4.03076
3383 1 20.9547 61.2069 -2.96306
9768 2 20.0183 59.6292 -1.53617
9769 2 19.1176 61.2284 -4.01582
10365 2 0.0193984 62.816 -3.99928
10335 2 2.74612 64.4027 -3.98127
10320 2 0.919421 64.386 -1.48523
4088 1 1.85538 62.7931 -2.94611
10334 2 5.47564 62.816 -3.99928
10333 2 3.64824 62.8013 -1.50376
4039 1 4.58085 64.3785 -2.92764
4055 1 7.31161 62.7931 -2.94611
10224 2 9.10447 62.8013 -1.50376
10225 2 6.37566 64.386 -1.48523
10230 2 8.20236 64.4027 -3.98127
10247 2 10.9319 62.816 -3.99928
3918 1 10.0371 64.3785 -2.92764
10023 2 11.8319 64.386 -1.48523
3686 1 15.4933 64.3785 -2.92764
3917 1 12.7679 62.7931 -2.94611
10044 2 14.5607 62.8013 -1.50376
10046 2 13.6586 64.4027 -3.98127
3703 1 18.2241 62.7931 -2.94611
9752 2 17.2881 64.386 -1.48523
10045 2 16.3881 62.816 -3.99928
3382 1 20.9496 64.3785 -2.92764
9751 2 20.017 62.8013 -1.50376
9756 2 19.1148 64.4027 -3.98127
10362 2 0.0165456 65.9884 -3.96193
10324 2 2.74316 67.573 -3.94142
10319 2 0.917987 67.5527 -1.44423
4089 1 1.84992 65.9631 -2.90781
10337 2 5.47278 65.9884 -3.96193
10318 2 3.64683 65.9699 -1.46533
4038 1 4.57511 67.5469 -2.88678
4037 1 7.30616 65.9631 -2.90781
10203 2 6.37422 67.5527 -1.44423
10227 2 9.10307 65.9699 -1.46533
10229 2 8.1994 67.573 -3.94142
3899 1 10.0313 67.5469 -2.88678
10022 2 11.8305 67.5527 -1.44423
10228 2 10.929 65.9884 -3.96193
3685 1 15.4876 67.5469 -2.88678
3920 1 12.7624 65.9631 -2.90781
10021 2 14.5593 65.9699 -1.46533
10027 2 13.6556 67.573 -3.94142
3684 1 18.2186 65.9631 -2.90781
9731 2 17.2867 67.5527 -1.44423
10048 2 16.3853 65.9884 -3.96193
3367 1 20.9438 67.5469 -2.88678
9754 2 20.0155 65.9699 -1.46533
9755 2 19.1119 67.573 -3.94142
10363 2 0.0134984 69.1565 -3.91989
10323 2 2.74004 70.7388 -3.8975
10308 2 0.916507 70.7154 -1.39907
4084 1 1.84394 69.1298 -2.86469
10322 2 5.46974 69.1565 -3.91989
10321 2 3.64537 69.1346 -1.42209
4023 1 4.56893 70.7117 -2.84172
4040 1 7.30018 69.1298 -2.86469
10201 2 9.10161 69.1346 -1.42209
10202 2 6.37274 70.7154 -1.39907
10207 2 8.19628 70.7388 -3.8975
3898 1 10.0252 70.7117 -2.84172
9995 2 11.829 70.7154 -1.39907
10231 2 10.926 69.1565 -3.91989
3662 1 15.4814 70.7117 -2.84172
3897 1 12.7564 69.1298 -2.86469
10024 2 14.5578 69.1346 -1.42209
10026 2 13.6525 70.7388 -3.8975
3687 1 18.2127 69.1298 -2.86469
9730 2 17.2852 70.7154 -1.39907
10025 2 16.3822 69.1565 -3.91989
3366 1 20.9376 70.7117 -2.84172
9729 2 20.0141 69.1346 -1.42209
9734 2 19.1088 70.7388 -3.8975
10360 2 0.0103232 72.32 -3.87439
10312 2 2.73682 73.9001 -3.85073
10307 2 0.914978 73.8742 -1.35104
4085 1 1.83761 72.2927 -2.81803
10325 2 5.46656 72.32 -3.87439
10306 2 3.64387 72.2953 -1.37533
4022 1 4.56248 73.8726 -2.79378
4021 1 7.29384 72.2927 -2.81803
10179 2 6.37122 73.8742 -1.35104
10204 2 9.10011 72.2953 -1.37533
10206 2 8.19306 73.9001 -3.85073
3872 1 10.0187 73.8726 -2.79378
9994 2 11.8275 73.8742 -1.35104
10205 2 10.9228 72.32 -3.87439
3661 1 15.475 73.8726 -2.79378
3900 1 12.7501 72.2927 -2.81803
9993 2 14.5563 72.2953 -1.37533
9999 2 13.6493 73.9001 -3.85073
3660 1 18.2063 72.2927 -2.81803
9701 2 17.2837 73.8742 -1.35104
10028 2 16.379 72.32 -3.87439
3343 1 20.9312 73.8726 -2.79378
9732 2 20.0126 72.2953 -1.37533
9733 2 19.1055 73.9001 -3.85073
10361 2 0.00707497 75.479 -3.82668
4080 1 1.8311 75.4517 -2.76913
10310 2 5.46331 75.479 -3.82668
10309 2 3.64231 75.4521 -1.32636
4024 1 7.28734 75.4517 -2.76913
10177 2 9.09855 75.4521 -1.32636
10208 2 10.9196 75.479 -3.82668
3870 1 12.7436 75.4517 -2.76913
9996 2 14.5548 75.4521 -1.32636
3663 1 18.1998 75.4517 -2.76913
9997 2 16.3758 75.479 -3.82668
9699 2 20.011 75.4521 -1.32636
10358 2 0.00380621 78.6335 -3.77794
10311 2 2.73356 77.0568 -3.80236
10296 2 0.913388 77.0291 -1.30143
4081 1 1.82462 78.6068 -2.71927
10313 2 5.46004 78.6335 -3.77794
10294 2 3.64069 78.6051 -1.27642
4007 1 4.55596 77.0297 -2.74425
4005 1 7.28086 78.6068 -2.71927
10178 2 6.36963 77.0291 -1.30143
10180 2 9.09692 78.6051 -1.27642
10183 2 8.1898 77.0568 -3.80236
3871 1 10.0122 77.0297 -2.74425
9960 2 11.8259 77.0291 -1.30143
10181 2 10.9163 78.6335 -3.77794
3630 1 15.4684 77.0297 -2.74425
3873 1 12.7371 78.6068 -2.71927
9958 2 14.5532 78.6051 -1.27642
9998 2 13.646 77.0568 -3.80236
3628 1 18.1933 78.6068 -2.71927
9700 2 17.2821 77.0291 -1.30143
10000 2 16.3725 78.6335 -3.77794
3342 1 20.9247 77.0297 -2.74425
9702 2 20.0094 78.6051 -1.27642
9704 2 19.1023 77.0568 -3.80236
10300 2 2.7303 80.2091 -3.75354
10295 2 0.911725 80.1803 -1.25145
4076 1 1.81834 81.7582 -2.66959
10298 2 5.45681 81.7838 -3.72929
10297 2 3.63899 81.7547 -1.22666
4006 1 4.54956 80.1829 -2.69434
4008 1 7.27458 81.7582 -2.66959
10153 2 9.09522 81.7547 -1.22666
10155 2 6.36796 80.1803 -1.25145
10182 2 8.18654 80.2091 -3.75354
3844 1 10.0058 80.1829 -2.69434
9959 2 11.8242 80.1803 -1.25145
10184 2 10.913 81.7838 -3.72929
3629 1 15.462 80.1829 -2.69434
3842 1 12.7308 81.7582 -2.66959
9961 2 14.5515 81.7547 -1.22666
9964 2 13.6428 80.2091 -3.75354
3631 1 18.1871 81.7582 -2.66959
9663 2 17.2804 80.1803 -1.25145
9962 2 16.3693 81.7838 -3.72929
10359 2 21.8255 81.7838 -3.72929
3311 1 20.9183 80.1829 -2.69434
9661 2 20.0077 81.7547 -1.22666
9703 2 19.099 80.2091 -3.75354
10299 2 2.7271 83.3575 -3.70531
10284 2 0.909991 83.3284 -1.20217
4077 1 1.81243 84.9062 -2.62108
10301 2 5.45366 84.9303 -3.6817
10282 2 3.63722 84.9013 -1.17808
3991 1 4.54345 83.3326 -2.64513
3989 1 7.26867 84.9062 -2.62108
10154 2 6.36623 83.3284 -1.20217
10156 2 9.09346 84.9013 -1.17808
10159 2 8.18334 83.3575 -3.70531
3843 1 9.99969 83.3326 -2.64513
9924 2 11.8225 83.3284 -1.20217
10157 2 10.9099 84.9303 -3.6817
3591 1 15.4559 83.3326 -2.64513
3845 1 12.7249 84.9062 -2.62108
9922 2 14.5497 84.9013 -1.17808
9963 2 13.6396 83.3575 -3.70531
3589 1 18.1811 84.9062 -2.62108
9662 2 17.2787 83.3284 -1.20217
9965 2 16.3661 84.9303 -3.6817
10356 2 21.8224 84.9303 -3.6817
3310 1 20.9122 83.3326 -2.64513
9664 2 20.0059 84.9013 -1.17808
9666 2 19.0958 83.3575 -3.70531
10288 2 2.72402 86.5023 -3.65856
10283 2 0.9082 86.4736 -1.1545
4072 1 1.807 88.0512 -2.57457
10286 2 5.45065 88.0736 -3.63597
10285 2 3.63541 88.0453 -1.1315
3990 1 4.53777 86.479 -2.59753
3992 1 7.26324 88.0512 -2.57457
10129 2 9.09165 88.0453 -1.1315
10131 2 6.36444 86.4736 -1.1545
10158 2 8.18025 86.5023 -3.65856
3816 1 9.99401 86.479 -2.59753
9923 2 11.8207 86.4736 -1.1545
10160 2 10.9069 88.0736 -3.63597
3590 1 15.4502 86.479 -2.59753
3814 1 12.7195 88.0512 -2.57457
9925 2 14.5479 88.0453 -1.1315
9928 2 13.6365 86.5023 -3.65856
3592 1 18.1757 88.0512 -2.57457
9618 2 17.2769 86.4736 -1.1545
9926 2 16.3631 88.0736 -3.63597
10357 2 21.8194 88.0736 -3.63597
3271 1 20.9065 86.479 -2.59753
9616 2 20.0041 88.0453 -1.1315
9665 2 19.0927 86.5023 -3.65856
10287 2 2.72109 89.6442 -3.61402
10272 2 0.906384 89.6164 -1.10918
4073 1 1.80212 91.1935 -2.53073
10289 2 5.44782 91.2141 -3.59278
3975 1 4.53261 89.6226 -2.55229
3973 1 7.25836 91.1935 -2.53073
10130 2 6.36262 89.6164 -1.10918
10135 2 8.17733 89.6442 -3.61402
3815 1 9.98885 89.6226 -2.55229
9888 2 11.8189 89.6164 -1.10918
10133 2 10.9041 91.2141 -3.59278
3551 1 15.4451 89.6226 -2.55229
3817 1 12.7146 91.1935 -2.53073
9927 2 13.6336 89.6442 -3.61402
3549 1 18.1708 91.1935 -2.53073
9617 2 17.2751 89.6164 -1.10918
9929 2 16.3603 91.2141 -3.59278
10354 2 21.8165 91.2141 -3.59278
3270 1 20.9013 89.6226 -2.55229
9621 2 19.0898 89.6442 -3.61402
10276 2 2.71837 92.7835 -3.57229
4068 1 1.79782 94.3337 -2.49006
10274 2 5.44522 94.3524 -3.55262
3974 1 4.52802 92.7638 -2.50997
3976 1 7.25406 94.3337 -2.49006
10134 2 8.17461 92.7835 -3.57229
3788 1 9.98425 92.7638 -2.50997
10136 2 10.9015 94.3524 -3.55262
3550 1 15.4405 92.7638 -2.50997
3786 1 12.7103 94.3337 -2.49006
9892 2 13.6309 92.7835 -3.57229
3552 1 18.1665 94.3337 -2.49006
9890 2 16.3577 94.3524 -3.55262
10355 2 21.8139 94.3524 -3.55262
3224 1 20.8967 92.7638 -2.50997
9620 2 19.0871 92.7835 -3.57229
10275 2 2.71589 95.9208 -3.53382
4069 1 1.7941 97.4721 -2.45293
3960 1 4.52401 95.9031 -2.47103
10277 2 5.44287 97.4888 -3.51591
3958 1 7.25034 97.4721 -2.45293
10112 2 8.17213 95.9208 -3.53382
3787 1 9.98025 95.9031 -2.47103
10110 2 10.8991 97.4888 -3.51591
3512 1 15.4365 95.9031 -2.47103
3789 1 12.7066 97.4721 -2.45293
9891 2 13.6284 95.9208 -3.53382
3510 1 18.1628 97.4721 -2.45293
9893 2 16.3553 97.4888 -3.51591
10353 2 21.8116 97.4888 -3.51591
3223 1 20.8927 95.9031 -2.47103
9575 2 19.0846 95.9208 -3.53382
10265 2 2.71368 99.0564 -3.49894
6143 1 1.79096 100.609 -2.41964
3959 1 4.52058 99.0407 -2.4358
12526 2 5.4408 100.624 -3.48293
10111 2 8.16992 99.0564 -3.49894
6112 1 7.2472 100.609 -2.41964
3761 1 9.97682 99.0407 -2.4358
12432 2 10.897 100.624 -3.48293
3511 1 15.4331 99.0407 -2.4358
9857 2 13.6262 99.0564 -3.49894
5982 1 12.7034 100.609 -2.41964
12238 2 16.3533 100.624 -3.48293
5760 1 18.1597 100.609 -2.41964
3176 1 20.8893 99.0407 -2.4358
9574 2 19.0824 99.0564 -3.49894
12544 2 21.8095 100.624 -3.48293
4058 1 2.7477 51.6824 -0.365492
10340 2 1.83531 53.2707 0.966889
4090 1 0.0191725 53.2697 -0.360032
10238 2 4.56378 51.6841 0.961309
4059 1 5.47541 53.2697 -0.360032
3927 1 8.20394 51.6824 -0.365492
10236 2 7.29155 53.2707 0.966889
10051 2 10.02 51.6841 0.961309
3925 1 10.9316 53.2697 -0.360032
3706 1 13.6602 51.6824 -0.365492
9763 2 15.4763 51.6841 0.961309
10052 2 12.7478 53.2707 0.966889
3707 1 16.3879 53.2697 -0.360032
9761 2 18.204 53.2707 0.966889
3389 1 19.1164 51.6824 -0.365492
9408 2 20.9325 51.6841 0.961309
4050 1 2.74678 54.8567 -0.352398
10237 2 4.56299 54.8569 0.974681
3926 1 8.20302 54.8567 -0.352398
10039 2 10.0192 54.8569 0.974681
3698 1 13.6593 54.8567 -0.352398
9762 2 15.4755 54.8569 0.974681
3388 1 19.1155 54.8567 -0.352398
9407 2 20.9317 54.8569 0.974681
10328 2 1.83435 56.4428 0.984608
4049 1 2.74547 58.0296 -0.330896
4091 1 0.0180473 56.4434 -0.342654
4048 1 5.47429 56.4434 -0.342654
10222 2 4.56189 58.0282 0.996574
3915 1 8.20171 58.0296 -0.330896
10239 2 7.29059 56.4428 0.984608
3928 1 10.9305 56.4434 -0.342654
10038 2 10.0181 58.0282 0.996574
3697 1 13.6579 58.0296 -0.330896
9749 2 15.4744 58.0282 0.996574
10037 2 12.7468 56.4428 0.984608
3696 1 16.3868 56.4434 -0.342654
9764 2 18.2031 56.4428 0.984608
3381 1 19.1142 58.0296 -0.330896
9406 2 20.9306 58.0282 0.996574
10329 2 1.83312 59.613 1.01048
4035 1 2.74386 61.2003 -0.30176
4086 1 0.0165756 59.6152 -0.317225
4051 1 5.47281 59.6152 -0.317225
10221 2 4.56055 61.1972 1.02619
3914 1 8.20009 61.2003 -0.30176
10220 2 7.28936 59.613 1.01048
3913 1 10.9291 59.6152 -0.317225
10019 2 10.0168 61.1972 1.02619
3682 1 13.6563 61.2003 -0.30176
9748 2 15.473 61.1972 1.02619
10040 2 12.7456 59.613 1.01048
3699 1 16.3853 59.6152 -0.317225
9747 2 18.2018 59.613 1.01048
3380 1 19.1126 61.2003 -0.30176
9399 2 20.9293 61.1972 1.02619
10316 2 1.83169 62.7807 1.04358
4034 1 2.74201 64.3682 -0.265969
4087 1 0.0148403 62.7846 -0.284627
4033 1 5.47108 62.7846 -0.284627
10199 2 4.55904 64.3635 1.06251
3895 1 8.19825 64.3682 -0.265969
10223 2 7.28793 62.7807 1.04358
3916 1 10.9273 62.7846 -0.284627
10018 2 10.0153 64.3635 1.06251
3681 1 13.6545 64.3682 -0.265969
9727 2 15.4715 64.3635 1.06251
10017 2 12.7442 62.7807 1.04358
3680 1 16.3836 62.7846 -0.284627
9750 2 18.2004 62.7807 1.04358
3365 1 19.1107 64.3682 -0.265969
9398 2 20.9278 64.3635 1.06251
10317 2 1.83011 65.9455 1.08281
4019 1 2.74 67.5331 -0.224677
4082 1 0.012908 65.9511 -0.245933
4036 1 5.46915 65.9511 -0.245933
10198 2 4.5574 67.5267 1.10433
3894 1 8.19624 67.5331 -0.224677
10197 2 7.28635 65.9455 1.08281
3893 1 10.9254 65.9511 -0.245933
9991 2 10.0136 67.5267 1.10433
3658 1 13.6525 67.5331 -0.224677
9726 2 15.4699 67.5267 1.10433
10020 2 12.7426 65.9455 1.08281
3683 1 16.3816 65.9511 -0.245933
9725 2 18.1988 65.9455 1.08281
3364 1 19.1087 67.5331 -0.224677
9383 2 20.9261 67.5267 1.10433
10304 2 1.82841 69.1071 1.12691
4018 1 2.73785 70.6946 -0.179158
4083 1 0.0108223 69.1143 -0.202363
4017 1 5.46706 69.1143 -0.202363
10175 2 4.55563 70.6866 1.15037
3868 1 8.19409 70.6946 -0.179158
10200 2 7.28465 69.1071 1.12691
3896 1 10.9233 69.1143 -0.202363
9990 2 10.0119 70.6866 1.15037
3657 1 13.6503 70.6946 -0.179158
9697 2 15.4681 70.6866 1.15037
9989 2 12.7409 69.1071 1.12691
3656 1 16.3795 69.1143 -0.202363
9728 2 18.1971 69.1071 1.12691
3341 1 19.1066 70.6946 -0.179158
9382 2 20.9243 70.6866 1.15037
10305 2 1.82659 72.2654 1.17453
4003 1 2.73558 73.8527 -0.130738
4078 1 0.00860987 72.2741 -0.155228
4020 1 5.46485 72.2741 -0.155228
10174 2 4.55375 73.8433 1.19925
3867 1 8.19182 73.8527 -0.130738
10173 2 7.28282 72.2654 1.17453
3866 1 10.9211 72.2741 -0.155228
9956 2 10.01 73.8433 1.19925
3626 1 13.6481 73.8527 -0.130738
9696 2 15.4662 73.8433 1.19925
9992 2 12.7391 72.2654 1.17453
3659 1 16.3773 72.2741 -0.155228
9695 2 18.1953 72.2654 1.17453
3340 1 19.1043 73.8527 -0.130738
9359 2 20.9225 73.8433 1.19925
10292 2 1.82465 75.4205 1.22435
4079 1 0.00629008 75.4305 -0.105852
4002 1 2.73322 77.0075 -0.0807255
4001 1 5.46253 75.4305 -0.105852
10151 2 4.55176 76.997 1.24966
10176 2 7.28089 75.4205 1.22435
3840 1 8.18945 77.0075 -0.0807255
3869 1 10.9188 75.4305 -0.105852
9955 2 10.008 76.997 1.24966
9954 2 12.7371 75.4205 1.22435
3625 1 13.6457 77.0075 -0.0807255
9659 2 15.4642 76.997 1.24966
3624 1 16.375 75.4305 -0.105852
9698 2 18.1934 75.4205 1.22435
3309 1 19.1019 77.0075 -0.0807255
9358 2 20.9205 76.997 1.24966
10293 2 1.8226 78.5727 1.27506
4074 1 0.00388475 78.5836 -0.0555091
4004 1 5.46012 78.5836 -0.0555091
10149 2 7.27884 78.5727 1.27506
3838 1 10.9164 78.5836 -0.0555091
9957 2 12.7351 78.5727 1.27506
3627 1 16.3726 78.5836 -0.0555091
9657 2 18.1913 78.5727 1.27506
10280 2 1.82046 81.7221 1.32551
3987 1 2.73078 80.1591 -0.0303445
3985 1 5.45766 81.7338 -0.00536347
10150 2 4.54966 80.1477 1.30038
3839 1 8.18702 80.1591 -0.0303445
10152 2 7.2767 81.7221 1.32551
3841 1 10.9139 81.7338 -0.00536347
9920 2 10.0059 80.1477 1.30038
3587 1 13.6433 80.1591 -0.0303445
9658 2 15.4621 80.1477 1.30038
9918 2 12.7329 81.7221 1.32551
3585 1 16.3701 81.7338 -0.00536347
9660 2 18.1892 81.7221 1.32551
4075 1 21.8264 81.7338 -0.00536347
3308 1 19.0995 80.1591 -0.0303445
9327 2 20.9184 80.1477 1.30038
10281 2 1.81827 84.8692 1.37469
3986 1 2.7283 83.3078 0.0193125
3988 1 5.45519 84.8812 0.0435731
10127 2 4.54749 83.2959 1.35032
3812 1 8.18454 83.3078 0.0193125
10125 2 7.27451 84.8692 1.37469
3810 1 10.9114 84.8812 0.0435731
9919 2 10.0037 83.2959 1.35032
3586 1 13.6408 83.3078 0.0193125
9614 2 15.46 83.2959 1.35032
9921 2 12.7307 84.8692 1.37469
3588 1 16.3677 84.8812 0.0435731
9612 2 18.187 84.8692 1.37469
4070 1 21.8239 84.8812 0.0435731
3269 1 19.097 83.3078 0.0193125
9326 2 20.9162 83.2959 1.35032
10268 2 1.81607 88.0143 1.42178
3971 1 2.72584 86.454 0.0673192
3969 1 5.45274 88.0262 0.0904628
10126 2 4.54528 86.442 1.39855
3811 1 8.18208 86.454 0.0673192
10128 2 7.2723 88.0143 1.42178
3813 1 10.909 88.0262 0.0904628
9884 2 10.0015 86.442 1.39855
3547 1 13.6383 86.454 0.0673192
9613 2 15.4578 86.442 1.39855
9882 2 12.7285 88.0143 1.42178
3545 1 16.3652 88.0262 0.0904628
9615 2 18.1848 88.0143 1.42178
4071 1 21.8215 88.0262 0.0904628
3268 1 19.0946 86.454 0.0673192
9287 2 20.914 86.442 1.39855
10269 2 1.8139 91.1578 1.46612
3970 1 2.72342 89.598 0.112927
10270 2 3.6336 91.1871 -1.08758
3972 1 5.45037 91.1694 0.134644
10104 2 4.54309 89.5862 1.44433
10132 2 9.08984 91.1871 -1.08758
3784 1 8.17966 89.598 0.112927
10102 2 7.27014 91.1578 1.46612
3782 1 10.9066 91.1694 0.134644
9883 2 9.99933 89.5862 1.44433
9886 2 14.5461 91.1871 -1.08758
3546 1 13.6359 89.598 0.112927
9568 2 15.4556 89.5862 1.44433
9885 2 12.7264 91.1578 1.46612
3548 1 16.3629 91.1694 0.134644
9566 2 18.1826 91.1578 1.46612
9619 2 20.0023 91.1871 -1.08758
4066 1 21.8191 91.1694 0.134644
3222 1 19.0921 89.598 0.112927
9286 2 20.9118 89.5862 1.44433
10271 2 0.904584 92.7573 -1.06679
10260 2 1.81183 94.2999 1.50721
3956 1 2.72112 92.7403 0.155555
10273 2 3.63182 94.3271 -1.04683
3954 1 5.44814 94.3108 0.175612
10103 2 4.54097 92.729 1.4871
10106 2 9.08806 94.3271 -1.04683
10108 2 6.36082 92.7573 -1.06679
3783 1 8.17736 92.7403 0.155555
10105 2 7.26807 94.2999 1.50721
9887 2 11.8171 92.7573 -1.06679
3785 1 10.9044 94.3108 0.175612
9852 2 9.99721 92.729 1.4871
9889 2 14.5443 94.3271 -1.04683
3508 1 13.6336 92.7403 0.155555
9567 2 15.4534 92.729 1.4871
9850 2 12.7243 94.2999 1.50721
9572 2 17.2733 92.7573 -1.06679
3506 1 16.3606 94.3108 0.175612
9569 2 18.1805 94.2999 1.50721
9570 2 20.0005 94.3271 -1.04683
4067 1 21.8169 94.3108 0.175612
3221 1 19.0898 92.7403 0.155555
9240 2 20.9097 92.729 1.4871
10264 2 0.90285 95.8966 -1.02777
10261 2 1.8099 97.441 1.54469
3955 1 2.71896 95.8811 0.19477
10262 2 3.63014 97.4658 -1.00964
3957 1 5.44608 97.451 0.212984
10088 2 4.53896 95.8705 1.52642
10107 2 6.35909 95.8966 -1.02777
10109 2 9.08638 97.4658 -1.00964
3760 1 8.1752 95.8811 0.19477
10086 2 7.26614 97.441 1.54469
9856 2 11.8153 95.8966 -1.02777
3758 1 10.9023 97.451 0.212984
9851 2 9.9952 95.8705 1.52642
9854 2 14.5426 97.4658 -1.00964
3507 1 13.6314 95.8811 0.19477
9528 2 15.4514 95.8705 1.52642
9853 2 12.7224 97.441 1.54469
9571 2 17.2716 95.8966 -1.02777
3509 1 16.3586 97.451 0.212984
9526 2 18.1786 97.441 1.54469
9573 2 19.9989 97.4658 -1.00964
4065 1 21.8148 97.451 0.212984
3175 1 19.0877 95.8811 0.19477
9239 2 20.9077 95.8705 1.52642
10263 2 0.901226 99.0346 -0.992468
3945 1 2.717 99.0207 0.230228
12515 2 1.80815 100.581 1.57827
10087 2 4.53712 99.0112 1.56197
6105 1 5.44422 100.59 0.24648
12525 2 3.62859 100.603 -0.976276
10089 2 6.35746 99.0346 -0.992468
3759 1 8.17324 99.0207 0.230228
12424 2 7.26439 100.581 1.57827
12425 2 9.08483 100.603 -0.976276
9855 2 11.8137 99.0346 -0.992468
9825 2 9.99336 99.0112 1.56197
5981 1 10.9005 100.59 0.24648
3473 1 13.6295 99.0207 0.230228
9527 2 15.4496 99.0112 1.56197
12226 2 12.7206 100.581 1.57827
12237 2 14.5411 100.603 -0.976276
9529 2 17.2699 99.0346 -0.992468
11947 2 18.1769 100.581 1.57827
5753 1 16.3567 100.59 0.24648
3174 1 19.0857 99.0207 0.230228
9192 2 20.9058 99.0112 1.56197
6142 1 21.8129 100.59 0.24648
11948 2 19.9973 100.603 -0.976276
4046 1 0.928583 51.6811 2.22184
10234 2 2.74774 51.6822 3.52021
10326 2 0.0192388 53.2664 3.52595
4044 1 3.65634 53.2661 2.22747
10235 2 5.47548 53.2664 3.52595
3923 1 6.38482 51.6811 2.22184
10035 2 8.20397 51.6822 3.52021
3924 1 9.11258 53.2661 2.22747
3694 1 11.8411 51.6811 2.22184
10033 2 10.9317 53.2664 3.52595
9759 2 13.6602 51.6822 3.52021
3692 1 14.5688 53.2661 2.22747
3386 1 17.2973 51.6811 2.22184
9760 2 16.388 53.2664 3.52595
9405 2 19.1165 51.6822 3.52021
3387 1 20.0251 53.2661 2.22747
4045 1 0.92777 54.8509 2.23535
10218 2 2.74687 54.8502 3.53397
3911 1 6.38401 54.8509 2.23535
10034 2 8.20311 54.8502 3.53397
3693 1 11.8402 54.8509 2.23535
9745 2 13.6593 54.8502 3.53397
3378 1 17.2965 54.8509 2.23535
9404 2 19.1156 54.8502 3.53397
10327 2 0.0181797 56.4337 3.54415
4031 1 0.926584 58.0193 2.25749
10217 2 2.74565 58.0168 3.55642
4047 1 3.65533 56.4353 2.24539
10216 2 5.47442 56.4337 3.54415
3909 1 9.11157 56.4353 2.24539
3910 1 6.38282 58.0193 2.25749
10015 2 8.20189 58.0168 3.55642
3678 1 11.8391 58.0193 2.25749
10036 2 10.9307 56.4337 3.54415
3695 1 14.5678 56.4353 2.24539
9744 2 13.6581 58.0168 3.55642
3377 1 17.2953 58.0193 2.25749
9743 2 16.3869 56.4337 3.54415
3376 1 20.024 56.4353 2.24539
9397 2 19.1144 58.0168 3.55642
10314 2 0.0168102 59.5995 3.57067
4030 1 0.925116 61.1858 2.28745
10195 2 2.74415 61.1816 3.58677
4029 1 3.654 59.6028 2.27155
10219 2 5.47305 59.5995 3.57067
3891 1 6.38135 61.1858 2.28745
3912 1 9.11024 59.6028 2.27155
10014 2 8.20039 61.1816 3.58677
3677 1 11.8376 61.1858 2.28745
10013 2 10.9293 59.5995 3.57067
3676 1 14.5665 59.6028 2.27155
9723 2 13.6566 61.1816 3.58677
3362 1 17.2938 61.1858 2.28745
9746 2 16.3855 59.5995 3.57067
3379 1 20.0227 59.6028 2.27155
9396 2 19.1129 61.1816 3.58677
10315 2 0.015191 62.7632 3.60457
4015 1 0.923423 64.3499 2.3242
10194 2 2.74242 64.3441 3.62394
4032 1 3.65241 62.7682 2.30505
10193 2 5.47143 62.7632 3.60457
3889 1 9.10865 62.7682 2.30505
3890 1 6.37966 64.3499 2.3242
9987 2 8.19866 64.3441 3.62394
3654 1 11.8359 64.3499 2.3242
10016 2 10.9277 62.7632 3.60457
3679 1 14.5649 62.7682 2.30505
9722 2 13.6549 64.3441 3.62394
3361 1 17.2921 64.3499 2.3242
9721 2 16.3839 62.7632 3.60457
3360 1 20.0211 62.7682 2.30505
9381 2 19.1111 64.3441 3.62394
10302 2 0.0133652 65.9244 3.6447
4014 1 0.921542 67.5114 2.36655
10171 2 2.7405 67.504 3.66669
4013 1 3.65062 65.931 2.34476
10196 2 5.4696 65.9244 3.6447
3864 1 6.37778 67.5114 2.36655
3892 1 9.10686 65.931 2.34476
9986 2 8.19674 67.504 3.66669
3653 1 11.834 67.5114 2.36655
9985 2 10.9258 65.9244 3.6447
3652 1 14.5631 65.931 2.34476
9693 2 13.653 67.504 3.66669
3338 1 17.2903 67.5114 2.36655
9724 2 16.3821 65.9244 3.6447
3363 1 20.0193 65.931 2.34476
9380 2 19.1092 67.504 3.66669
10303 2 0.0113555 69.0829 3.68973
3999 1 0.919491 70.6701 2.41315
10170 2 2.7384 70.6612 3.71364
4016 1 3.64866 69.0911 2.3894
10169 2 5.46759 69.0829 3.68973
3862 1 9.10489 69.0911 2.3894
3863 1 6.37573 70.6701 2.41315
9952 2 8.19464 70.6612 3.71364
3622 1 11.832 70.6701 2.41315
9988 2 10.9238 69.0829 3.68973
3655 1 14.5611 69.0911 2.3894
9692 2 13.6509 70.6612 3.71364
3337 1 17.2882 70.6701 2.41315
9691 2 16.3801 69.0829 3.68973
3336 1 20.0174 69.0911 2.3894
9357 2 19.1071 70.6612 3.71364
10290 2 0.00917259 72.2388 3.73826
3998 1 0.917283 73.8259 2.46263
10147 2 2.73614 73.8158 3.7634
3997 1 3.64652 72.2483 2.43762
10172 2 5.46541 72.2388 3.73826
3836 1 6.37352 73.8259 2.46263
3865 1 9.10276 72.2483 2.43762
9951 2 8.19238 73.8158 3.7634
3621 1 11.8298 73.8259 2.46263
9950 2 10.9216 72.2388 3.73826
3620 1 14.559 72.2483 2.43762
9655 2 13.6486 73.8158 3.7634
3306 1 17.286 73.8259 2.46263
9694 2 16.3779 72.2388 3.73826
3339 1 20.0152 72.2483 2.43762
9356 2 19.1049 73.8158 3.7634
10291 2 0.00682921 75.3922 3.7889
3983 1 0.914937 76.9791 2.51362
10146 2 2.73372 76.968 3.8146
4000 1 3.64425 75.4028 2.48801
10145 2 5.46307 75.3922 3.7889
3834 1 9.10048 75.4028 2.48801
3835 1 6.37118 76.9791 2.51362
9916 2 8.18996 76.968 3.8146
9953 2 10.9193 75.3922 3.7889
3583 1 11.8274 76.9791 2.51362
3623 1 14.5567 75.4028 2.48801
9654 2 13.6462 76.968 3.8146
9653 2 16.3755 75.3922 3.7889
3305 1 17.2837 76.9791 2.51362
3304 1 20.013 75.4028 2.48801
9325 2 19.1024 76.968 3.8146
10278 2 0.00435198 78.5432 3.84034
3981 1 3.64184 78.5547 2.53929
10148 2 5.46059 78.5432 3.84034
3837 1 9.09808 78.5547 2.53929
9914 2 10.9168 78.5432 3.84034
3581 1 14.5543 78.5547 2.53929
9656 2 16.3731 78.5432 3.84034
3307 1 20.0106 78.5547 2.53929
10279 2 0.00178484 81.6923 3.89139
3982 1 0.912484 80.1297 2.56487
10123 2 2.7312 80.118 3.86598
3984 1 3.63935 81.7042 2.59025
10121 2 5.45802 81.6923 3.89139
3806 1 9.09559 81.7042 2.59025
3808 1 6.36872 80.1297 2.56487
9915 2 8.18743 80.118 3.86598
3582 1 11.825 80.1297 2.56487
9917 2 10.9143 81.6923 3.89139
3584 1 14.5518 81.7042 2.59025
9610 2 13.6437 80.118 3.86598
3266 1 17.2812 80.1297 2.56487
9608 2 16.3705 81.6923 3.89139
3264 1 20.0081 81.7042 2.59025
9324 2 19.0999 80.118 3.86598
3967 1 0.909969 83.2782 2.61528
10122 2 2.7286 83.2661 3.91645
3965 1 3.63682 84.8518 2.63987
10124 2 5.45542 84.8396 3.94105
3807 1 6.36621 83.2782 2.61528
3809 1 9.09306 84.8518 2.63987
9880 2 8.18484 83.2661 3.91645
3543 1 11.8224 83.2782 2.61528
9878 2 10.9117 84.8396 3.94105
3541 1 14.5493 84.8518 2.63987
9609 2 13.6411 83.2661 3.91645
3265 1 17.2787 83.2782 2.61528
9611 2 16.3679 84.8396 3.94105
10266 2 21.8241 84.8396 3.94105
3267 1 20.0055 84.8518 2.63987
9285 2 19.0973 83.2661 3.91645
3966 1 0.907446 86.4249 2.66392
10100 2 2.72601 86.4127 3.9651
3968 1 3.63432 87.9976 2.68733
10098 2 5.45286 87.9856 3.9885
3778 1 9.09056 87.9976 2.68733
3780 1 6.36368 86.4249 2.66392
9879 2 8.18225 86.4127 3.9651
3542 1 11.8199 86.4249 2.66392
9881 2 10.9091 87.9856 3.9885
3544 1 14.5468 87.9976 2.68733
9564 2 13.6385 86.4127 3.9651
3219 1 17.2762 86.4249 2.66392
9562 2 16.3653 87.9856 3.9885
10267 2 21.8216 87.9856 3.9885
3217 1 20.003 87.9976 2.68733
9284 2 19.0947 86.4127 3.9651
3952 1 0.904975 89.5699 2.71003
10099 2 2.72348 89.5581 4.01119
3950 1 3.6319 91.142 2.73196
10101 2 5.45038 91.1304 4.0331
3779 1 6.36121 89.5699 2.71003
3781 1 9.08813 91.142 2.73196
9848 2 8.17972 89.5581 4.01119
3504 1 11.8175 89.5699 2.71003
9846 2 10.9066 91.1304 4.0331
3502 1 14.5444 91.142 2.73196
9563 2 13.636 89.5581 4.01119
3218 1 17.2737 89.5699 2.71003
9565 2 16.3629 91.1304 4.0331
10258 2 21.8191 91.1304 4.0331
3220 1 20.0006 91.142 2.73196
9238 2 19.0922 89.5581 4.01119
3951 1 0.902611 92.7138 2.75306
10084 2 2.72107 92.7025 4.05418
3953 1 3.62961 94.2853 2.77329
10082 2 5.44805 94.2744 4.07438
3754 1 9.08584 94.2853 2.77329
3756 1 6.35885 92.7138 2.75306
9847 2 8.17731 92.7025 4.05418
3503 1 11.8151 92.7138 2.75306
9849 2 10.9043 94.2744 4.07438
3505 1 14.5421 94.2853 2.77329
9524 2 13.6336 92.7025 4.05418
3172 1 17.2713 92.7138 2.75306
9522 2 16.3605 94.2744 4.07438
10259 2 21.8168 94.2744 4.07438
3170 1 19.9983 94.2853 2.77329
9237 2 19.0898 92.7025 4.05418
3944 1 0.900403 95.8566 2.7926
10083 2 2.71883 95.8461 4.09366
3942 1 3.62751 97.4277 2.81097
10085 2 5.4459 97.4177 4.11201
3755 1 6.35664 95.8566 2.7926
3757 1 9.08375 97.4277 2.81097
9824 2 8.17507 95.8461 4.09366
3472 1 11.8129 95.8566 2.7926
9822 2 10.9021 97.4177 4.11201
3470 1 14.54 97.4277 2.81097
9523 2 13.6313 95.8461 4.09366
3171 1 17.2691 95.8566 2.7926
9525 2 16.3584 97.4177 4.11201
10257 2 21.8146 97.4177 4.11201
3173 1 19.9962 97.4277 2.81097
9191 2 19.0875 95.8461 4.09366
3943 1 0.898415 98.9986 2.82833
10073 2 2.71679 98.9892 4.12936
6104 1 3.6256 100.569 2.84466
12409 2 5.444 100.561 4.14568
3737 1 6.35465 98.9986 2.82833
9823 2 8.17303 98.9892 4.12936
5970 1 9.08184 100.569 2.84466
3471 1 11.8109 98.9986 2.82833
12225 2 10.9002 100.561 4.14568
9489 2 13.6293 98.9892 4.12936
5752 1 14.5381 100.569 2.84466
3129 1 17.2671 98.9986 2.82833
11934 2 16.3565 100.561 4.14568
9190 2 19.0855 98.9892 4.12936
12514 2 21.8127 100.561 4.14568
5433 1 19.9943 100.569 2.84466
10214 2 0.931657 51.6818 6.08349
4043 1 1.83961 53.2636 4.79973
3907 1 4.56811 51.6812 4.7939
10212 2 3.65935 53.2638 6.08943
10031 2 6.3879 51.6818 6.08349
3905 1 7.29584 53.2636 4.79973
10032 2 9.11559 53.2638 6.08943
3690 1 10.0243 51.6812 4.7939
9741 2 11.8441 51.6818 6.08349
3374 1 15.4806 51.6812 4.7939
3691 1 12.7521 53.2636 4.79973
9739 2 14.5718 53.2638 6.08943
9402 2 17.3004 51.6818 6.08349
3372 1 18.2083 53.2636 4.79973
3008 1 20.9368 51.6812 4.7939
9403 2 20.0281 53.2638 6.08943
10213 2 0.930697 54.8455 6.09767
3906 1 4.56723 54.8462 4.80786
10011 2 6.38694 54.8455 6.09767
3674 1 10.0235 54.8462 4.80786
9740 2 11.8432 54.8455 6.09767
3373 1 15.4797 54.8462 4.80786
9394 2 17.2994 54.8455 6.09767
3007 1 20.9359 54.8462 4.80786
4027 1 1.83852 56.4285 4.81822
10191 2 0.92931 58.008 6.12082
3887 1 4.56596 58.0104 4.8307
10215 2 3.65817 56.4269 6.10817
3908 1 7.29476 56.4285 4.81822
10009 2 9.11441 56.4269 6.10817
10010 2 6.38555 58.008 6.12082
3673 1 10.0222 58.0104 4.8307
9719 2 11.8418 58.008 6.12082
3358 1 15.4784 58.0104 4.8307
3672 1 12.751 56.4285 4.81822
9742 2 14.5706 56.4269 6.10817
3375 1 18.2072 56.4285 4.81822
9393 2 17.298 58.008 6.12082
3006 1 20.9347 58.0104 4.8307
9392 2 20.0269 56.4269 6.10817
4028 1 1.83709 59.592 4.8452
10190 2 0.927579 61.1689 6.15208
3886 1 4.56438 61.1731 4.86159
10189 2 3.6566 59.5887 6.13551
3885 1 7.29333 59.592 4.8452
9983 2 6.38382 61.1689 6.15208
10012 2 9.11284 59.5887 6.13551
3650 1 10.0206 61.1731 4.86159
9718 2 11.8401 61.1689 6.15208
3357 1 15.4769 61.1731 4.86159
3675 1 12.7496 59.592 4.8452
9717 2 14.5691 59.5887 6.13551
3356 1 18.2058 59.592 4.8452
9378 2 17.2963 61.1689 6.15208
2999 1 20.9331 61.1731 4.86159
9395 2 20.0253 59.5887 6.13551
4011 1 1.83536 62.7536 4.87972
10167 2 0.925576 64.3278 6.19031
3860 1 4.56253 64.3336 4.89944
10192 2 3.65473 62.7486 6.17041
3888 1 7.2916 62.7536 4.87972
9981 2 9.11097 62.7486 6.17041
9982 2 6.38181 64.3278 6.19031
3649 1 10.0188 64.3336 4.89944
9689 2 11.8381 64.3278 6.19031
3334 1 15.475 64.3336 4.89944
3648 1 12.7478 62.7536 4.87972
9720 2 14.5672 62.7486 6.17041
3359 1 18.2041 62.7536 4.87972
9377 2 17.2943 64.3278 6.19031
2998 1 20.9312 64.3336 4.89944
9376 2 20.0234 62.7486 6.17041
4012 1 1.8334 65.9131 4.92057
10166 2 0.923339 67.4845 6.23417
3859 1 4.56045 67.4919 4.94295
10165 2 3.6526 65.9064 6.21163
3858 1 7.28963 65.9131 4.92057
9948 2 6.37958 67.4845 6.23417
9984 2 9.10884 65.9064 6.21163
3618 1 10.0167 67.4919 4.94295
9688 2 11.8358 67.4845 6.23417
3333 1 15.4729 67.4919 4.94295
3651 1 12.7459 65.9131 4.92057
9687 2 14.5651 65.9064 6.21163
3332 1 18.2021 65.9131 4.92057
9354 2 17.2921 67.4845 6.23417
2983 1 20.9292 67.4919 4.94295
9379 2 20.0213 65.9064 6.21163
3995 1 1.83121 69.0702 4.96638
10143 2 0.920884 70.639 6.2822
3832 1 4.55815 70.6478 4.9907
10168 2 3.65026 69.062 6.25775
3861 1 7.28744 69.0702 4.96638
9946 2 9.1065 69.062 6.25775
9947 2 6.37712 70.639 6.2822
3617 1 10.0144 70.6478 4.9907
9651 2 11.8334 70.639 6.2822
3302 1 15.4706 70.6478 4.9907
3616 1 12.7437 69.0702 4.96638
9690 2 14.5627 69.062 6.25775
3335 1 18.1999 69.0702 4.96638
9353 2 17.2896 70.639 6.2822
2982 1 20.9269 70.6478 4.9907
9352 2 20.019 69.062 6.25775
3996 1 1.82881 72.2249 5.01571
10142 2 0.918227 73.7914 6.33292
3831 1 4.55565 73.8015 5.04124
10141 2 3.6477 72.2154 6.30731
3830 1 7.28504 72.2249 5.01571
9912 2 6.37447 73.7914 6.33292
9949 2 9.10394 72.2154 6.30731
3579 1 10.0119 73.8015 5.04124
9650 2 11.8307 73.7914 6.33292
3301 1 15.4681 73.8015 5.04124
3619 1 12.7413 72.2249 5.01571
9649 2 14.5602 72.2154 6.30731
3300 1 18.1975 72.2249 5.01571
9322 2 17.2869 73.7914 6.33292
2959 1 20.9244 73.8015 5.04124
9355 2 20.0164 72.2154 6.30731
3979 1 1.82622 75.3775 5.06712
10119 2 0.915403 76.942 6.38493
10144 2 3.64495 75.3669 6.35885
3804 1 4.55298 76.953 5.09317
3833 1 7.28246 75.3775 5.06712
9910 2 9.10119 75.3669 6.35885
9911 2 6.37164 76.942 6.38493
3578 1 10.0092 76.953 5.09317
9606 2 11.8279 76.942 6.38493
3577 1 12.7387 75.3775 5.06712
9652 2 14.5574 75.3669 6.35885
3262 1 15.4655 76.953 5.09317
3303 1 18.1949 75.3775 5.06712
9321 2 17.2841 76.942 6.38493
9320 2 20.0137 75.3669 6.35885
2958 1 20.9217 76.953 5.09317
3980 1 1.82348 78.528 5.11925
10117 2 3.64206 78.5167 6.41101
3802 1 7.27972 78.528 5.11925
9913 2 9.0983 78.5167 6.41101
3580 1 12.736 78.528 5.11925
9604 2 14.5545 78.5167 6.41101
3260 1 18.1922 78.528 5.11925
9323 2 20.0108 78.5167 6.41101
3963 1 1.82065 81.6769 5.17089
10118 2 0.91247 80.0911 6.43694
3803 1 4.55019 80.1027 5.1452
10120 2 3.6391 81.6651 6.46259
3805 1 7.27689 81.6769 5.17089
9874 2 9.09534 81.6651 6.46259
9876 2 6.36871 80.0911 6.43694
3539 1 10.0064 80.1027 5.1452
9605 2 11.8249 80.0911 6.43694
3261 1 15.4627 80.1027 5.1452
3537 1 12.7331 81.6769 5.17089
9607 2 14.5516 81.6651 6.46259
3263 1 18.1894 81.6769 5.17089
9282 2 17.2812 80.0911 6.43694
2927 1 20.9189 80.1027 5.1452
9280 2 20.0078 81.6651 6.46259
3964 1 1.8178 84.8244 5.22104
10096 2 0.909502 83.2389 6.48785
3776 1 4.54734 83.2508 5.19621
10094 2 3.63615 84.8125 6.51262
3774 1 7.27404 84.8244 5.22104
9875 2 6.36574 83.2389 6.48785
9877 2 9.09239 84.8125 6.51262
3538 1 10.0036 83.2508 5.19621
9560 2 11.822 83.2389 6.48785
3215 1 15.4598 83.2508 5.19621
3540 1 12.7303 84.8244 5.22104
9558 2 14.5486 84.8125 6.51262
3213 1 18.1865 84.8244 5.22104
9281 2 17.2782 83.2389 6.48785
2926 1 20.9161 83.2508 5.19621
9283 2 20.0049 84.8125 6.51262
3948 1 1.81502 87.9708 5.26888
10095 2 0.90658 86.3859 6.53679
3775 1 4.54452 86.3977 5.24529
10097 2 3.63328 87.9591 6.56028
3777 1 7.27126 87.9708 5.26888
9842 2 9.08952 87.9591 6.56028
9844 2 6.36282 86.3859 6.53679
3500 1 10.0008 86.3977 5.24529
9559 2 11.8191 86.3859 6.53679
3214 1 15.457 86.3977 5.24529
3498 1 12.7275 87.9708 5.26888
9561 2 14.5458 87.9591 6.56028
3216 1 18.1837 87.9708 5.26888
9235 2 17.2753 86.3859 6.53679
2887 1 20.9132 86.3977 5.24529
9233 2 20.002 87.9591 6.56028
3949 1 1.81236 91.1164 5.31376
10080 2 0.903778 89.5322 6.58304
3752 1 4.54179 89.5437 5.29172
10078 2 3.63056 91.1051 6.60499
3750 1 7.26859 91.1164 5.31376
9843 2 6.36002 89.5322 6.58304
9845 2 9.0868 91.1051 6.60499
3499 1 9.99802 89.5437 5.29172
9520 2 11.8163 89.5322 6.58304
3168 1 15.4543 89.5437 5.29172
3501 1 12.7248 91.1164 5.31376
9518 2 14.543 91.1051 6.60499
3166 1 18.1811 91.1164 5.31376
9234 2 17.2725 89.5322 6.58304
2886 1 20.9105 89.5437 5.29172
9236 2 19.9993 91.1051 6.60499
3940 1 1.80988 94.2613 5.35524
10079 2 0.90116 92.678 6.62608
3751 1 4.53921 92.6889 5.33495
10081 2 3.62806 94.2508 6.64628
3753 1 7.26611 94.2613 5.35524
9818 2 9.08429 94.2508 6.64628
9820 2 6.3574 92.678 6.62608
3468 1 9.99545 92.6889 5.33495
9519 2 11.8136 92.678 6.62608
3167 1 15.4517 92.6889 5.33495
3466 1 12.7224 94.2613 5.35524
9521 2 14.5405 94.2508 6.64628
3169 1 18.1786 94.2613 5.35524
9188 2 17.2699 92.678 6.62608
2841 1 20.9079 92.6889 5.33495
9186 2 19.9968 94.2508 6.64628
3941 1 1.80762 97.4059 5.39299
10072 2 0.898774 95.8235 6.66555
3736 1 4.53684 95.8337 5.3746
10070 2 3.6258 97.3962 6.68383
3734 1 7.26386 97.4059 5.39299
9819 2 6.35501 95.8235 6.66555
9821 2 9.08204 97.3962 6.68383
3467 1 9.99308 95.8337 5.3746
9488 2 11.8113 95.8235 6.66555
3128 1 15.4493 95.8337 5.3746
3469 1 12.7201 97.4059 5.39299
9486 2 14.5383 97.3962 6.68383
3126 1 18.1763 97.4059 5.39299
9187 2 17.2675 95.8235 6.66555
2840 1 20.9056 95.8337 5.3746
9189 2 19.9945 97.3962 6.68383
10071 2 0.896646 98.9688 6.70117
6090 1 1.80561 100.55 5.4268
3735 1 4.5347 98.9783 5.4104
12408 2 3.62378 100.541 6.71753
9801 2 6.35288 98.9688 6.70117
5969 1 7.26185 100.55 5.4268
12206 2 9.08002 100.541 6.71753
3441 1 9.99094 98.9783 5.4104
9487 2 11.8091 98.9688 6.70117
3127 1 15.4472 98.9783 5.4104
5737 1 12.7181 100.55 5.4268
11933 2 14.5363 100.541 6.71753
9145 2 17.2654 98.9688 6.70117
5432 1 18.1743 100.55 5.4268
2795 1 20.9034 98.9783 5.4104
11577 2 19.9925 100.541 6.71753
3903 1 2.75195 51.6814 7.36117
3879 1 0.936208 51.6818 9.92637
4025 1 0.0233782 53.2624 7.36725
10211 2 1.84346 53.2618 8.65393
10007 2 4.5721 51.6818 8.64773
3904 1 5.47962 53.2624 7.36725
3877 1 3.66376 53.2609 9.93276
3670 1 8.20819 51.6814 7.36117
3666 1 6.39245 51.6818 9.92637
3667 1 9.12 53.2609 9.93276
10005 2 7.2997 53.2618 8.65393
3350 1 11.8487 51.6818 9.92637
9737 2 10.0283 51.6818 8.64773
3668 1 10.9359 53.2624 7.36725
3370 1 13.6644 51.6814 7.36117
9390 2 15.4846 51.6818 8.64773
3348 1 14.5762 53.2609 9.93276
9738 2 12.7559 53.2618 8.65393
3002 1 17.3049 51.6818 9.92637
3371 1 16.3921 53.2624 7.36725
9388 2 18.2122 53.2618 8.65393
3005 1 19.1207 51.6814 7.36117
9024 2 20.9408 51.6818 8.64773
3003 1 20.0325 53.2609 9.93276
3883 1 2.7509 54.8431 7.37569
3878 1 0.934914 54.8397 9.94164
10006 2 4.57092 54.8416 8.66253
3669 1 8.20714 54.8431 7.37569
3642 1 6.39115 54.8397 9.94164
3349 1 11.8474 54.8397 9.94164
9715 2 10.0272 54.8416 8.66253
3354 1 13.6634 54.8431 7.37569
9389 2 15.4834 54.8416 8.66253
2994 1 17.3036 54.8397 9.94164
3004 1 19.1196 54.8431 7.37569
9023 2 20.9396 54.8416 8.66253
3882 1 2.74942 58.0035 7.39939
4026 1 0.0220956 56.4235 7.38643
3852 1 0.933055 57.9966 9.96644
10187 2 1.84201 56.4212 8.67346
3881 1 5.47833 56.4235 7.38643
3880 1 3.66216 56.4183 9.9529
9979 2 4.56923 58.0004 8.68661
3646 1 8.20566 58.0035 7.39939
3640 1 9.1184 56.4183 9.9529
3641 1 6.38929 57.9966 9.96644
10008 2 7.29825 56.4212 8.67346
3671 1 10.9346 56.4235 7.38643
3326 1 11.8455 57.9966 9.96644
9714 2 10.0255 58.0004 8.68661
3353 1 13.6619 58.0035 7.39939
3351 1 14.5746 56.4183 9.9529
9374 2 15.4817 58.0004 8.68661
9713 2 12.7545 56.4212 8.67346
3352 1 16.3908 56.4235 7.38643
2993 1 17.3018 57.9966 9.96644
9391 2 18.2107 56.4212 8.67346
2997 1 19.1181 58.0035 7.39939
2992 1 20.0309 56.4183 9.9529
9022 2 20.9379 58.0004 8.68661
3856 1 2.74757 61.1625 7.43139
4009 1 0.0204156 59.5832 7.41442
3851 1 0.930791 61.1521 9.99983
10188 2 1.84011 59.5792 8.70185
3884 1 5.47665 59.5832 7.41442
3850 1 3.66008 59.5746 9.98214
9978 2 4.56715 61.1576 8.71904
3645 1 8.20381 61.1625 7.43139
3610 1 6.38703 61.1521 9.99983
3643 1 9.11632 59.5746 9.98214
9977 2 7.29635 59.5792 8.70185
3644 1 10.9329 59.5832 7.41442
3325 1 11.8433 61.1521 9.99983
9685 2 10.0234 61.1576 8.71904
3330 1 13.66 61.1625 7.43139
3324 1 14.5726 59.5746 9.98214
9373 2 15.4796 61.1576 8.71904
9716 2 12.7526 59.5792 8.70185
3355 1 16.3891 59.5832 7.41442
2978 1 17.2995 61.1521 9.99983
9372 2 18.2088 59.5792 8.70185
2996 1 19.1163 61.1625 7.43139
2995 1 20.0288 59.5746 9.98214
9015 2 20.9359 61.1576 8.71904
3855 1 2.74543 64.3197 7.47051
4010 1 0.0184134 62.7413 7.45014
3824 1 0.928224 64.3059 10.0405
10163 2 1.83787 62.7355 8.73801
3854 1 5.47465 62.7413 7.45014
3853 1 3.65766 62.7292 10.0193
9944 2 4.56477 64.313 8.75859
3614 1 8.20167 64.3197 7.47051
3608 1 9.1139 62.7292 10.0193
3609 1 6.38446 64.3059 10.0405
9980 2 7.29411 62.7355 8.73801
3647 1 10.9309 62.7413 7.45014
3294 1 11.8407 64.3059 10.0405
9684 2 10.021 64.313 8.75859
3329 1 13.6579 64.3197 7.47051
3327 1 14.5701 62.7292 10.0193
9350 2 15.4772 64.313 8.75859
9683 2 12.7504 62.7355 8.73801
3328 1 16.3871 62.7413 7.45014
2977 1 17.2969 64.3059 10.0405
9375 2 18.2066 62.7355 8.73801
2981 1 19.1141 64.3197 7.47051
2976 1 20.0264 62.7292 10.0193
9014 2 20.9335 64.313 8.75859
3828 1 2.74303 67.4748 7.51533
3993 1 0.0161401 65.8975 7.4923
3823 1 0.925392 67.4579 10.0869
10164 2 1.83537 65.89 8.78058
3857 1 5.47238 65.8975 7.4923
3822 1 3.65496 65.8821 10.0631
9943 2 4.56214 67.4666 8.8038
3613 1 8.19927 67.4748 7.51533
3571 1 6.38163 67.4579 10.0869
3611 1 9.1112 65.8821 10.0631
9942 2 7.2916 65.89 8.78058
3612 1 10.9286 65.8975 7.4923
3293 1 11.8379 67.4579 10.0869
9647 2 10.0184 67.4666 8.8038
3298 1 13.6555 67.4748 7.51533
3292 1 14.5674 65.8821 10.0631
9349 2 15.4746 67.4666 8.8038
9686 2 12.7478 65.89 8.78058
3331 1 16.3849 65.8975 7.4923
2954 1 17.2941 67.4579 10.0869
9348 2 18.2041 65.89 8.78058
2980 1 19.1117 67.4748 7.51533
2979 1 20.0237 65.8821 10.0631
8999 2 20.9309 67.4666 8.8038
3827 1 2.74038 70.628 7.56434
3994 1 0.0136153 69.0517 7.53941
3796 1 0.922304 70.6083 10.1373
10139 2 1.83261 69.0427 8.82803
3826 1 5.46985 69.0517 7.53941
3825 1 3.652 69.0333 10.1117
9908 2 4.55927 70.6183 8.85309
3575 1 8.19662 70.628 7.56434
3569 1 9.10824 69.0333 10.1117
3570 1 6.37854 70.6083 10.1373
9945 2 7.28885 69.0427 8.82803
3615 1 10.9261 69.0517 7.53941
3254 1 11.8348 70.6083 10.1373
9646 2 10.0155 70.6183 8.85309
3297 1 13.6529 70.628 7.56434
3295 1 14.5645 69.0333 10.1117
9318 2 15.4717 70.6183 8.85309
9645 2 12.7451 69.0427 8.82803
3296 1 16.3823 69.0517 7.53941
2953 1 17.291 70.6083 10.1373
9351 2 18.2013 69.0427 8.82803
2957 1 19.1091 70.628 7.56434
2952 1 20.0207 69.0333 10.1117
8998 2 20.928 70.6183 8.85309
3800 1 2.73751 73.7794 7.61598
3977 1 0.0108506 72.2039 7.58992
3795 1 0.918985 73.7573 10.1901
10140 2 1.82963 72.1936 8.87878
3829 1 5.46709 72.2039 7.58992
3794 1 3.64879 72.183 10.1635
9907 2 4.55619 73.7685 8.9049
3574 1 8.19374 73.7794 7.61598
3531 1 6.37522 73.7573 10.1901
3572 1 9.10503 72.183 10.1635
9906 2 7.28587 72.1936 8.87878
3573 1 10.9233 72.2039 7.58992
3253 1 11.8315 73.7573 10.1901
9602 2 10.0124 73.7685 8.9049
3258 1 13.65 73.7794 7.61598
3252 1 14.5613 72.183 10.1635
9317 2 15.4687 73.7685 8.9049
9648 2 12.7421 72.1936 8.87878
3299 1 16.3796 72.2039 7.58992
2922 1 17.2877 73.7573 10.1901
9316 2 18.1983 72.1936 8.87878
2956 1 19.1062 73.7794 7.61598
2955 1 20.0175 72.183 10.1635
8975 2 20.9249 73.7685 8.9049
3978 1 0.00787568 75.3544 7.64233
10115 2 1.82646 75.3431 8.93128
3768 1 0.915499 76.9054 10.2438
3799 1 2.73445 76.9292 7.6688
3798 1 5.46411 75.3544 7.64233
3797 1 3.64538 75.3314 10.217
9872 2 4.55294 76.9174 8.95775
3529 1 9.10161 75.3314 10.217
9909 2 7.2827 75.3431 8.93128
3530 1 6.37174 76.9054 10.2438
3535 1 8.19068 76.9292 7.6688
3576 1 10.9204 75.3544 7.64233
3207 1 11.828 76.9054 10.2438
9601 2 10.0092 76.9174 8.95775
3255 1 14.5579 75.3314 10.217
9600 2 12.7389 75.3431 8.93128
3257 1 13.6469 76.9292 7.6688
9278 2 15.4654 76.9174 8.95775
3256 1 16.3766 75.3544 7.64233
9319 2 18.1952 75.3431 8.93128
2921 1 17.2842 76.9054 10.2438
2920 1 20.0141 75.3314 10.217
2925 1 19.1032 76.9292 7.6688
8974 2 20.9217 76.9174 8.95775
3961 1 0.00475035 78.5036 7.69523
10116 2 1.82316 78.4915 8.98414
3801 1 5.46099 78.5036 7.69523
3766 1 3.64184 78.4791 10.2706
3532 1 9.09808 78.4791 10.2706
9870 2 7.2794 78.4915 8.98414
3533 1 10.9172 78.5036 7.69523
3205 1 14.5543 78.4791 10.2706
9603 2 12.7356 78.4915 8.98414
3259 1 16.3735 78.5036 7.69523
9276 2 18.1919 78.4915 8.98414
2923 1 20.0106 78.4791 10.2706
3772 1 2.73128 80.0778 7.72148
3962 1 0.00155902 81.6517 7.74741
3767 1 0.911947 80.0528 10.2971
10092 2 1.81984 81.6392 9.03617
3770 1 5.4578 81.6517 7.74741
3769 1 3.6383 81.6264 10.3232
9871 2 4.54962 80.0654 9.01033
3534 1 8.18751 80.0778 7.72148
3490 1 9.09454 81.6264 10.3232
3492 1 6.36819 80.0528 10.2971
9873 2 7.27608 81.6392 9.03617
3536 1 10.914 81.6517 7.74741
3206 1 11.8244 80.0528 10.2971
9556 2 10.0059 80.0654 9.01033
3211 1 13.6438 80.0778 7.72148
3208 1 14.5508 81.6264 10.3232
9277 2 15.4621 80.0654 9.01033
9554 2 12.7323 81.6392 9.03617
3209 1 16.3703 81.6517 7.74741
2882 1 17.2807 80.0528 10.2971
9279 2 18.1886 81.6392 9.03617
2924 1 19.1 80.0778 7.72148
2880 1 20.007 81.6264 10.3232
8943 2 20.9183 80.0654 9.01033
3771 1 2.72809 83.2255 7.77292
10093 2 1.81658 84.7865 9.08641
3773 1 5.45463 84.7991 7.79788
9840 2 4.54631 83.2129 9.06157
3496 1 8.18433 83.2255 7.77292
9838 2 7.27282 84.7865 9.08641
3494 1 10.9109 84.7991 7.79788
9555 2 10.0026 83.2129 9.06157
3210 1 13.6406 83.2255 7.77292
9231 2 15.4588 83.2129 9.06157
9557 2 12.7291 84.7865 9.08641
3212 1 16.3671 84.7991 7.79788
9229 2 18.1853 84.7865 9.08641
3946 1 21.8233 84.7991 7.79788
2885 1 19.0968 83.2255 7.77292
8942 2 20.915 83.2129 9.06157
3748 1 2.72497 86.3726 7.82223
10076 2 1.81347 87.9337 9.13412
3746 1 5.45159 87.946 7.84587
9839 2 4.54312 86.3601 9.11062
3495 1 8.18121 86.3726 7.82223
9841 2 7.26971 87.9337 9.13412
3497 1 10.9078 87.946 7.84587
9516 2 9.99936 86.3601 9.11062
3164 1 13.6374 86.3726 7.82223
9230 2 15.4556 86.3601 9.11062
9514 2 12.7259 87.9337 9.13412
3162 1 16.3641 87.946 7.84587
9232 2 18.1822 87.9337 9.13412
3947 1 21.8203 87.946 7.84587
2884 1 19.0937 86.3726 7.82223
8904 2 20.9118 86.3601 9.11062
3747 1 2.72201 89.5193 7.86874
10077 2 1.81059 91.0808 9.17874
3749 1 5.44873 91.0926 7.89078
9816 2 4.54012 89.5072 9.15684
3464 1 8.17825 89.5193 7.86874
9814 2 7.26683 91.0808 9.17874
3462 1 10.905 91.0926 7.89078
9515 2 9.99636 89.5072 9.15684
3163 1 13.6345 89.5193 7.86874
9184 2 15.4526 89.5072 9.15684
9517 2 12.7231 91.0808 9.17874
3165 1 16.3612 91.0926 7.89078
9182 2 18.1793 91.0808 9.17874
3938 1 21.8174 91.0926 7.89078
2839 1 19.0907 89.5193 7.86874
8903 2 20.9088 89.5072 9.15684
3732 1 2.71927 92.6658 7.91195
10068 2 1.80798 94.228 9.21988
3730 1 5.44611 94.239 7.9322
9815 2 4.53737 92.6544 9.19976
3463 1 8.17551 92.6658 7.91195
9817 2 7.26421 94.228 9.21988
3465 1 10.9023 94.239 7.9322
9484 2 9.99361 92.6544 9.19976
3124 1 13.6317 92.6658 7.91195
9183 2 15.4498 92.6544 9.19976
9482 2 12.7205 94.228 9.21988
3122 1 16.3586 94.239 7.9322
9185 2 18.1767 94.228 9.21988
3939 1 21.8148 94.239 7.9322
2838 1 19.088 92.6658 7.91195
8864 2 20.9061 92.6544 9.19976
3731 1 2.71679 95.8122 7.9515
10069 2 1.80565 97.3753 9.25728
3733 1 5.44375 97.3854 7.96982
9800 2 4.53489 95.8017 9.23906
3440 1 8.17303 95.8122 7.9515
9798 2 7.26188 97.3753 9.25728
3438 1 10.9 97.3854 7.96982
9483 2 9.99113 95.8017 9.23906
3123 1 13.6293 95.8122 7.9515
9144 2 15.4474 95.8017 9.23906
9485 2 12.7181 97.3753 9.25728
3125 1 16.3562 97.3854 7.96982
9142 2 18.1744 97.3753 9.25728
3937 1 21.8125 97.3854 7.96982
2794 1 19.0855 95.8122 7.9515
8863 2 20.9036 95.8017 9.23906
3721 1 2.71456 98.9586 7.98718
12386 2 1.80361 100.523 9.29078
9799 2 4.53271 98.949 9.27452
5950 1 5.4417 100.532 8.00356
3439 1 8.1708 98.9586 7.98718
12205 2 7.25985 100.523 9.29078
9457 2 9.98895 98.949 9.27452
5736 1 10.8979 100.532 8.00356
3089 1 13.627 98.9586 7.98718
9143 2 15.4452 98.949 9.27452
11912 2 12.7161 100.523 9.29078
11576 2 18.1723 100.523 9.29078
5417 1 16.3542 100.532 8.00356
2793 1 19.0833 98.9586 7.98718
8824 2 20.9014 98.949 9.27452
6089 1 21.8104 100.532 8.00356
10003 2 2.75669 51.6819 11.2118
3876 1 1.8484 53.2592 12.4971
10185 2 0.0279169 53.2601 11.2183
3638 1 4.57727 51.682 12.4904
10004 2 5.48416 53.2601 11.2183
9711 2 8.21293 51.6819 11.2118
3636 1 7.30464 53.2592 12.4971
3346 1 10.0335 51.682 12.4904
9709 2 10.9404 53.2601 11.2183
2990 1 15.4897 51.682 12.4904
9386 2 13.6692 51.6819 11.2118
3347 1 12.7609 53.2592 12.4971
2988 1 18.2171 53.2592 12.4971
9387 2 16.3966 53.2601 11.2183
2640 1 20.946 51.682 12.4904
9021 2 19.1254 51.6819 11.2118
9975 2 2.75519 54.838 11.2274
3637 1 4.57555 54.8363 12.5065
9710 2 8.21143 54.838 11.2274
3322 1 10.0318 54.8363 12.5065
2989 1 15.488 54.8363 12.5065
9370 2 13.6677 54.838 11.2274
2639 1 20.9443 54.8363 12.5065
9020 2 19.1239 54.838 11.2274
3848 1 1.84629 56.4131 12.5184
9974 2 2.75303 57.993 11.2527
10186 2 0.0260561 56.4157 11.2389
3606 1 4.57312 57.9896 12.5327
9973 2 5.48229 56.4157 11.2389
3639 1 7.30253 56.4131 12.5184
9681 2 8.20927 57.993 11.2527
3321 1 10.0294 57.9896 12.5327
9712 2 10.9385 56.4157 11.2389
2974 1 15.4856 57.9896 12.5327
3320 1 12.7588 56.4131 12.5184
9369 2 13.6655 57.993 11.2527
2991 1 18.215 56.4131 12.5184
9368 2 16.3948 56.4157 11.2389
2638 1 20.9418 57.9896 12.5327
9013 2 19.1217 57.993 11.2527
3849 1 1.84361 59.5658 12.5492
9940 2 2.75044 61.1467 11.2866
10161 2 0.0236572 59.5701 11.2686
3605 1 4.57025 61.1416 12.5678
9976 2 5.4799 59.5701 11.2686
3604 1 7.29985 59.5658 12.5492
9680 2 8.20667 61.1467 11.2866
3290 1 10.0265 61.1416 12.5678
9679 2 10.9361 59.5701 11.2686
2973 1 15.4827 61.1416 12.5678
3323 1 12.7561 59.5658 12.5492
9346 2 13.6629 61.1467 11.2866
2972 1 18.2123 59.5658 12.5492
9371 2 16.3924 59.5701 11.2686
2631 1 20.939 61.1416 12.5678
9012 2 19.1192 61.1467 11.2866
3820 1 1.84058 62.717 12.5883
9939 2 2.74754 64.2987 11.3278
10162 2 0.0209011 62.7229 11.3064
3567 1 4.56709 64.292 12.6104
9938 2 5.47714 62.7229 11.3064
3607 1 7.29682 62.717 12.5883
9643 2 8.20378 64.2987 11.3278
3289 1 10.0233 64.292 12.6104
9682 2 10.9334 62.7229 11.3064
2950 1 15.4796 64.292 12.6104
3288 1 12.7531 62.717 12.5883
9345 2 13.66 64.2987 11.3278
2975 1 18.2093 62.717 12.5883
9344 2 16.3896 62.7229 11.3064
2630 1 20.9358 64.292 12.6104
8997 2 19.1163 64.2987 11.3278
3821 1 1.8373 65.8666 12.6339
9904 2 2.7444 67.4491 11.3746
10137 2 0.0178808 65.8741 11.3506
3566 1 4.56369 67.4408 12.6587
9941 2 5.47412 65.8741 11.3506
3565 1 7.29354 65.8666 12.6339
9642 2 8.20064 67.4491 11.3746
3250 1 10.0199 67.4408 12.6587
9641 2 10.9304 65.8741 11.3506
2949 1 15.4762 67.4408 12.6587
3291 1 12.7498 65.8666 12.6339
9314 2 13.6569 67.4491 11.3746
2948 1 18.206 65.8666 12.6339
9347 2 16.3866 65.8741 11.3506
2615 1 20.9324 67.4408 12.6587
8996 2 19.1131 67.4491 11.3746
3792 1 1.83379 69.0147 12.6844
9903 2 2.74103 70.598 11.4254
10138 2 0.0146235 69.0237 11.3996
3527 1 4.56006 70.5883 12.7108
9902 2 5.47086 69.0237 11.3996
3568 1 7.29003 69.0147 12.6844
9598 2 8.19727 70.598 11.4254
3249 1 10.0163 70.5883 12.7108
9644 2 10.9271 69.0237 11.3996
2918 1 15.4725 70.5883 12.7108
3248 1 12.7463 69.0147 12.6844
9313 2 13.6535 70.598 11.4254
2951 1 18.2025 69.0147 12.6844
9312 2 16.3833 69.0237 11.3996
2614 1 20.9288 70.5883 12.7108
8973 2 19.1097 70.598 11.4254
3793 1 1.83004 72.1617 12.7377
9868 2 2.73746 73.7458 11.4784
10113 2 0.0111469 72.172 11.4518
3526 1 4.55622 73.7349 12.7649
9905 2 5.46739 72.172 11.4518
3525 1 7.28628 72.1617 12.7377
9597 2 8.1937 73.7458 11.4784
3203 1 10.0125 73.7349 12.7649
9596 2 10.9236 72.172 11.4518
2917 1 15.4687 73.7349 12.7649
3251 1 12.7425 72.1617 12.7377
9274 2 13.6499 73.7458 11.4784
2916 1 18.1988 72.1617 12.7377
9315 2 16.3799 72.172 11.4518
2591 1 20.9249 73.7349 12.7649
8972 2 19.1062 73.7458 11.4784
3764 1 1.82613 75.308 12.7922
10114 2 0.00750428 75.3195 11.5053
9867 2 2.73377 76.893 11.5321
9866 2 5.46374 75.3195 11.5053
3488 1 4.55227 76.8811 12.8195
3528 1 7.28237 75.308 12.7922
9552 2 8.19001 76.893 11.5321
9599 2 10.92 75.3195 11.5053
3202 1 10.0085 76.8811 12.8195
3201 1 12.7386 75.308 12.7922
2878 1 15.4647 76.8811 12.8195
9273 2 13.6462 76.893 11.5321
2919 1 18.1948 75.308 12.7922
9272 2 16.3762 75.3195 11.5053
2590 1 20.921 76.8811 12.8195
8941 2 19.1025 76.893 11.5321
3765 1 1.82218 78.4542 12.8465
10090 2 0.00379218 78.4665 11.5588
9869 2 5.46003 78.4665 11.5588
3486 1 7.27842 78.4542 12.8465
9550 2 10.9163 78.4665 11.5588
3204 1 12.7347 78.4542 12.8465
2876 1 18.1909 78.4542 12.8465
9275 2 16.3725 78.4665 11.5588
3740 1 1.81832 81.6007 12.8993
9836 2 2.73007 80.04 11.5852
10091 2 0.000128606 81.6135 11.6112
3487 1 4.54835 80.0274 12.8731
9834 2 5.45637 81.6135 11.6112
3489 1 7.27456 81.6007 12.8993
9551 2 8.1863 80.04 11.5852
3156 1 10.0046 80.0274 12.8731
9553 2 10.9126 81.6135 11.6112
2877 1 15.4608 80.0274 12.8731
3154 1 12.7308 81.6007 12.8993
9227 2 13.6425 80.04 11.5852
2879 1 18.187 81.6007 12.8993
9225 2 16.3688 81.6135 11.6112
2559 1 20.9171 80.0274 12.8731
8940 2 19.0988 80.04 11.5852
3744 1 0.908444 83.2 10.3487
3741 1 1.81467 84.7479 12.9498
9835 2 2.72647 83.1871 11.6366
10074 2 -0.0033751 84.7607 11.6614
3742 1 3.63486 84.7736 10.3738
3456 1 4.54458 83.1742 12.9248
9837 2 5.45286 84.7607 11.6614
3491 1 6.36468 83.2 10.3487
3493 1 9.0911 84.7736 10.3738
3454 1 7.27091 84.7479 12.9498
9512 2 8.18271 83.1871 11.6366
3160 1 11.8209 83.2 10.3487
3155 1 10.0008 83.1742 12.9248
9510 2 10.9091 84.7607 11.6614
3158 1 14.5473 84.7736 10.3738
2832 1 15.4571 83.1742 12.9248
3157 1 12.7271 84.7479 12.9498
9226 2 13.6389 83.1871 11.6366
2881 1 17.2772 83.2 10.3487
2830 1 18.1834 84.7479 12.9498
9228 2 16.3653 84.7607 11.6614
2883 1 20.0036 84.7736 10.3738
2558 1 20.9133 83.1742 12.9248
8902 2 19.0952 83.1871 11.6366
3743 1 0.905094 86.3473 10.3981
3724 1 1.81133 87.8958 12.9974
9812 2 2.72308 86.3345 11.6856
3745 1 3.63162 87.921 10.4217
3455 1 4.54108 86.3218 12.974
9810 2 5.44961 87.9085 11.709
3458 1 9.08786 87.921 10.4217
3460 1 6.36133 86.3473 10.3981
3457 1 7.26756 87.8958 12.9974
9511 2 8.17932 86.3345 11.6856
3159 1 11.8176 86.3473 10.3981
3116 1 9.99732 86.3218 12.974
9513 2 10.9058 87.9085 11.709
3161 1 14.5441 87.921 10.4217
2831 1 15.4536 86.3218 12.974
3114 1 12.7238 87.8958 12.9974
9180 2 13.6356 86.3345 11.6856
2836 1 17.2738 86.3473 10.3981
2833 1 18.18 87.8958 12.9974
9178 2 16.3621 87.9085 11.709
2834 1 20.0003 87.921 10.4217
10075 2 21.8183 87.9085 11.709
2523 1 20.9098 86.3218 12.974
8901 2 19.0918 86.3345 11.6856
3728 1 0.901978 89.4948 10.4445
3725 1 1.80832 91.0446 13.0417
9811 2 2.71997 89.4825 11.7316
3726 1 3.62864 91.0687 10.4664
3432 1 4.5379 89.4701 13.02
9813 2 5.44665 91.0567 11.7533
3459 1 6.35822 89.4948 10.4445
3461 1 9.08488 91.0687 10.4664
3430 1 7.26456 91.0446 13.0417
9480 2 8.17621 89.4825 11.7316
3120 1 11.8145 89.4948 10.4445
3115 1 9.99414 89.4701 13.02
9478 2 10.9029 91.0567 11.7533
3118 1 14.5411 91.0687 10.4664
2787 1 15.4504 89.4701 13.02
3117 1 12.7208 91.0446 13.0417
9179 2 13.6324 89.4825 11.7316
2835 1 17.2707 89.4948 10.4445
2785 1 18.177 91.0446 13.0417
9181 2 16.3591 91.0567 11.7533
2837 1 19.9974 91.0687 10.4664
10066 2 21.8154 91.0567 11.7533
2522 1 20.9066 89.4701 13.02
8862 2 19.0887 89.4825 11.7316
3727 1 0.899146 92.6426 10.4874
3716 1 1.80568 94.1942 13.0824
9796 2 2.71717 92.631 11.7742
3729 1 3.62596 94.2166 10.5075
3431 1 4.53508 92.6193 13.0625
9794 2 5.44402 94.2055 11.7941
3436 1 6.35538 92.6426 10.4874
3434 1 9.0822 94.2166 10.5075
3433 1 7.26192 94.1942 13.0824
9479 2 8.17341 92.631 11.7742
3119 1 11.8116 92.6426 10.4874
3084 1 9.99131 92.6193 13.0625
9481 2 10.9003 94.2055 11.7941
3121 1 14.5384 94.2166 10.5075
2786 1 15.4476 92.6193 13.0625
3082 1 12.7182 94.1942 13.0824
9140 2 13.6296 92.631 11.7742
2791 1 17.2679 92.6426 10.4874
2788 1 18.1744 94.1942 13.0824
9138 2 16.3565 94.2055 11.7941
10067 2 21.8127 94.2055 11.7941
2789 1 19.9947 94.2166 10.5075
2487 1 20.9038 92.6193 13.0625
8861 2 19.0859 92.631 11.7742
3720 1 0.896622 95.7907 10.5267
3717 1 1.80339 97.3445 13.1193
9795 2 2.7147 95.7801 11.8131
3718 1 3.6236 97.3649 10.5449
3416 1 4.53261 95.7693 13.1013
9797 2 5.44171 97.3548 11.8312
3435 1 6.35286 95.7907 10.5267
3437 1 9.07984 97.3649 10.5449
3414 1 7.25963 97.3445 13.1193
9456 2 8.17094 95.7801 11.8131
3088 1 11.8091 95.7907 10.5267
3083 1 9.98885 95.7693 13.1013
9454 2 10.898 97.3548 11.8312
3086 1 14.5361 97.3649 10.5449
2749 1 15.4451 95.7693 13.1013
3085 1 12.7159 97.3445 13.1193
9139 2 13.6272 95.7801 11.8131
2790 1 17.2653 95.7907 10.5267
2747 1 18.1721 97.3445 13.1193
9141 2 16.3542 97.3548 11.8312
10065 2 21.8104 97.3548 11.8312
2792 1 19.9923 97.3649 10.5449
2486 1 20.9013 95.7693 13.1013
8823 2 19.0834 95.7801 11.8131
3719 1 0.894415 98.9392 10.5622
9785 2 2.71256 98.9296 11.8482
5923 1 1.80145 100.495 13.1524
3415 1 4.5305 98.9198 13.1363
12178 2 5.43973 100.504 11.8643
5949 1 3.62155 100.513 10.5784
3417 1 6.35065 98.9392 10.5622
9455 2 8.1688 98.9296 11.8482
5712 1 7.25768 100.495 13.1524
5713 1 9.07779 100.513 10.5784
3087 1 11.8069 98.9392 10.5622
3057 1 9.98674 98.9198 13.1363
11911 2 10.896 100.504 11.8643
2748 1 15.443 98.9198 13.1363
9105 2 13.625 98.9296 11.8482
5393 1 12.7139 100.495 13.1524
5416 1 14.534 100.513 10.5784
2750 1 17.2631 98.9392 10.5622
11561 2 16.3522 100.504 11.8643
5048 1 18.1702 100.495 13.1524
2451 1 20.8992 98.9198 13.1363
8822 2 19.0813 98.9296 11.8482
12385 2 21.8084 100.504 11.8643
5049 1 19.9903 100.513 10.5784
9971 2 0.941894 51.6818 13.7753
3634 1 2.76282 51.6818 15.0533
3846 1 0.0336565 53.2571 15.0606
9969 2 3.66913 53.2581 13.7822
3635 1 5.48989 53.2571 15.0606
9707 2 6.39813 51.6818 13.7753
3318 1 8.21906 51.6818 15.0533
9708 2 9.12536 53.2581 13.7822
9366 2 11.8544 51.6818 13.7753
3316 1 10.9461 53.2571 15.0606
2986 1 13.6753 51.6818 15.0533
9364 2 14.5816 53.2581 13.7822
9018 2 17.3106 51.6818 13.7753
2987 1 16.4024 53.2571 15.0606
2637 1 19.1315 51.6818 15.0533
9019 2 20.0378 53.2581 13.7822
9970 2 0.939866 54.8341 13.7918
3602 1 2.76044 54.8323 15.0706
9677 2 6.3961 54.8341 13.7918
3317 1 8.21668 54.8323 15.0706
9365 2 11.8523 54.8341 13.7918
2970 1 13.6729 54.8323 15.0706
9010 2 17.3086 54.8341 13.7918
2636 1 19.1292 54.8323 15.0706
9936 2 0.937014 57.9854 13.8186
3601 1 2.75716 57.9818 15.0984
3847 1 0.0307619 56.4072 15.0833
9972 2 3.66664 56.4099 13.804
3600 1 5.487 56.4072 15.0833
9675 2 9.12288 56.4099 13.804
9676 2 6.39325 57.9854 13.8186
3286 1 8.2134 57.9818 15.0984
9342 2 11.8495 57.9854 13.8186
3319 1 10.9432 56.4072 15.0833
9367 2 14.5791 56.4099 13.804
2969 1 13.6696 57.9818 15.0984
9009 2 17.3057 57.9854 13.8186
2968 1 16.3995 56.4072 15.0833
9008 2 20.0354 56.4099 13.804
2629 1 19.1259 57.9818 15.0984
9935 2 0.933688 61.1354 13.8543
3563 1 2.75343 61.1301 15.1357
3818 1 0.0272103 59.5562 15.116
9934 2 3.66351 59.5605 13.8354
3603 1 5.48345 59.5562 15.116
9639 2 6.38993 61.1354 13.8543
9678 2 9.11975 59.5605 13.8354
3285 1 8.20967 61.1301 15.1357
9341 2 11.8462 61.1354 13.8543
3284 1 10.9397 59.5562 15.116
9340 2 14.576 59.5605 13.8354
2946 1 13.6659 61.1301 15.1357
8994 2 17.3024 61.1354 13.8543
2971 1 16.3959 59.5562 15.116
9011 2 20.0322 59.5605 13.8354
2628 1 19.1221 61.1301 15.1357
9900 2 0.930098 64.2839 13.8975
3562 1 2.74948 64.277 15.1806
3819 1 0.0233583 62.7037 15.1573
9937 2 3.66004 62.7098 13.8751
3561 1 5.4796 62.7037 15.1573
9637 2 9.11628 62.7098 13.8751
9638 2 6.38634 64.2839 13.8975
3246 1 8.20572 64.277 15.1806
9310 2 11.8426 64.2839 13.8975
3287 1 10.9358 62.7037 15.1573
9343 2 14.5725 62.7098 13.8751
2945 1 13.662 64.277 15.1806
8993 2 17.2988 64.2839 13.8975
2944 1 16.3921 62.7037 15.1573
8992 2 20.0288 62.7098 13.8751
2613 1 19.1182 64.277 15.1806
9899 2 0.926306 67.431 13.9464
3523 1 2.74536 67.4224 15.2312
3790 1 0.0193284 65.8499 15.2053
9898 2 3.65635 65.8576 13.9214
3564 1 5.47557 65.8499 15.2053
9594 2 6.38254 67.431 13.9464
9640 2 9.11258 65.8576 13.9214
3245 1 8.2016 67.4224 15.2312
9309 2 11.8388 67.431 13.9464
3244 1 10.9318 65.8499 15.2053
9308 2 14.5688 65.8576 13.9214
2914 1 13.6578 67.4224 15.2312
8970 2 17.295 67.431 13.9464
2947 1 16.388 65.8499 15.2053
8995 2 20.0251 65.8576 13.9214
2612 1 19.1141 67.4224 15.2312
9864 2 0.922323 70.577 13.999
3522 1 2.74106 70.5669 15.2853
3791 1 0.0151135 68.9948 15.2579
9901 2 3.65246 69.0041 13.9724
3521 1 5.47135 68.9948 15.2579
9592 2 9.1087 69.0041 13.9724
9593 2 6.37856 70.577 13.999
3199 1 8.1973 70.5669 15.2853
9270 2 11.8348 70.577 13.999
3247 1 10.9276 68.9948 15.2579
9311 2 14.5649 69.0041 13.9724
2913 1 13.6535 70.5669 15.2853
8969 2 17.291 70.577 13.999
2912 1 16.3838 68.9948 15.2579
8968 2 20.0212 69.0041 13.9724
2589 1 19.1098 70.5669 15.2853
9863 2 0.918196 73.7224 14.0533
3484 1 2.73662 73.711 15.3408
3762 1 0.0107273 72.139 15.313
9862 2 3.64839 72.1497 14.026
3524 1 5.46697 72.139 15.313
9548 2 6.37443 73.7224 14.0533
9595 2 9.10463 72.1497 14.026
3198 1 8.19286 73.711 15.3408
9269 2 11.8307 73.7224 14.0533
3197 1 10.9232 72.139 15.313
9268 2 14.5609 72.1497 14.026
2874 1 13.6491 73.711 15.3408
8938 2 17.2869 73.7224 14.0533
2915 1 16.3794 72.139 15.313
8971 2 20.0171 72.1497 14.026
2588 1 19.1053 73.711 15.3408
3763 1 0.00627051 75.2832 15.3686
9832 2 0.914032 76.8679 14.1078
3483 1 2.73218 76.8555 15.3961
9865 2 3.64423 75.2951 14.0806
3482 1 5.46251 75.2832 15.3686
9546 2 9.10047 75.2951 14.0806
9547 2 6.37027 76.8679 14.1078
3152 1 8.18842 76.8555 15.3961
3200 1 10.9187 75.2832 15.3686
9223 2 11.8265 76.8679 14.1078
9271 2 14.5567 75.2951 14.0806
2873 1 13.6447 76.8555 15.3961
2872 1 16.375 75.2832 15.3686
8937 2 17.2827 76.8679 14.1078
8936 2 20.0129 75.2951 14.0806
2557 1 19.1009 76.8555 15.3961
3738 1 0.00190333 78.428 15.4233
9830 2 3.6401 78.4408 14.1347
3485 1 5.45814 78.428 15.4233
9549 2 9.09634 78.4408 14.1347
3150 1 10.9144 78.428 15.4233
9221 2 14.5526 78.4408 14.1347
2875 1 16.3706 78.428 15.4233
8939 2 20.0088 78.4408 14.1347
9831 2 0.909975 80.0139 14.1612
3452 1 2.72792 80.0009 15.45
3739 1 -0.00221633 81.574 15.4761
9833 2 3.63615 81.5872 14.1872
3450 1 5.45402 81.574 15.4761
9506 2 9.09239 81.5872 14.1872
9508 2 6.36621 80.0139 14.1612
3151 1 8.18416 80.0009 15.45
9222 2 11.8225 80.0139 14.1612
3153 1 10.9103 81.574 15.4761
9224 2 14.5486 81.5872 14.1872
2828 1 13.6404 80.0009 15.45
8899 2 17.2787 80.0139 14.1612
2826 1 16.3665 81.574 15.4761
8897 2 20.0049 81.5872 14.1872
2556 1 19.0966 80.0009 15.45
9808 2 0.906154 83.1607 14.2126
3451 1 2.72397 83.1475 15.5015
3722 1 -0.00597506 84.7213 15.5263
9806 2 3.63248 84.7345 14.2373
3453 1 5.45026 84.7213 15.5263
9507 2 6.36239 83.1607 14.2126
9509 2 9.08872 84.7345 14.2373
3112 1 8.18021 83.1475 15.5015
9176 2 11.8186 83.1607 14.2126
3110 1 10.9065 84.7213 15.5263
9174 2 14.545 84.7345 14.2373
2827 1 13.6365 83.1475 15.5015
8898 2 17.2749 83.1607 14.2126
2829 1 16.3627 84.7213 15.5263
8900 2 20.0012 84.7345 14.2373
2521 1 19.0927 83.1475 15.5015
9807 2 0.902659 86.3086 14.2613
3428 1 2.72042 86.2955 15.5502
9809 2 3.62917 87.883 14.2844
3426 1 5.44692 87.8701 15.5733
9474 2 9.08541 87.883 14.2844
9476 2 6.3589 86.3086 14.2613
3111 1 8.17666 86.2955 15.5502
9175 2 11.8151 86.3086 14.2613
3113 1 10.9032 87.8701 15.5733
9177 2 14.5416 87.883 14.2844
2783 1 13.6329 86.2955 15.5502
8859 2 17.2714 86.3086 14.2613
2781 1 16.3594 87.8701 15.5733
3723 1 21.8156 87.8701 15.5733
8857 2 19.9979 87.883 14.2844
2520 1 19.0891 86.2955 15.5502
9792 2 0.89954 89.4576 14.3068
3427 1 2.7173 89.445 15.5956
9790 2 3.62624 91.0325 14.3283
3429 1 5.44402 91.0202 15.617
9475 2 6.35578 89.4576 14.3068
9477 2 9.08248 91.0325 14.3283
3080 1 8.17354 89.445 15.5956
9136 2 11.812 89.4576 14.3068
3078 1 10.9003 91.0202 15.617
9134 2 14.5387 91.0325 14.3283
2782 1 13.6298 89.445 15.5956
8858 2 17.2683 89.4576 14.3068
2784 1 16.3565 91.0202 15.617
3714 1 21.8127 91.0202 15.617
8860 2 19.995 91.0325 14.3283
2485 1 19.086 89.445 15.5956
9791 2 0.896806 92.6076 14.3488
3412 1 2.7146 92.5958 15.6374
9793 2 3.6237 94.1829 14.3685
3410 1 5.44152 94.1716 15.657
9450 2 9.07994 94.1829 14.3685
9452 2 6.35304 92.6076 14.3488
3079 1 8.17084 92.5958 15.6374
9135 2 11.8093 92.6076 14.3488
3081 1 10.8978 94.1716 15.657
9137 2 14.5362 94.1829 14.3685
2745 1 13.6271 92.5958 15.6374
8820 2 17.2655 92.6076 14.3488
2743 1 16.354 94.1716 15.657
3715 1 21.8102 94.1716 15.657
8818 2 19.9924 94.1829 14.3685
2484 1 19.0833 92.5958 15.6374
9784 2 0.894448 95.7585 14.3873
3411 1 2.7123 95.7476 15.6756
9782 2 3.62152 97.3343 14.4051
3413 1 5.43941 97.3239 15.6933
9451 2 6.35069 95.7585 14.3873
9453 2 9.07776 97.3343 14.4051
3056 1 8.16854 95.7476 15.6756
9104 2 11.8069 95.7585 14.3873
3054 1 10.8957 97.3239 15.6933
9102 2 14.534 97.3343 14.4051
2744 1 13.6248 95.7476 15.6756
8819 2 17.2632 95.7585 14.3873
2746 1 16.3519 97.3239 15.6933
3713 1 21.8081 97.3239 15.6933
8821 2 19.9902 97.3343 14.4051
2450 1 19.081 95.7476 15.6756
9783 2 0.892441 98.9102 14.4219
3401 1 2.71037 98.9005 15.71
5681 1 5.43765 100.477 15.7258
12177 2 3.61968 100.486 14.4378
9433 2 6.34868 98.9102 14.4219
3055 1 8.16661 98.9005 15.71
11882 2 9.07592 100.486 14.4378
9103 2 11.8049 98.9102 14.4219
5392 1 10.8939 100.477 15.7258
2712 1 13.6228 98.9005 15.71
11560 2 14.5322 100.486 14.4378
8785 2 17.2612 98.9102 14.4219
5033 1 16.3501 100.477 15.7258
5922 1 21.8064 100.477 15.7258
2449 1 19.0791 98.9005 15.71
11193 2 19.9884 100.486 14.4378
3598 1 0.949302 51.681 17.6154
9968 2 1.85477 53.2553 16.3455
9673 2 4.58413 51.6813 16.3381
3596 1 3.67592 53.2541 17.6232
3314 1 6.40554 51.681 17.6154
9671 2 7.31101 53.2553 16.3455
3315 1 9.13216 53.2541 17.6232
9362 2 10.0404 51.6813 16.3381
2966 1 11.8618 51.681 17.6154
9006 2 15.4966 51.6813 16.3381
9363 2 12.7672 53.2553 16.3455
2964 1 14.5884 53.2541 17.6232
2634 1 17.318 51.681 17.6154
9004 2 18.2235 53.2553 16.3455
8704 2 20.9528 51.6813 16.3381
2635 1 20.0446 53.2541 17.6232
3597 1 0.945904 54.8271 17.6339
9672 2 4.5813 54.8293 16.3557
3282 1 6.40214 54.8271 17.6339
9338 2 10.0375 54.8293 16.3557
2965 1 11.8584 54.8271 17.6339
9005 2 15.4938 54.8293 16.3557
2626 1 17.3146 54.8271 17.6339
8703 2 20.95 54.8293 16.3557
9932 2 1.85134 56.4031 16.3687
3559 1 0.941381 57.9726 17.6637
9635 2 4.57744 57.9766 16.3842
3599 1 3.67185 56.3999 17.6475
9674 2 7.30758 56.4031 16.3687
3280 1 9.12809 56.3999 17.6475
3281 1 6.39762 57.9726 17.6637
9337 2 10.0337 57.9766 16.3842
2942 1 11.8539 57.9726 17.6637
8990 2 15.4899 57.9766 16.3842
9336 2 12.7638 56.4031 16.3687
2967 1 14.5843 56.3999 17.6475
9007 2 18.2201 56.4031 16.3687
2625 1 17.3101 57.9726 17.6637
8702 2 20.9462 57.9766 16.3842
2624 1 20.0406 56.3999 17.6475
9933 2 1.84718 59.5498 16.4021
3558 1 0.936481 61.1169 17.7036
9634 2 4.5731 61.1227 16.4222
3557 1 3.66707 59.5449 17.6825
9633 2 7.30342 59.5498 16.4021
3242 1 6.39272 61.1169 17.7036
3283 1 9.12331 59.5449 17.6825
9306 2 10.0293 61.1227 16.4222
2941 1 11.849 61.1169 17.7036
8989 2 15.4856 61.1227 16.4222
9339 2 12.7597 59.5498 16.4021
2940 1 14.5795 59.5449 17.6825
8988 2 18.2159 59.5498 16.4021
2610 1 17.3052 61.1169 17.7036
8695 2 20.9418 61.1227 16.4222
2627 1 20.0358 59.5449 17.6825
9896 2 1.84274 62.6953 16.4442
3519 1 0.93152 64.26 17.7514
9590 2 4.5686 64.2675 16.4679
3560 1 3.66212 62.6886 17.7266
9636 2 7.29898 62.6953 16.4442
3240 1 9.11836 62.6886 17.7266
3241 1 6.38776 64.26 17.7514
9305 2 10.0248 64.2675 16.4679
2910 1 11.844 64.26 17.7514
8966 2 15.4811 64.2675 16.4679
9304 2 12.7552 62.6953 16.4442
2943 1 14.5746 62.6886 17.7266
8991 2 18.2115 62.6953 16.4442
2609 1 17.3002 64.26 17.7514
8694 2 20.9373 64.2675 16.4679
2608 1 20.0308 62.6886 17.7266
9897 2 1.83819 65.8395 16.493
3518 1 0.926498 67.4018 17.8048
9589 2 4.56399 67.4111 16.5192
3517 1 3.65714 65.831 17.7776
9588 2 7.29443 65.8395 16.493
3195 1 6.38274 67.4018 17.8048
3243 1 9.11338 65.831 17.7776
9266 2 10.0202 67.4111 16.5192
2909 1 11.839 67.4018 17.8048
8965 2 15.4765 67.4111 16.5192
9307 2 12.7507 65.8395 16.493
2908 1 14.5696 65.831 17.7776
8964 2 18.2069 65.8395 16.493
2586 1 17.2952 67.4018 17.8048
8679 2 20.9327 67.4111 16.5192
2611 1 20.0259 65.831 17.7776
9860 2 1.83352 68.9827 16.5462
3480 1 0.921384 70.5431 17.8611
9544 2 4.55927 70.5541 16.5738
3520 1 3.65207 68.9725 17.8327
9591 2 7.28976 68.9827 16.5462
3193 1 9.10831 68.9725 17.8327
3194 1 6.37762 70.5431 17.8611
9265 2 10.0155 70.5541 16.5738
2870 1 11.8339 70.5431 17.8611
8934 2 15.4717 70.5541 16.5738
9264 2 12.746 68.9827 16.5462
2911 1 14.5645 68.9725 17.8327
8967 2 18.2022 68.9827 16.5462
2585 1 17.2901 70.5431 17.8611
8678 2 20.928 70.5541 16.5738
2584 1 20.0208 68.9725 17.8327
9861 2 1.82877 72.1256 16.6016
3479 1 0.916275 73.6847 17.918
9543 2 4.55451 73.6972 16.6295
3478 1 3.64694 72.1138 17.8896
9542 2 7.285 72.1256 16.6016
3148 1 6.37251 73.6847 17.918
3196 1 9.10318 72.1138 17.8896
9219 2 10.0107 73.6972 16.6295
2869 1 11.8288 73.6847 17.918
8933 2 15.467 73.6972 16.6295
9267 2 12.7412 72.1256 16.6016
2868 1 14.5594 72.1138 17.8896
8932 2 18.1975 72.1256 16.6016
2554 1 17.285 73.6847 17.918
8655 2 20.9232 73.6972 16.6295
2587 1 20.0157 72.1138 17.8896
9828 2 1.82404 75.269 16.6573
3448 1 0.911368 76.8276 17.974
3481 1 3.6419 75.256 17.9462
9504 2 4.54987 76.841 16.6847
9545 2 7.28028 75.269 16.6573
3146 1 9.09814 75.256 17.9462
3147 1 6.36761 76.8276 17.974
9218 2 10.0061 76.841 16.6847
2824 1 11.8238 76.8276 17.974
9217 2 12.7365 75.269 16.6573
2871 1 14.5544 75.256 17.9462
8895 2 15.4623 76.841 16.6847
8935 2 18.1928 75.269 16.6573
2553 1 17.2801 76.8276 17.974
2552 1 20.0106 75.256 17.9462
8654 2 20.9186 76.841 16.6847
9829 2 1.81953 78.4135 16.7118
3446 1 3.63717 78.3997 18.0012
9502 2 7.27577 78.4135 16.7118
3149 1 9.09341 78.3997 18.0012
9220 2 12.732 78.4135 16.7118
2822 1 14.5496 78.3997 18.0012
8893 2 18.1882 78.4135 16.7118
2555 1 20.0059 78.3997 18.0012
9804 2 1.81537 81.5595 16.7641
3447 1 0.90685 79.9724 18.0278
9503 2 4.54551 79.9863 16.7383
3449 1 3.6329 81.5455 18.0537
9505 2 7.27161 81.5595 16.7641
3106 1 9.08913 81.5455 18.0537
3108 1 6.36309 79.9724 18.0278
9172 2 10.0018 79.9863 16.7383
2823 1 11.8193 79.9724 18.0278
8894 2 15.458 79.9863 16.7383
9170 2 12.7278 81.5595 16.7641
2825 1 14.5454 81.5455 18.0537
8896 2 18.1841 81.5595 16.7641
2518 1 17.2756 79.9724 18.0278
8627 2 20.9142 79.9863 16.7383
2516 1 20.0016 81.5455 18.0537
9805 2 1.81165 84.7073 16.8138
3424 1 0.90284 83.1192 18.0788
9472 2 4.54157 83.1332 16.7893
3422 1 3.62916 84.6934 18.1032
9470 2 7.26789 84.7073 16.8138
3107 1 6.35908 83.1192 18.0788
3109 1 9.0854 84.6934 18.1032
9171 2 9.99781 83.1332 16.7893
2779 1 11.8153 83.1192 18.0788
8855 2 15.454 83.1332 16.7893
9173 2 12.7241 84.7073 16.8138
2777 1 14.5416 84.6934 18.1032
8853 2 18.1804 84.7073 16.8138
2517 1 17.2716 83.1192 18.0788
8626 2 20.9103 83.1332 16.7893
2519 1 19.9979 84.6934 18.1032
9788 2 1.80842 87.8567 16.8603
3423 1 0.89938 86.2681 18.1267
9471 2 4.53809 86.2818 16.8374
3425 1 3.62597 87.8434 18.1494
9473 2 7.26465 87.8567 16.8603
3074 1 9.08221 87.8434 18.1494
3076 1 6.35562 86.2681 18.1267
9132 2 9.99433 86.2818 16.8374
2778 1 11.8119 86.2681 18.1267
8854 2 15.4506 86.2818 16.8374
9130 2 12.7209 87.8567 16.8603
2780 1 14.5384 87.8434 18.1494
8856 2 18.1771 87.8567 16.8603
2482 1 17.2681 86.2681 18.1267
8599 2 20.9068 86.2818 16.8374
2480 1 19.9947 87.8434 18.1494
9789 2 1.80565 91.0077 16.9034
3408 1 0.896452 89.4191 18.1712
9448 2 4.53509 89.432 16.8823
3406 1 3.62329 90.9952 18.1922
9446 2 7.26188 91.0077 16.9034
3075 1 6.35269 89.4191 18.1712
3077 1 9.07953 90.9952 18.1922
9131 2 9.99133 89.432 16.8823
2741 1 11.8089 89.4191 18.1712
8816 2 15.4476 89.432 16.8823
9133 2 12.7181 91.0077 16.9034
2739 1 14.5358 90.9952 18.1922
8814 2 18.1744 91.0077 16.9034
2481 1 17.2652 89.4191 18.1712
8598 2 20.9038 89.432 16.8823
2483 1 19.992 90.9952 18.1922
9780 2 1.8033 94.1601 16.9429
3407 1 0.894006 92.5717 18.2122
9447 2 4.53254 92.5838 16.9236
3409 1 3.62107 94.1485 18.2314
9449 2 7.25954 94.1601 16.9429
3050 1 9.0773 94.1485 18.2314
3052 1 6.35024 92.5717 18.2122
9100 2 9.98878 92.5838 16.9236
2740 1 11.8065 92.5717 18.2122
8815 2 15.445 92.5838 16.9236
9098 2 12.7158 94.1601 16.9429
2742 1 14.5335 94.1485 18.2314
8817 2 18.172 94.1601 16.9429
2447 1 17.2627 92.5717 18.2122
8571 2 20.9013 92.5838 16.9236
2445 1 19.9898 94.1485 18.2314
9781 2 1.80135 97.3137 16.9788
3400 1 0.891983 95.7257 18.2496
9432 2 4.5304 95.7368 16.9613
3398 1 3.61923 97.3032 18.2669
9430 2 7.25758 97.3137 16.9788
3051 1 6.34822 95.7257 18.2496
3053 1 9.07547 97.3032 18.2669
9099 2 9.98664 95.7368 16.9613
2711 1 11.8045 95.7257 18.2496
8784 2 15.4429 95.7368 16.9613
9101 2 12.7138 97.3137 16.9788
2709 1 14.5317 97.3032 18.2669
8782 2 18.1701 97.3137 16.9788
2446 1 17.2607 95.7257 18.2496
8570 2 20.8991 95.7368 16.9613
2448 1 19.9879 97.3032 18.2669
3399 1 0.890323 98.881 18.2833
12143 2 1.79973 100.468 17.0109
9431 2 4.52862 98.8908 16.9953
5680 1 3.61773 100.459 18.2988
3033 1 6.34656 98.881 18.2833
11881 2 7.25596 100.468 17.0109
5361 1 9.07397 100.459 18.2988
9073 2 9.98485 98.8908 16.9953
2710 1 11.8028 98.881 18.2833
8783 2 15.4411 98.8908 16.9953
11537 2 12.7122 100.468 17.0109
5032 1 14.5302 100.459 18.2988
2416 1 17.259 98.881 18.2833
11192 2 18.1684 100.468 17.0109
8543 2 20.8973 98.8908 16.9953
4681 1 19.9864 100.459 18.2988
9669 2 2.77114 51.6797 18.9002
9627 2 0.959377 51.6767 21.462
3595 1 1.86285 53.2495 20.1851
9930 2 0.0412306 53.2514 18.9081
3278 1 4.59318 51.679 20.1768
9670 2 5.49747 53.2514 18.9081
9625 2 3.68487 53.2453 21.4704
9334 2 8.22737 51.6797 18.9002
9330 2 6.41562 51.6767 21.462
3276 1 7.31909 53.2495 20.1851
9331 2 9.14111 53.2453 21.4704
2962 1 10.0494 51.679 20.1768
8982 2 11.8719 51.6767 21.462
9332 2 10.9537 53.2514 18.9081
2622 1 15.5057 51.679 20.1768
9002 2 13.6836 51.6797 18.9002
2963 1 12.7753 53.2495 20.1851
8980 2 14.5973 53.2453 21.4704
8698 2 17.3281 51.6767 21.462
2620 1 18.2316 53.2495 20.1851
9003 2 16.4099 53.2514 18.9081
2352 1 20.9619 51.679 20.1768
8701 2 19.1399 51.6797 18.9002
8699 2 20.0536 53.2453 21.4704
9631 2 2.7671 54.823 18.9191
9626 2 0.9535 54.8141 21.482
3277 1 4.58822 54.82 20.1966
9333 2 8.22333 54.823 18.9191
9298 2 6.40974 54.8141 21.482
2938 1 10.0445 54.82 20.1966
8981 2 11.866 54.8141 21.482
2621 1 15.5007 54.82 20.1966
8986 2 13.6796 54.823 18.9191
8690 2 17.3222 54.8141 21.482
2351 1 20.9569 54.82 20.1966
8700 2 19.1358 54.823 18.9191
3555 1 1.85703 56.3904 20.2112
9630 2 2.76177 57.9658 18.9495
9931 2 0.0364047 56.3944 18.9329
9582 2 0.946104 57.9518 21.5146
3238 1 4.58192 57.9608 20.2287
9629 2 5.49264 56.3944 18.9329
9628 2 3.678 56.383 21.4968
3279 1 7.31326 56.3904 20.2112
9302 2 8.218 57.9658 18.9495
9297 2 6.40234 57.9518 21.5146
9296 2 9.13424 56.383 21.4968
2937 1 10.0382 57.9608 20.2287
9335 2 10.9489 56.3944 18.9329
8958 2 11.8586 57.9518 21.5146
2606 1 15.4944 57.9608 20.2287
2936 1 12.7695 56.3904 20.2112
8985 2 13.6742 57.9658 18.9495
8983 2 14.5905 56.383 21.4968
2623 1 18.2257 56.3904 20.2112
8984 2 16.4051 56.3944 18.9329
8689 2 17.3148 57.9518 21.5146
2350 1 20.9506 57.9608 20.2287
8693 2 19.1305 57.9658 18.9495
8688 2 20.0467 56.383 21.4968
3556 1 1.85056 59.531 20.2489
9586 2 2.75607 61.1077 18.9902
9894 2 0.0308091 59.5369 18.9687
9581 2 0.938639 61.089 21.5586
3237 1 4.57547 61.1009 20.2716
9632 2 5.48705 59.5369 18.9687
9580 2 3.67045 59.5205 21.5353
3236 1 7.3068 59.531 20.2489
9301 2 8.21231 61.1077 18.9902
9258 2 6.39488 61.089 21.5586
9299 2 9.12669 59.5205 21.5353
2906 1 10.0317 61.1009 20.2716
9300 2 10.9433 59.5369 18.9687
8957 2 11.8511 61.089 21.5586
2605 1 15.488 61.1009 20.2716
2939 1 12.763 59.531 20.2489
8962 2 13.6686 61.1077 18.9902
8956 2 14.5829 59.5205 21.5353
2604 1 18.2193 59.531 20.2489
8987 2 16.3995 59.5369 18.9687
8674 2 17.3074 61.089 21.5586
2343 1 20.9442 61.1009 20.2716
8692 2 19.1248 61.1077 18.9902
8691 2 20.0392 59.5205 21.5353
3515 1 1.84421 62.6704 20.2965
9585 2 2.75042 64.2484 19.039
9895 2 0.0251167 62.6782 19.0138
9536 2 0.931547 64.2252 21.6112
3191 1 4.56924 64.2397 20.3231
9584 2 5.48136 62.6782 19.0138
9583 2 3.66317 62.6572 21.584
3239 1 7.30045 62.6704 20.2965
9262 2 8.20665 64.2484 19.039
9256 2 9.11941 62.6572 21.584
9257 2 6.38779 64.2252 21.6112
2905 1 10.0255 64.2397 20.3231
9303 2 10.9376 62.6782 19.0138
8926 2 11.844 64.2252 21.6112
2582 1 15.4817 64.2397 20.3231
2904 1 12.7567 62.6704 20.2965
8961 2 13.6629 64.2484 19.039
8959 2 14.5756 62.6572 21.584
2607 1 18.2129 62.6704 20.2965
8960 2 16.3938 62.6782 19.0138
8673 2 17.3003 64.2252 21.6112
2342 1 20.938 64.2397 20.3231
8677 2 19.1191 64.2484 19.039
8672 2 20.0319 62.6572 21.584
3516 1 1.83806 65.8087 20.351
9540 2 2.7448 67.3883 19.0933
9858 2 0.0194871 65.8184 19.0657
9535 2 0.924727 67.361 21.6688
3190 1 4.56312 67.3775 20.3798
9587 2 5.47573 65.8184 19.0657
9534 2 3.65623 65.7931 21.6396
3189 1 7.29429 65.8087 20.351
9261 2 8.20104 67.3883 19.0933
9211 2 6.38097 67.361 21.6688
9259 2 9.11247 65.7931 21.6396
2866 1 10.0194 67.3775 20.3798
9260 2 10.932 65.8184 19.0657
8925 2 11.8372 67.361 21.6688
2581 1 15.4756 67.3775 20.3798
2907 1 12.7505 65.8087 20.351
8930 2 13.6573 67.3883 19.0933
8924 2 14.5687 65.7931 21.6396
2580 1 18.2068 65.8087 20.351
8963 2 16.3882 65.8184 19.0657
8650 2 17.2934 67.361 21.6688
2327 1 20.9318 67.3775 20.3798
8676 2 19.1135 67.3883 19.0933
8675 2 20.0249 65.7931 21.6396
3476 1 1.83196 68.9464 20.4091
9539 2 2.73921 70.5281 19.1501
9859 2 0.0138792 68.9582 19.1215
9496 2 0.918162 70.4976 21.728
3144 1 4.55707 70.5154 20.4385
9538 2 5.47012 68.9582 19.1215
9537 2 3.64952 68.9291 21.6984
3192 1 7.2882 68.9464 20.4091
9215 2 8.19545 70.5281 19.1501
9209 2 9.10576 68.9291 21.6984
9210 2 6.3744 70.4976 21.728
2865 1 10.0133 70.5154 20.4385
9263 2 10.9264 68.9582 19.1215
8887 2 11.8306 70.4976 21.728
2550 1 15.4695 70.5154 20.4385
2864 1 12.7444 68.9464 20.4091
8929 2 13.6517 70.5281 19.1501
8927 2 14.562 68.9291 21.6984
2583 1 18.2007 68.9464 20.4091
8928 2 16.3826 68.9582 19.1215
8649 2 17.2869 70.4976 21.728
2326 1 20.9258 70.5154 20.4385
8653 2 19.1079 70.5281 19.1501
8648 2 20.0182 68.9291 21.6984
3477 1 1.826 72.0849 20.4678
9500 2 2.73378 73.6689 19.2071
9826 2 0.00834307 72.0983 19.1787
9495 2 0.912072 73.6365 21.7862
3143 1 4.55127 73.6548 20.4968
9541 2 5.46458 72.0983 19.1787
9494 2 3.64316 72.0667 21.7573
3142 1 7.28224 72.0849 20.4678
9214 2 8.19001 73.6689 19.2071
9164 2 6.36831 73.6365 21.7862
9212 2 9.0994 72.0667 21.7573
2820 1 10.0075 73.6548 20.4968
9213 2 10.9208 72.0983 19.1787
8886 2 11.8245 73.6365 21.7862
2549 1 15.4637 73.6548 20.4968
2867 1 12.7385 72.0849 20.4678
8891 2 13.6463 73.6689 19.2071
8885 2 14.5556 72.0667 21.7573
2548 1 18.1947 72.0849 20.4678
8931 2 16.3771 72.0983 19.1787
8622 2 17.2808 73.6365 21.7862
2304 1 20.92 73.6548 20.4968
8652 2 19.1025 73.6689 19.2071
8651 2 20.0119 72.0667 21.7573
3444 1 1.82042 75.2253 20.5252
9827 2 0.00306317 75.24 19.2352
9499 2 2.7287 76.8115 19.2628
9498 2 5.4593 75.24 19.2352
3104 1 4.54596 76.7965 20.553
3145 1 7.27666 75.2253 20.5252
9168 2 8.18494 76.8115 19.2628
9216 2 10.9155 75.24 19.2352
2819 1 10.0022 76.7965 20.553
2818 1 12.7329 75.2253 20.5252
2514 1 15.4584 76.7965 20.553
8890 2 13.6412 76.8115 19.2628
2551 1 18.1891 75.2253 20.5252
8889 2 16.3718 75.24 19.2352
2303 1 20.9147 76.7965 20.553
8625 2 19.0974 76.8115 19.2628
3445 1 1.81544 78.3685 20.58
9802 2 -0.00175702 78.3837 19.2899
9501 2 5.45448 78.3837 19.2899
3102 1 7.27168 78.3685 20.58
9166 2 10.9107 78.3837 19.2899
2821 1 12.7279 78.3685 20.58
2512 1 18.1842 78.3685 20.58
8892 2 16.367 78.3837 19.2899
3420 1 1.81119 81.5147 20.6319
9468 2 2.72417 79.9565 19.3162
9803 2 -0.00598867 81.5299 19.3418
3103 1 4.54134 79.9412 20.6064
9466 2 5.45025 81.5299 19.3418
3105 1 7.26743 81.5147 20.6319
9167 2 8.18041 79.9565 19.3162
2775 1 9.99758 79.9412 20.6064
9169 2 10.9065 81.5299 19.3418
2513 1 15.4538 79.9412 20.6064
2773 1 12.7237 81.5147 20.6319
8851 2 13.6366 79.9565 19.3162
2515 1 18.1799 81.5147 20.6319
8849 2 16.3627 81.5299 19.3418
2280 1 20.9101 79.9412 20.6064
8624 2 19.0929 79.9565 19.3162
3421 1 1.80766 84.6637 20.6804
9467 2 2.72025 83.1039 19.3666
3072 1 4.53745 83.0888 20.6565
9469 2 5.44664 84.6785 19.3907
3070 1 7.2639 84.6637 20.6804
9128 2 8.17649 83.1039 19.3666
2774 1 9.99369 83.0888 20.6565
9126 2 10.9029 84.6785 19.3907
2478 1 15.4499 83.0888 20.6565
2776 1 12.7201 84.6637 20.6804
8850 2 13.6327 83.1039 19.3666
2476 1 18.1764 84.6637 20.6804
8852 2 16.3591 84.6785 19.3907
9786 2 21.8154 84.6785 19.3907
2279 1 20.9062 83.0888 20.6565
8597 2 19.089 83.1039 19.3666
3404 1 1.80478 87.8153 20.7255
9444 2 2.71695 86.2537 19.4139
3071 1 4.53426 86.2392 20.7034
9442 2 5.44363 87.8294 19.4362
3073 1 7.26102 87.8153 20.7255
9127 2 8.17319 86.2537 19.4139
2737 1 9.9905 86.2392 20.7034
9129 2 10.8999 87.8294 19.4362
2477 1 15.4467 86.2392 20.7034
2735 1 12.7173 87.8153 20.7255
8812 2 13.6294 86.2537 19.4139
2479 1 18.1735 87.8153 20.7255
8810 2 16.3561 87.8294 19.4362
9787 2 21.8123 87.8294 19.4362
2256 1 20.903 86.2392 20.7034
8596 2 19.0857 86.2537 19.4139
3405 1 1.80247 90.9692 20.7672
9443 2 2.71421 89.4056 19.4578
3048 1 4.53168 89.392 20.7468
9445 2 5.44115 90.9822 19.4784
3046 1 7.25871 90.9692 20.7672
9096 2 8.17045 89.4056 19.4578
2736 1 9.98792 89.392 20.7468
9094 2 10.8974 90.9822 19.4784
2443 1 15.4442 89.392 20.7468
2738 1 12.715 90.9692 20.7672
8811 2 13.6267 89.4056 19.4578
2441 1 18.1712 90.9692 20.7672
8813 2 16.3536 90.9822 19.4784
9778 2 21.8099 90.9822 19.4784
2255 1 20.9004 89.392 20.7468
8569 2 19.0829 89.4056 19.4578
3396 1 1.80063 94.1249 20.8054
9428 2 2.71197 92.5593 19.4982
3047 1 4.52962 92.5469 20.7867
9426 2 5.43913 94.1368 19.5171
3049 1 7.25687 94.1249 20.8054
9095 2 8.16821 92.5593 19.4982
2707 1 9.98586 92.5469 20.7867
9097 2 10.8954 94.1368 19.5171
2442 1 15.4421 92.5469 20.7867
2705 1 12.7131 94.1249 20.8054
8780 2 13.6244 92.5593 19.4982
2444 1 18.1693 94.1249 20.8054
8778 2 16.3516 94.1368 19.5171
9779 2 21.8078 94.1368 19.5171
2232 1 20.8983 92.5469 20.7867
8568 2 19.0807 92.5593 19.4982
3397 1 1.79916 97.2821 20.8401
9427 2 2.71015 95.7146 19.535
3032 1 4.52797 95.7034 20.8232
9429 2 5.43749 97.2928 19.5521
3030 1 7.2554 97.2821 20.8401
9072 2 8.16638 95.7146 19.535
2706 1 9.98421 95.7034 20.8232
9070 2 10.8937 97.2928 19.5521
2415 1 15.4404 95.7034 20.8232
2708 1 12.7116 97.2821 20.8401
8779 2 13.6226 95.7146 19.535
2413 1 18.1679 97.2821 20.8401
8781 2 16.35 97.2928 19.5521
9777 2 21.8062 97.2928 19.5521
2231 1 20.8967 95.7034 20.8232
8542 2 19.0789 95.7146 19.535
9417 2 2.70867 98.8712 19.5683
5642 1 1.798 100.441 20.8712
3031 1 4.52666 98.8612 20.8561
11844 2 5.43616 100.45 19.5835
9071 2 8.16491 98.8712 19.5683
5360 1 7.25424 100.441 20.8712
2682 1 9.9829 98.8612 20.8561
11536 2 10.8924 100.45 19.5835
2414 1 15.4391 98.8612 20.8561
8753 2 13.6211 98.8712 19.5683
5009 1 12.7105 100.441 20.8712
4680 1 18.1667 100.441 20.8712
11177 2 16.3486 100.45 19.5835
12142 2 21.8049 100.45 19.5835
2208 1 20.8954 98.8612 20.8561
8541 2 19.0774 98.8712 19.5683
3274 1 2.78226 51.675 22.7382
9294 2 4.60534 51.6713 24.0243
2934 1 8.2385 51.675 22.7382
8978 2 10.0616 51.6713 24.0243
2618 1 13.6947 51.675 22.7382
8686 2 15.5178 51.6713 24.0243
2349 1 19.151 51.675 22.7382
8480 2 20.9741 51.6713 24.0243
3234 1 2.77491 54.8098 22.7589
3553 1 0.0508127 53.2422 22.7468
9624 2 1.87331 53.2362 24.0327
3275 1 5.50705 53.2422 22.7468
9293 2 4.59669 54.8016 24.0447
2933 1 8.23115 54.8098 22.7589
9292 2 7.32955 53.2362 24.0327
2932 1 10.9633 53.2422 22.7468
8954 2 10.0529 54.8016 24.0447
2602 1 13.6874 54.8098 22.7589
8685 2 15.5092 54.8016 24.0447
8979 2 12.7858 53.2362 24.0327
2619 1 16.4195 53.2422 22.7468
8684 2 18.242 53.2362 24.0327
2348 1 19.1436 54.8098 22.7589
8479 2 20.9654 54.8016 24.0447
3233 1 2.76611 57.9454 22.7932
3554 1 0.0424172 56.3775 22.7744
9578 2 1.86346 56.3674 24.0603
3232 1 5.49866 56.3775 22.7744
9254 2 4.58642 57.9334 24.0795
2902 1 8.22235 57.9454 22.7932
9295 2 7.3197 56.3674 24.0603
2935 1 10.9549 56.3775 22.7744
8953 2 10.0427 57.9334 24.0795
2601 1 13.6786 57.9454 22.7932
8670 2 15.4989 57.9334 24.0795
8952 2 12.7759 56.3674 24.0603
2600 1 16.4111 56.3775 22.7744
8687 2 18.2322 56.3674 24.0603
2341 1 19.1348 57.9454 22.7932
8478 2 20.9551 57.9334 24.0795
3187 1 2.75766 61.0806 22.8401
3513 1 0.033673 59.5131 22.8153
9579 2 1.85331 59.4993 24.102
3235 1 5.48991 59.5131 22.8153
9253 2 4.57669 61.065 24.1274
2901 1 8.2139 61.0806 22.8401
9252 2 7.30955 59.4993 24.102
2900 1 10.9461 59.5131 22.8153
8922 2 10.0329 61.065 24.1274
2578 1 13.6701 61.0806 22.8401
8669 2 15.4892 61.065 24.1274
8955 2 12.7658 59.4993 24.102
2603 1 16.4024 59.5131 22.8153
8668 2 18.222 59.4993 24.102
2340 1 19.1264 61.0806 22.8401
8471 2 20.9454 61.065 24.1274
3186 1 2.74987 64.2145 22.8961
3514 1 0.0255823 62.6477 22.8672
9532 2 1.84407 62.6305 24.1553
3185 1 5.48182 62.6477 22.8672
9207 2 4.56787 64.1959 24.1848
2862 1 8.20611 64.2145 22.8961
9255 2 7.30031 62.6305 24.1553
2903 1 10.9381 62.6477 22.8672
8921 2 10.0241 64.1959 24.1848
2577 1 13.6623 64.2145 22.8961
8646 2 15.4803 64.1959 24.1848
8920 2 12.7565 62.6305 24.1553
2576 1 16.3943 62.6477 22.8672
8671 2 18.2128 62.6305 24.1553
2325 1 19.1186 64.2145 22.8961
8470 2 20.9366 64.1959 24.1848
3140 1 2.74245 67.3478 22.9567
3474 1 0.0180049 65.7811 22.9261
9533 2 1.83557 65.7614 24.2154
3188 1 5.47424 65.7811 22.9261
9206 2 4.55964 67.3272 24.2464
2861 1 8.19869 67.3478 22.9567
9205 2 7.29181 65.7614 24.2154
2860 1 10.9305 65.7811 22.9261
8883 2 10.0159 67.3272 24.2464
2546 1 13.6549 67.3478 22.9567
8645 2 15.4721 67.3272 24.2464
8923 2 12.748 65.7614 24.2154
2579 1 16.3867 65.7811 22.9261
8644 2 18.2043 65.7614 24.2154
2324 1 19.1112 67.3478 22.9567
8456 2 20.9284 67.3272 24.2464
3139 1 2.73537 70.4824 23.0179
3475 1 0.0107309 68.9148 22.9875
9492 2 1.82764 68.8936 24.2773
3138 1 5.46697 68.9148 22.9875
9160 2 4.55207 70.4609 24.3077
2816 1 8.19161 70.4824 23.0179
9208 2 7.28388 68.8936 24.2773
2863 1 10.9232 68.9148 22.9875
8882 2 10.0083 70.4609 24.3077
2545 1 13.6478 70.4824 23.0179
8618 2 15.4646 70.4609 24.3077
8881 2 12.7401 68.8936 24.2773
2544 1 16.3794 68.9148 22.9875
8647 2 18.1964 68.8936 24.2773
2302 1 19.1041 70.4824 23.0179
8455 2 20.9208 70.4609 24.3077
3100 1 2.72895 73.6199 23.077
3442 1 0.0039363 72.0507 23.0478
9493 2 1.82052 72.0292 24.3375
3141 1 5.46017 72.0507 23.0478
9159 2 4.5455 73.5986 24.3665
2815 1 8.18518 73.6199 23.077
9158 2 7.27676 72.0292 24.3375
2814 1 10.9164 72.0507 23.0478
8843 2 10.0017 73.5986 24.3665
2510 1 13.6414 73.6199 23.077
8617 2 15.458 73.5986 24.3665
8884 2 12.733 72.0292 24.3375
2547 1 16.3727 72.0507 23.0478
8616 2 18.1892 72.0292 24.3375
2301 1 19.0977 73.6199 23.077
8440 2 20.9142 73.5986 24.3665
9464 2 0.906706 76.7784 21.842
3443 1 -0.00204901 75.1901 23.1054
9460 2 1.81453 75.1692 24.3946
3099 1 2.72345 76.7613 23.1329
9497 2 3.63741 75.207 21.8144
3098 1 5.45419 75.1901 23.1054
9120 2 4.54011 76.7409 24.4218
9162 2 9.09364 75.207 21.8144
9163 2 6.36294 76.7784 21.842
9161 2 7.27077 75.1692 24.3946
2771 1 8.17969 76.7613 23.1329
8847 2 11.8192 76.7784 21.842
2817 1 10.9104 75.1901 23.1054
8842 2 9.99635 76.7409 24.4218
8888 2 14.5499 75.207 21.8144
8841 2 12.727 75.1692 24.3946
2509 1 13.6359 76.7613 23.1329
8590 2 15.4526 76.7409 24.4218
8621 2 17.2754 76.7784 21.842
2508 1 16.3667 75.1901 23.1054
8619 2 18.1832 75.1692 24.3946
8620 2 20.0061 75.207 21.8144
2278 1 19.0922 76.7613 23.1329
8439 2 20.9088 76.7409 24.4218
9463 2 0.902186 79.9237 21.8947
3418 1 -0.00703699 78.3335 23.1596
9461 2 1.80975 78.3137 24.4481
3068 1 2.71897 79.9068 23.1854
9462 2 3.63246 78.3507 21.8687
3101 1 5.4492 78.3335 23.1596
9119 2 4.5359 79.8876 24.4734
9165 2 9.0887 78.3507 21.8687
9124 2 6.35842 79.9237 21.8947
9118 2 7.26599 78.3137 24.4481
2770 1 8.17521 79.9068 23.1854
8846 2 11.8147 79.9237 21.8947
2769 1 10.9054 78.3335 23.1596
8804 2 9.99214 79.8876 24.4734
8845 2 14.5449 78.3507 21.8687
8844 2 12.7222 78.3137 24.4481
2474 1 13.6314 79.9068 23.1854
8589 2 15.4484 79.8876 24.4734
8594 2 17.2709 79.9237 21.8947
2511 1 16.3617 78.3335 23.1596
8588 2 18.1785 78.3137 24.4481
8623 2 20.0012 78.3507 21.8687
2277 1 19.0877 79.9068 23.1854
8424 2 20.9046 79.8876 24.4734
9436 2 1.80607 81.4624 24.4979
9465 2 3.62836 81.4976 21.9199
3066 1 5.44521 81.4809 23.2103
9122 2 9.0846 81.4976 21.9199
9121 2 7.26231 81.4624 24.4979
2772 1 10.9015 81.4809 23.2103
8848 2 14.5408 81.4976 21.9199
8802 2 12.7185 81.4624 24.4979
2472 1 16.3577 81.4809 23.2103
8591 2 18.1748 81.4624 24.4979
8592 2 19.9971 81.4976 21.9199
3419 1 21.8139 81.4809 23.2103
9440 2 0.898501 83.0723 21.9442
3067 1 2.71544 83.056 23.2343
9437 2 1.80331 84.6149 24.5443
9438 2 3.62506 84.6478 21.9676
3069 1 5.44211 84.6319 23.2575
9088 2 4.53271 83.0382 24.5215
9123 2 6.35474 83.0723 21.9442
9125 2 9.0813 84.6478 21.9676
2733 1 8.17168 83.056 23.2343
9086 2 7.25955 84.6149 24.5443
8808 2 11.811 83.0723 21.9442
2731 1 10.8983 84.6319 23.2575
8803 2 9.98894 83.0382 24.5215
8806 2 14.5375 84.6478 21.9676
2473 1 13.6279 83.056 23.2343
8562 2 15.4452 83.0382 24.5215
8805 2 12.7158 84.6149 24.5443
8593 2 17.2672 83.0723 21.9442
2475 1 16.3546 84.6319 23.2575
8560 2 18.172 84.6149 24.5443
3402 1 21.8108 84.6319 23.2575
8595 2 19.9938 84.6478 21.9676
2254 1 19.0842 83.056 23.2343
8423 2 20.9014 83.0382 24.5215
9439 2 0.895561 86.2239 21.9903
3044 1 2.71272 86.2085 23.2798
9420 2 1.80127 87.7703 24.5874
9441 2 3.62245 87.8006 22.0121
3042 1 5.43973 87.7858 23.3013
9087 2 4.53033 86.1922 24.5662
9090 2 9.07869 87.8006 22.0121
9092 2 6.3518 86.2239 21.9903
2732 1 8.16896 86.2085 23.2798
9089 2 7.25751 87.7703 24.5874
8807 2 11.808 86.2239 21.9903
2734 1 10.896 87.7858 23.3013
8772 2 9.98657 86.1922 24.5662
8809 2 14.5349 87.8006 22.0121
2439 1 13.6252 86.2085 23.2798
8561 2 15.4428 86.1922 24.5662
8770 2 12.7137 87.7703 24.5874
8566 2 17.2643 86.2239 21.9903
2437 1 16.3522 87.7858 23.3013
8563 2 18.17 87.7703 24.5874
3403 1 21.8084 87.7858 23.3013
8564 2 19.9912 87.8006 22.0121
2253 1 19.0814 86.2085 23.2798
8408 2 20.899 86.1922 24.5662
9424 2 0.893245 89.3779 22.033
3043 1 2.71065 89.3637 23.3219
9422 2 3.6204 90.9558 22.0531
3045 1 5.43793 90.9422 23.3417
9064 2 4.52858 89.349 24.6077
9091 2 6.34948 89.3779 22.033
9093 2 9.07664 90.9558 22.0531
2703 1 8.16689 89.3637 23.3219
8776 2 11.8057 89.3779 22.033
2701 1 10.8942 90.9422 23.3417
8771 2 9.98482 89.349 24.6077
8774 2 14.5329 90.9558 22.0531
2438 1 13.6231 89.3637 23.3219
8535 2 15.4411 89.349 24.6077
8565 2 17.262 89.3779 22.033
2440 1 16.3504 90.9422 23.3417
3394 1 21.8066 90.9422 23.3417
8567 2 19.9891 90.9558 22.0531
2230 1 19.0794 89.3637 23.3219
8407 2 20.8973 89.349 24.6077
9423 2 0.891433 92.5341 22.0724
3028 1 2.70909 92.5212 23.3607
3026 1 5.43657 94.1006 23.3789
9425 2 3.6188 94.1129 22.0907
9068 2 6.34767 92.5341 22.0724
2702 1 8.16532 92.5212 23.3607
9066 2 9.07504 94.1129 22.0907
8775 2 11.8039 92.5341 22.0724
2704 1 10.8928 94.1006 23.3789
2411 1 13.6216 92.5212 23.3607
8777 2 14.5313 94.1129 22.0907
8539 2 17.2601 92.5341 22.0724
2409 1 16.349 94.1006 23.3789
3395 1 21.8053 94.1006 23.3789
2229 1 19.0778 92.5212 23.3607
8537 2 19.9875 94.1129 22.0907
3027 1 2.7079 95.6805 23.3962
9416 2 0.89002 95.692 22.1083
3029 1 5.43554 97.2607 23.4126
9414 2 3.61755 97.2715 22.1249
2681 1 8.16414 95.6805 23.3962
9067 2 6.34626 95.692 22.1083
9069 2 9.07379 97.2715 22.1249
2679 1 10.8918 97.2607 23.4126
8752 2 11.8025 95.692 22.1083
2410 1 13.6204 95.6805 23.3962
8750 2 14.53 97.2715 22.1249
2412 1 16.348 97.2607 23.4126
8538 2 17.2587 95.692 22.1083
3393 1 21.8043 97.2607 23.4126
2207 1 19.0766 95.6805 23.3962
8540 2 19.9863 97.2715 22.1249
3017 1 2.70701 98.8412 23.4282
9415 2 0.888918 98.8513 22.1407
5321 1 5.43477 100.422 23.4429
11843 2 3.61658 100.431 22.1556
2680 1 8.16325 98.8412 23.4282
9049 2 6.34516 98.8513 22.1407
11505 2 9.07282 100.431 22.1556
8751 2 11.8014 98.8513 22.1407
5008 1 10.891 100.422 23.4429
2388 1 13.6195 98.8412 23.4282
11176 2 14.5291 100.431 22.1556
8516 2 17.2576 98.8513 22.1407
4665 1 16.3472 100.422 23.4429
5641 1 21.8035 100.422 23.4429
2206 1 19.0757 98.8412 23.4282
10873 2 19.9853 100.431 22.1556
3230 1 0.973123 51.6681 25.3007
9290 2 2.7968 51.6628 26.5878
2930 1 6.42936 51.6681 25.3007
8950 2 8.25303 51.6628 26.5878
2598 1 11.8856 51.6681 25.3007
8682 2 13.7093 51.6628 26.5878
2346 1 17.3418 51.6681 25.3007
8477 2 19.1655 51.6628 26.5878
3229 1 0.962163 54.7951 25.321
9250 2 2.78401 54.7841 26.6071
9576 2 0.0628283 53.2229 26.5954
3228 1 3.69618 53.2312 25.3089
9291 2 5.51907 53.2229 26.5954
2898 1 6.4184 54.7951 25.321
2931 1 9.15242 53.2312 25.3089
8949 2 8.24025 54.7841 26.6071
2597 1 11.8746 54.7951 25.321
8948 2 10.9753 53.2229 26.5954
2596 1 14.6087 53.2312 25.3089
8666 2 13.6965 54.7841 26.6071
2338 1 17.3309 54.7951 25.321
8683 2 16.4315 53.2229 26.5954
2347 1 20.0649 53.2312 25.3089
8476 2 19.1527 54.7841 26.6071
3183 1 0.949844 57.9248 25.3575
9249 2 2.76976 57.9086 26.6438
9577 2 0.0486774 56.3461 26.6232
3231 1 3.68402 56.3598 25.3372
9248 2 5.50492 56.3461 26.6232
2896 1 9.14026 56.3598 25.3372
2897 1 6.40608 57.9248 25.3575
8918 2 8.226 57.9086 26.6438
2574 1 11.8623 57.9248 25.3575
8951 2 10.9612 56.3461 26.6232
2599 1 14.5965 56.3598 25.3372
8665 2 13.6822 57.9086 26.6438
2337 1 17.3186 57.9248 25.3575
8664 2 16.4174 56.3461 26.6232
2336 1 20.0527 56.3598 25.3372
8469 2 19.1385 57.9086 26.6438
3182 1 0.93885 61.0542 25.4094
9203 2 2.75722 61.0334 26.6971
9530 2 0.035114 59.4711 26.6687
3181 1 3.67224 59.4897 25.3818
9251 2 5.49135 59.4711 26.6687
2858 1 6.39509 61.0542 25.4094
2899 1 9.12848 59.4897 25.3818
8917 2 8.21346 61.0334 26.6971
2573 1 11.8513 61.0542 25.4094
8916 2 10.9476 59.4711 26.6687
2572 1 14.5847 59.4897 25.3818
8642 2 13.6697 61.0334 26.6971
2322 1 17.3076 61.0542 25.4094
8667 2 16.4038 59.4711 26.6687
2339 1 20.041 59.4897 25.3818
8468 2 19.1259 61.0334 26.6971
3136 1 0.929194 64.1822 25.4713
9202 2 2.74635 64.1579 26.7606
9531 2 0.023507 62.5956 26.7281
3184 1 3.66202 62.6184 25.4395
9201 2 5.47975 62.5956 26.7281
2856 1 9.11825 62.6184 25.4395
2857 1 6.38543 64.1822 25.4713
8879 2 8.20259 64.1579 26.7606
2542 1 11.8417 64.1822 25.4713
8919 2 10.936 62.5956 26.7281
2575 1 14.5745 62.6184 25.4395
8641 2 13.6588 64.1579 26.7606
2321 1 17.2979 64.1822 25.4713
8640 2 16.3922 62.5956 26.7281
2320 1 20.0307 62.6184 25.4395
8454 2 19.1151 64.1579 26.7606
3135 1 0.920287 67.3104 25.5363
9156 2 2.73658 67.2845 26.8263
9490 2 0.0132083 65.7207 26.7936
3134 1 3.65278 65.7461 25.5038
9204 2 5.46945 65.7207 26.7936
2812 1 6.37653 67.3104 25.5363
2859 1 9.10902 65.7461 25.5038
8878 2 8.19282 67.2845 26.8263
2541 1 11.8328 67.3104 25.5363
8877 2 10.9257 65.7207 26.7936
2540 1 14.5653 65.7461 25.5038
8614 2 13.6491 67.2845 26.8263
2299 1 17.289 67.3104 25.5363
8643 2 16.3819 65.7207 26.7936
2323 1 20.0215 65.7461 25.5038
8453 2 19.1053 67.2845 26.8263
3096 1 0.912222 70.442 25.5993
9155 2 2.7282 70.4163 26.8892
9491 2 0.0040676 68.8497 26.8583
3137 1 3.64424 68.8756 25.5682
9154 2 5.46031 68.8497 26.8583
2810 1 9.10048 68.8756 25.5682
2811 1 6.36846 70.442 25.5993
8839 2 8.18444 70.4163 26.8892
2506 1 11.8247 70.442 25.5993
8880 2 10.9165 68.8497 26.8583
2543 1 14.5567 68.8756 25.5682
8613 2 13.6407 70.4163 26.8892
2298 1 17.2809 70.442 25.5993
8612 2 16.3728 68.8497 26.8583
2297 1 20.013 68.8756 25.5682
8438 2 19.0969 70.4163 26.8892
3095 1 0.905437 73.5788 25.6585
9116 2 2.72155 73.5543 26.9477
9458 2 -0.00347114 71.9845 26.919
3094 1 3.63677 72.0097 25.6294
9157 2 5.45277 71.9845 26.919
2767 1 6.36168 73.5788 25.6585
2813 1 9.09301 72.0097 25.6294
8838 2 8.17778 73.5543 26.9477
2505 1 11.8179 73.5788 25.6585
8837 2 10.909 71.9845 26.919
2504 1 14.5492 72.0097 25.6294
8586 2 13.634 73.5543 26.9477
2275 1 17.2742 73.5788 25.6585
8615 2 16.3652 71.9845 26.919
2300 1 20.0055 72.0097 25.6294
8437 2 19.0903 73.5543 26.9477
9459 2 -0.00924864 75.1256 26.9752
3064 1 0.900105 76.7212 25.7134
9115 2 2.71659 76.6983 27.0017
3097 1 3.63071 75.1493 25.6864
9114 2 5.44699 75.1256 26.9752
2765 1 9.08695 75.1493 25.6864
2766 1 6.35634 76.7212 25.7134
8800 2 8.17283 76.6983 27.0017
8840 2 10.9032 75.1256 26.9752
2470 1 11.8126 76.7212 25.7134
2507 1 14.5432 75.1493 25.6864
8585 2 13.6291 76.6983 27.0017
8584 2 16.3595 75.1256 26.9752
2274 1 17.2688 76.7212 25.7134
2273 1 19.9994 75.1493 25.6864
8422 2 19.0853 76.6983 27.0017
9434 2 -0.0134504 78.2724 27.0272
3063 1 0.896114 79.8686 25.7643
9084 2 2.71306 79.8477 27.0517
3062 1 3.62607 78.2943 25.7393
9117 2 5.44279 78.2724 27.0272
2768 1 9.08231 78.2943 25.7393
2729 1 6.35235 79.8686 25.7643
8799 2 8.1693 79.8477 27.0517
8798 2 10.899 78.2724 27.0272
2469 1 11.8086 79.8686 25.7643
2468 1 14.5386 78.2943 25.7393
8558 2 13.6255 79.8477 27.0517
8587 2 16.3553 78.2724 27.0272
2251 1 17.2648 79.8686 25.7643
2276 1 19.9948 78.2943 25.7393
8421 2 19.0818 79.8477 27.0517
3065 1 3.62267 81.4441 25.7884
9082 2 5.43985 81.4241 27.0754
2727 1 9.07891 81.4441 25.7884
8801 2 10.8961 81.4241 27.0754
2471 1 14.5351 81.4441 25.7884
8556 2 16.3523 81.4241 27.0754
9435 2 21.8086 81.4241 27.0754
2249 1 19.9914 81.4441 25.7884
3040 1 0.893226 83.0205 25.8116
9083 2 2.71063 83.0014 27.0982
3038 1 3.62023 84.5978 25.834
9085 2 5.43785 84.5797 27.1202
2728 1 6.34946 83.0205 25.8116
2730 1 9.07647 84.5978 25.834
8768 2 8.16686 83.0014 27.0982
2435 1 11.8057 83.0205 25.8116
8766 2 10.8941 84.5797 27.1202
2433 1 14.5327 84.5978 25.834
8557 2 13.6231 83.0014 27.0982
2250 1 17.2619 83.0205 25.8116
8559 2 16.3503 84.5797 27.1202
9418 2 21.8066 84.5797 27.1202
2252 1 19.9889 84.5978 25.834
8406 2 19.0793 83.0014 27.0982
3039 1 0.891185 86.1759 25.8556
9060 2 2.709 86.1587 27.1414
3041 1 3.61853 87.7547 25.8763
9058 2 5.43653 87.7384 27.1618
2697 1 9.07477 87.7547 25.8763
2699 1 6.34742 86.1759 25.8556
8767 2 8.16524 86.1587 27.1414
2434 1 11.8037 86.1759 25.8556
8769 2 10.8928 87.7384 27.1618
2436 1 14.531 87.7547 25.8763
8531 2 13.6215 86.1587 27.1414
2227 1 17.2599 86.1759 25.8556
8529 2 16.349 87.7384 27.1618
9419 2 21.8052 87.7384 27.1618
2225 1 19.9872 87.7547 25.8763
8405 2 19.0777 86.1587 27.1414
9421 2 1.79977 90.9283 24.6272
3024 1 0.889768 89.3341 25.8963
9059 2 2.70794 89.3188 27.1814
3022 1 3.61736 90.9141 25.9155
9061 2 5.43569 90.8997 27.2003
9062 2 7.25601 90.9283 24.6272
2698 1 6.34601 89.3341 25.8963
2700 1 9.07359 90.9141 25.9155
8744 2 8.16418 89.3188 27.1814
2407 1 11.8022 89.3341 25.8963
8742 2 10.8919 90.8997 27.2003
8773 2 12.7123 90.9283 24.6272
2405 1 14.5298 90.9141 25.9155
8530 2 13.6204 89.3188 27.1814
8533 2 18.1685 90.9283 24.6272
2226 1 17.2585 89.3341 25.8963
8532 2 16.3482 90.8997 27.2003
9410 2 21.8044 90.8997 27.2003
2228 1 19.9861 90.9141 25.9155
8390 2 19.0767 89.3188 27.1814
9412 2 1.79869 94.0882 24.6638
3023 1 0.888799 92.4947 25.9339
9044 2 2.70728 92.4811 27.2185
9063 2 4.52731 92.508 24.6459
3025 1 3.61656 94.0756 25.9515
9042 2 5.43517 94.0629 27.2358
9065 2 7.25492 94.0882 24.6638
2675 1 9.0728 94.0756 25.9515
2677 1 6.34504 92.4947 25.9339
8743 2 8.16351 92.4811 27.2185
8748 2 9.98354 92.508 24.6459
2406 1 11.8013 92.4947 25.9339
8745 2 10.8914 94.0629 27.2358
8534 2 15.4398 92.508 24.6459
8746 2 12.7112 94.0882 24.6638
2408 1 14.529 94.0756 25.9515
8511 2 13.6198 92.4811 27.2185
8536 2 18.1674 94.0882 24.6638
2204 1 17.2575 92.4947 25.9339
8509 2 16.3476 94.0629 27.2358
8392 2 20.896 92.508 24.6459
9411 2 21.8039 94.0629 27.2358
2202 1 19.9853 94.0756 25.9515
8389 2 19.076 92.4811 27.2185
9413 2 1.7979 97.2498 24.697
3016 1 0.888143 95.657 25.9683
9043 2 2.70688 95.6451 27.2524
9048 2 4.52638 95.6688 24.6808
3014 1 3.61602 97.2387 25.9843
9045 2 5.43487 97.2276 27.2682
9046 2 7.25413 97.2498 24.697
2676 1 6.34438 95.657 25.9683
2678 1 9.07226 97.2387 25.9843
8728 2 8.16312 95.6451 27.2524
8747 2 9.98262 95.6688 24.6808
2387 1 11.8006 95.657 25.9683
8726 2 10.8911 97.2276 27.2682
8515 2 15.4389 95.6688 24.6808
8749 2 12.7104 97.2498 24.697
2385 1 14.5285 97.2387 25.9843
8510 2 13.6194 95.6451 27.2524
8513 2 18.1666 97.2498 24.697
2203 1 17.2569 95.657 25.9683
8512 2 16.3473 97.2276 27.2682
8391 2 20.8951 95.6688 24.6808
9409 2 21.8036 97.2276 27.2682
2205 1 19.9847 97.2387 25.9843
8375 2 19.0756 95.6451 27.2524
11799 2 1.79732 100.413 24.7269
3015 1 0.887704 98.8207 25.9995
9033 2 2.70666 98.8104 27.2832
9047 2 4.5257 98.831 24.7124
5320 1 3.61566 100.403 26.0138
11465 2 5.43471 100.394 27.2973
11504 2 7.25356 100.413 24.7269
2660 1 6.34394 98.8207 25.9995
8727 2 8.16289 98.8104 27.2832
4977 1 9.0719 100.403 26.0138
8729 2 9.98194 98.831 24.7124
2386 1 11.8002 98.8207 25.9995
11152 2 10.8909 100.394 27.2973
8514 2 15.4382 98.831 24.7124
11153 2 12.7098 100.413 24.7269
8496 2 13.6191 98.8104 27.2832
4664 1 14.5281 100.403 26.0138
10872 2 18.166 100.413 24.7269
2185 1 17.2564 98.8207 25.9995
10857 2 16.3472 100.394 27.2973
8376 2 20.8944 98.831 24.7124
11798 2 21.8034 100.394 27.2973
8374 2 19.0754 98.8104 27.2832
4393 1 19.9844 100.403 26.0138
9246 2 0.990314 51.6507 29.1539
2894 1 4.6225 51.6569 27.866
8946 2 6.44655 51.6507 29.1539
2594 1 10.0787 51.6569 27.866
8662 2 11.9028 51.6507 29.1539
2334 1 15.535 51.6569 27.866
8474 2 17.359 51.6507 29.1539
2160 1 20.9912 51.6569 27.866
3227 1 1.88675 53.2148 27.8725
9245 2 0.971337 54.7601 29.1686
2893 1 4.60616 54.7745 27.8832
9244 2 3.70974 53.2044 29.1586
2892 1 7.34298 53.2148 27.8725
8914 2 6.42758 54.7601 29.1686
8947 2 9.16597 53.2044 29.1586
2570 1 10.0624 54.7745 27.8832
8661 2 11.8838 54.7601 29.1686
2333 1 15.5186 54.7745 27.8832
2595 1 12.7992 53.2148 27.8725
8660 2 14.6222 53.2044 29.1586
2332 1 18.2555 53.2148 27.8725
8466 2 17.3401 54.7601 29.1686
2159 1 20.9749 54.7745 27.8832
8475 2 20.0785 53.2044 29.1586
3179 1 1.869 56.3355 27.8997
9199 2 0.951542 57.8752 29.207
2854 1 4.58875 57.8972 27.9217
9247 2 3.68925 56.3174 29.1845
2895 1 7.32524 56.3355 27.8997
8912 2 9.14549 56.3174 29.1845
8913 2 6.40778 57.8752 29.207
2569 1 10.045 57.8972 27.9217
8638 2 11.864 57.8752 29.207
2318 1 15.5012 57.8972 27.9217
2568 1 12.7815 56.3355 27.8997
8663 2 14.6017 56.3174 29.1845
2335 1 18.2377 56.3355 27.8997
8465 2 17.3203 57.8752 29.207
2158 1 20.9575 57.8972 27.9217
8464 2 20.058 56.3174 29.1845
3180 1 1.85314 59.4585 27.9492
9198 2 0.935558 60.9907 29.268
2853 1 4.57455 61.0192 27.9807
9197 2 3.67124 59.433 29.2353
2852 1 7.30938 59.4585 27.9492
8875 2 6.3918 60.9907 29.268
8915 2 9.12748 59.433 29.2353
2538 1 10.0308 61.0192 27.9807
8637 2 11.848 60.9907 29.268
2317 1 15.487 61.0192 27.9807
2571 1 12.7656 59.4585 27.9492
8636 2 14.5837 59.433 29.2353
2316 1 18.2219 59.4585 27.9492
8451 2 17.3043 60.9907 29.268
2151 1 20.9433 61.0192 27.9807
8467 2 20.04 59.433 29.2353
3132 1 1.84036 62.5794 28.0148
9152 2 0.922361 64.1073 29.3394
2808 1 4.5628 64.1394 28.0501
9200 2 3.65685 62.5485 29.3034
2855 1 7.2966 62.5794 28.0148
8873 2 9.11309 62.5485 29.3034
8874 2 6.3786 64.1073 29.3394
2537 1 10.019 64.1394 28.0501
8610 2 11.8348 64.1073 29.3394
2295 1 15.4753 64.1394 28.0501
2536 1 12.7528 62.5794 28.0148
8639 2 14.5693 62.5485 29.3034
2319 1 18.2091 62.5794 28.0148
8450 2 17.2911 64.1073 29.3394
2150 1 20.9315 64.1394 28.0501
8449 2 20.0256 62.5485 29.3034
3133 1 1.82928 65.7002 28.085
9151 2 0.911229 67.2302 29.4086
2807 1 4.55234 67.2624 28.119
9150 2 3.64462 65.6677 29.3747
2806 1 7.28551 65.7002 28.085
8835 2 6.36747 67.2302 29.4086
8876 2 9.10086 65.6677 29.3747
2502 1 10.0086 67.2624 28.119
8609 2 11.8237 67.2302 29.4086
2294 1 15.4648 67.2624 28.119
2539 1 12.7418 65.7002 28.085
8608 2 14.5571 65.6677 29.3747
2293 1 18.198 65.7002 28.085
8435 2 17.2799 67.2302 29.4086
2139 1 20.9211 67.2624 28.119
8452 2 20.0133 65.6677 29.3747
3092 1 1.8196 68.8264 28.1515
9112 2 0.902679 70.3622 29.4717
2763 1 4.54362 70.3925 28.1826
9153 2 3.63474 68.7951 29.441
2809 1 7.27584 68.8264 28.1515
8833 2 9.09097 68.7951 29.441
8834 2 6.35892 70.3622 29.4717
2501 1 9.99986 70.3925 28.1826
8582 2 11.8152 70.3622 29.4717
2271 1 15.4561 70.3925 28.1826
2500 1 12.7321 68.8264 28.1515
8611 2 14.5472 68.7951 29.441
2296 1 18.1883 68.8264 28.1515
8434 2 17.2714 70.3622 29.4717
2138 1 20.9123 70.3925 28.1826
8433 2 20.0035 68.7951 29.441
3093 1 1.81194 71.9606 28.2122
9111 2 0.896679 73.5027 29.5287
2762 1 4.53703 73.5306 28.2405
9110 2 3.62751 71.9314 29.5009
2761 1 7.26818 71.9606 28.2122
8796 2 6.35292 73.5027 29.5287
8836 2 9.08374 71.9314 29.5009
2466 1 9.99327 73.5306 28.2405
8581 2 11.8092 73.5027 29.5287
2270 1 15.4495 73.5306 28.2405
2503 1 12.7244 71.9606 28.2122
8580 2 14.54 71.9314 29.5009
2269 1 18.1807 71.9606 28.2122
8419 2 17.2654 73.5027 29.5287
2127 1 20.9057 73.5306 28.2405
8436 2 19.9962 71.9314 29.5009
3060 1 1.80637 75.1023 28.2676
9080 2 0.892725 76.6505 29.5808
9113 2 3.6226 75.0758 29.5553
2725 1 4.53239 76.6757 28.2935
2764 1 7.26261 75.1023 28.2676
8794 2 9.07884 75.0758 29.5553
8795 2 6.34896 76.6505 29.5808
2465 1 9.98863 76.6757 28.2935
8554 2 11.8052 76.6505 29.5808
2464 1 12.7188 75.1023 28.2676
8583 2 14.5351 75.0758 29.5553
2247 1 15.4449 76.6757 28.2935
2272 1 18.1751 75.1023 28.2676
8418 2 17.2614 76.6505 29.5808
8417 2 19.9913 75.0758 29.5553
2126 1 20.9011 76.6757 28.2935
3061 1 1.80256 78.2506 28.3185
9079 2 0.890259 79.8041 29.6288
9078 2 3.61946 78.2267 29.6053
2724 1 4.5293 79.8267 28.3425
2723 1 7.2588 78.2506 28.3185
8797 2 9.07569 78.2267 29.6053
8764 2 6.3465 79.8041 29.6288
2431 1 9.98554 79.8267 28.3425
8553 2 11.8027 79.8041 29.6288
2467 1 12.715 78.2506 28.3185
8552 2 14.5319 78.2267 29.6053
2246 1 15.4418 79.8267 28.3425
2245 1 18.1713 78.2506 28.3185
8403 2 17.259 79.8041 29.6288
8420 2 19.9882 78.2267 29.6053
2115 1 20.898 79.8267 28.3425
3036 1 1.80008 81.404 28.3656
9081 2 3.61756 81.3826 29.6515
2726 1 7.25632 81.404 28.3656
8762 2 9.07379 81.3826 29.6515
2429 1 12.7126 81.404 28.3656
8555 2 14.53 81.3826 29.6515
2248 1 18.1688 81.404 28.3656
8401 2 19.9863 81.3826 29.6515
3037 1 1.79854 84.5614 28.4094
9056 2 0.888823 82.962 29.6735
2695 1 4.52733 82.9823 28.3879
9054 2 3.6165 84.5423 29.6947
2693 1 7.25478 84.5614 28.4094
8763 2 6.34506 82.962 29.6735
8765 2 9.07274 84.5423 29.6947
2430 1 9.98357 82.9823 28.3879
8527 2 11.8013 82.962 29.6735
2223 1 15.4398 82.9823 28.3879
2432 1 12.711 84.5614 28.4094
8525 2 14.529 84.5423 29.6947
2221 1 18.1673 84.5614 28.4094
8402 2 17.2575 82.962 29.6735
2114 1 20.896 82.9823 28.3879
8404 2 19.9852 84.5423 29.6947
3020 1 1.79765 87.722 28.4503
9055 2 0.888077 86.1234 29.7151
2694 1 4.52615 86.1414 28.4302
9057 2 3.616 87.7051 29.7349
2696 1 7.25388 87.722 28.4503
8738 2 9.07224 87.7051 29.7349
8740 2 6.34432 86.1234 29.7151
2403 1 9.98239 86.1414 28.4302
8526 2 11.8006 86.1234 29.7151
2222 1 15.4386 86.1414 28.4302
2401 1 12.7101 87.722 28.4503
8528 2 14.5285 87.7051 29.7349
2224 1 18.1664 87.722 28.4503
8387 2 17.2568 86.1234 29.7151
2103 1 20.8949 86.1414 28.4302
8385 2 19.9847 87.7051 29.7349
3021 1 1.79718 90.885 28.4881
9040 2 0.887777 89.2873 29.7539
2673 1 4.52549 89.3032 28.4696
9038 2 3.61586 90.8701 29.7722
2671 1 7.25342 90.885 28.4881
8739 2 6.34402 89.2873 29.7539
8741 2 9.0721 90.8701 29.7722
2402 1 9.98173 89.3032 28.4696
8507 2 11.8003 89.2873 29.7539
2200 1 15.438 89.3032 28.4696
2404 1 12.7097 90.885 28.4881
8505 2 14.5283 90.8701 29.7722
2198 1 18.1659 90.885 28.4881
8386 2 17.2565 89.2873 29.7539
2102 1 20.8942 89.3032 28.4696
8388 2 19.9846 90.8701 29.7722
3012 1 1.79698 94.0499 28.5231
9039 2 0.887756 92.4533 29.7898
2672 1 4.52517 92.4673 28.506
9041 2 3.61593 94.0368 29.8067
2674 1 7.25322 94.0499 28.5231
8722 2 9.07217 94.0368 29.8067
8724 2 6.34399 92.4533 29.7898
2383 1 9.98141 92.4673 28.506
8506 2 11.8002 92.4533 29.7898
2199 1 15.4376 92.4673 28.506
2381 1 12.7095 94.0499 28.5231
8508 2 14.5284 94.0368 29.8067
2201 1 18.1657 94.0499 28.5231
8372 2 17.2565 92.4533 29.7898
2091 1 20.8939 92.4673 28.506
8370 2 19.9846 94.0368 29.8067
3013 1 1.79695 97.2163 28.555
9032 2 0.887897 95.6207 29.8229
2659 1 4.52507 95.633 28.5394
9030 2 3.61612 97.205 29.8383
2657 1 7.25319 97.2163 28.555
8723 2 6.34414 95.6207 29.8229
8725 2 9.07236 97.205 29.8383
2382 1 9.98131 95.633 28.5394
8495 2 11.8004 95.6207 29.8229
2184 1 15.4375 95.633 28.5394
2384 1 12.7094 97.2163 28.555
8493 2 14.5286 97.205 29.8383
2182 1 18.1657 97.2163 28.555
8371 2 17.2566 95.6207 29.8229
2090 1 20.8938 95.633 28.5394
8373 2 19.9848 97.205 29.8383
9031 2 0.888123 98.7895 29.8529
5274 1 1.79702 100.384 28.5838
2658 1 4.5251 98.8 28.5698
11464 2 3.61637 100.374 29.8667
8713 2 6.34436 98.7895 29.8529
4976 1 7.25326 100.384 28.5838
11121 2 9.07261 100.374 29.8667
2368 1 9.98134 98.8 28.5698
8494 2 11.8006 98.7895 29.8529
2183 1 15.4376 98.8 28.5698
4641 1 12.7095 100.384 28.5838
10856 2 14.5288 100.374 29.8667
8361 2 17.2568 98.7895 29.8529
4392 1 18.1657 100.384 28.5838
2079 1 20.8938 98.8 28.5698
10649 2 19.9851 100.374 29.8667
2890 1 2.81927 51.6412 30.4382
2846 1 1.02334 51.6303 33.0273
8910 2 4.64334 51.6376 31.7257
2566 1 8.27551 51.6412 30.4382
2562 1 6.47958 51.6303 33.0273
8658 2 10.0996 51.6376 31.7257
2310 1 11.9358 51.6303 33.0273
2330 1 13.7317 51.6412 30.4382
8462 2 15.5558 51.6376 31.7257
2154 1 17.3921 51.6303 33.0273
2157 1 19.188 51.6412 30.4382
8352 2 21.0121 51.6376 31.7257
2850 1 2.79453 54.7462 30.4468
9243 2 1.90167 53.1816 31.7216
3177 1 0.0785958 53.1916 30.4393
2845 1 0.980013 54.7062 33.013
2891 1 5.53483 53.1916 30.4393
8909 2 4.6143 54.7291 31.7274
2844 1 3.73002 53.164 33.0193
2565 1 8.25077 54.7462 30.4468
8908 2 7.35791 53.1816 31.7216
2530 1 6.43625 54.7062 33.013
2563 1 9.18626 53.164 33.0193
2564 1 10.9911 53.1916 30.4393
8634 2 10.0705 54.7291 31.7274
2309 1 11.8925 54.7062 33.013
2314 1 13.707 54.7462 30.4468
8461 2 15.5268 54.7291 31.7274
8659 2 12.8142 53.1816 31.7216
2308 1 14.6425 53.164 33.0193
2331 1 16.4473 53.1916 30.4393
8460 2 18.2704 53.1816 31.7216
2146 1 17.3487 54.7062 33.013
2156 1 19.1632 54.7462 30.4468
8351 2 20.983 54.7291 31.7274
2155 1 20.0987 53.164 33.0193
2849 1 2.76922 57.8596 30.4876
3178 1 0.0524542 56.3026 30.4626
9195 2 1.8711 56.2788 31.7417
2800 1 0.94317 57.8057 33.0609
2848 1 5.50869 56.3026 30.4626
8871 2 4.58666 57.8291 31.7677
2847 1 3.68705 56.2571 33.0321
2534 1 8.22545 57.8596 30.4876
8911 2 7.32734 56.2788 31.7417
2529 1 6.39941 57.8057 33.0609
2528 1 9.14329 56.2571 33.0321
2567 1 10.9649 56.3026 30.4626
8633 2 10.0429 57.8291 31.7677
2287 1 11.8556 57.8057 33.0609
2313 1 13.6817 57.8596 30.4876
8447 2 15.4991 57.8291 31.7677
8632 2 12.7836 56.2788 31.7417
2311 1 14.5995 56.2571 33.0321
2312 1 16.4212 56.3026 30.4626
8463 2 18.2398 56.2788 31.7417
2145 1 17.3119 57.8057 33.0609
2149 1 19.1379 57.8596 30.4876
8350 2 20.9554 57.8291 31.7677
2144 1 20.0558 56.2571 33.0321
2804 1 2.75123 60.9706 30.5572
3130 1 0.0310968 59.4158 30.5198
9196 2 1.84744 59.3797 31.8015
2799 1 0.923716 60.8953 33.1466
2851 1 5.48734 59.4158 30.5198
8870 2 4.56645 60.9303 31.8416
2798 1 3.66026 59.3514 33.102
2533 1 8.20747 60.9706 30.5572
8869 2 7.30368 59.3797 31.8015
2494 1 6.37995 60.8953 33.1466
2531 1 9.1165 59.3514 33.102
2532 1 10.9436 59.4158 30.5198
8606 2 10.0227 60.9303 31.8416
2286 1 11.8362 60.8953 33.1466
2291 1 13.6637 60.9706 30.5572
8446 2 15.4789 60.9303 31.8416
8635 2 12.7599 59.3797 31.8015
2285 1 14.5727 59.3514 33.102
2315 1 16.3998 59.4158 30.5198
8445 2 18.2162 59.3797 31.8015
2134 1 17.2924 60.8953 33.1466
2148 1 19.1199 60.9706 30.5572
8347 2 20.9352 60.9303 31.8416
2147 1 20.029 59.3514 33.102
2803 1 2.73726 64.0804 30.6345
3131 1 0.0159178 62.5247 30.5963
9148 2 1.83008 62.483 31.8824
2755 1 0.907642 63.997 33.2257
2802 1 5.47216 62.5247 30.5963
8831 2 4.55099 64.0389 31.9216
2801 1 3.64318 62.4435 33.1876
2498 1 8.1935 64.0804 30.6345
8872 2 7.28632 62.483 31.8824
2492 1 9.09942 62.4435 33.1876
2493 1 6.36388 63.997 33.2257
2535 1 10.9284 62.5247 30.5963
8605 2 10.0072 64.0389 31.9216
2263 1 11.8201 63.997 33.2257
2290 1 13.6497 64.0804 30.6345
8431 2 15.4635 64.0389 31.9216
8604 2 12.7426 62.483 31.8824
2288 1 14.5557 62.4435 33.1876
2289 1 16.3846 62.5247 30.5963
8448 2 18.1988 62.483 31.8824
2133 1 17.2764 63.997 33.2257
2137 1 19.106 64.0804 30.6345
8346 2 20.9197 64.0389 31.9216
2132 1 20.0119 62.4435 33.1876
2759 1 2.72562 67.2002 30.7048
3090 1 0.00297548 65.6387 30.6708
9149 2 1.81664 65.5984 31.9583
2805 1 5.45921 65.6387 30.6708
8830 2 4.53959 67.1615 31.9924
2753 1 3.62942 65.5564 33.2602
2497 1 8.18186 67.2002 30.7048
8829 2 7.27288 65.5984 31.9583
2495 1 9.08566 65.5564 33.2602
2496 1 10.9155 65.6387 30.6708
8578 2 9.99583 67.1615 31.9924
2267 1 13.6381 67.2002 30.7048
8430 2 15.4521 67.1615 31.9924
8607 2 12.7291 65.5984 31.9583
2261 1 14.5419 65.5564 33.2602
2292 1 16.3717 65.6387 30.6708
8429 2 18.1854 65.5984 31.9583
2136 1 19.0943 67.2002 30.7048
8343 2 20.9083 67.1615 31.9924
2135 1 19.9981 65.5564 33.2602
2758 1 2.71712 70.3323 30.7666
3091 1 -0.00715805 68.7648 30.7366
9108 2 1.80731 68.728 32.0241
2757 1 5.44908 68.7648 30.7366
8792 2 4.53215 70.2975 32.0538
2462 1 8.17336 70.3323 30.7666
8832 2 7.26354 68.728 32.0241
2499 1 10.9053 68.7648 30.7366
8577 2 9.98839 70.2975 32.0538
2266 1 13.6296 70.3323 30.7666
8415 2 15.4446 70.2975 32.0538
8576 2 12.7198 68.728 32.0241
2265 1 16.3616 68.7648 30.7366
8432 2 18.176 68.728 32.0241
2125 1 19.0858 70.3323 30.7666
8342 2 20.9009 70.2975 32.0538
2721 1 2.7116 73.4747 30.8219
3058 1 -0.0140869 71.9024 30.795
9109 2 1.80151 71.8696 32.0818
2760 1 5.44215 71.9024 30.795
8791 2 4.52773 73.4439 32.1083
2461 1 8.16784 73.4747 30.8219
8790 2 7.25775 71.8696 32.0818
2460 1 10.8984 71.9024 30.795
8550 2 9.98397 73.4439 32.1083
2243 1 13.6241 73.4747 30.8219
8579 2 12.714 71.8696 32.0818
8414 2 15.4402 73.4439 32.1083
2268 1 16.3546 71.9024 30.795
8413 2 18.1702 71.8696 32.0818
2124 1 19.0803 73.4747 30.8219
8339 2 20.8964 73.4439 32.1083
3059 1 -0.0183993 75.049 30.8477
9076 2 1.79821 75.02 32.1336
2720 1 2.7083 76.625 30.8723
2719 1 5.43784 75.049 30.8477
8760 2 4.52533 76.5978 32.1579
8793 2 7.25445 75.02 32.1336
2427 1 8.16453 76.625 30.8723
2463 1 10.8941 75.049 30.8477
8549 2 9.98157 76.5978 32.1579
8548 2 12.7107 75.02 32.1336
2242 1 13.6208 76.625 30.8723
8399 2 15.4378 76.5978 32.1579
2241 1 16.3503 75.049 30.8477
8416 2 18.1669 75.02 32.1336
2113 1 19.077 76.625 30.8723
8338 2 20.894 76.5978 32.1579
9077 2 1.79653 78.1768 32.1813
2691 1 2.70649 79.7811 30.919
2722 1 5.43536 78.2025 30.8961
8759 2 4.52422 79.7571 32.2039
8758 2 7.25277 78.1768 32.1813
2426 1 8.16273 79.7811 30.919
2425 1 10.8916 78.2025 30.8961
8523 2 9.98046 79.7571 32.2039
8551 2 12.709 78.1768 32.1813
2219 1 13.619 79.7811 30.919
8398 2 15.4367 79.7571 32.2039
2244 1 16.3478 78.2025 30.8961
8397 2 18.1652 78.1768 32.1813
3034 1 21.8041 78.2025 30.8961
2112 1 19.0752 79.7811 30.919
8335 2 20.8929 79.7571 32.2039
9052 2 1.79588 81.3383 32.2257
2690 1 2.70566 82.9415 30.9625
2689 1 5.4341 81.3609 30.9411
8736 2 4.52392 82.9203 32.2468
8761 2 7.25211 81.3383 32.2257
2399 1 8.1619 82.9415 30.9625
2428 1 10.8903 81.3609 30.9411
8522 2 9.98016 82.9203 32.2468
8521 2 12.7084 81.3383 32.2257
2218 1 13.6181 82.9415 30.9625
8383 2 15.4364 82.9203 32.2468
2217 1 16.3466 81.3609 30.9411
8400 2 18.1646 81.3383 32.2257
3035 1 21.8028 81.3609 30.9411
2101 1 19.0744 82.9415 30.9625
8334 2 20.8926 82.9203 32.2468
9053 2 1.79585 84.5031 32.2673
2692 1 5.4336 84.523 30.9832
8734 2 7.25209 84.5031 32.2673
2397 1 10.8898 84.523 30.9832
8524 2 12.7083 84.5031 32.2673
2220 1 16.3461 84.523 30.9832
8381 2 18.1646 84.5031 32.2673
3018 1 21.8023 84.523 30.9832
2669 1 2.70543 86.1051 31.0033
9036 2 1.79619 87.6704 32.3062
2667 1 5.43358 87.6879 31.0226
8735 2 4.5241 86.0864 32.2871
2398 1 8.16167 86.1051 31.0033
8737 2 7.25243 87.6704 32.3062
2400 1 10.8898 87.6879 31.0226
8503 2 9.98034 86.0864 32.2871
2196 1 13.6179 86.1051 31.0033
8382 2 15.4366 86.0864 32.2871
8501 2 12.7087 87.6704 32.3062
2194 1 16.3461 87.6879 31.0226
8384 2 18.1649 87.6704 32.3062
3019 1 21.8023 87.6879 31.0226
2100 1 19.0741 86.1051 31.0033
8331 2 20.8928 86.0864 32.2871
2668 1 2.70557 89.2712 31.0413
9037 2 1.79673 90.8395 32.3426
2670 1 5.43384 90.8549 31.0593
8720 2 4.52456 89.2547 32.3247
2379 1 8.16181 89.2712 31.0413
8718 2 7.25297 90.8395 32.3426
2377 1 10.8901 90.8549 31.0593
8502 2 9.9808 89.2547 32.3247
2195 1 13.618 89.2712 31.0413
8368 2 15.437 89.2547 32.3247
8504 2 12.7092 90.8395 32.3426
2197 1 16.3463 90.8549 31.0593
8366 2 18.1654 90.8395 32.3426
3010 1 21.8026 90.8549 31.0593
2089 1 19.0743 89.2712 31.0413
8330 2 20.8933 89.2547 32.3247
2655 1 2.70591 92.4391 31.0767
9028 2 1.79736 94.0102 32.3762
2653 1 5.43424 94.0236 31.0933
8719 2 4.52516 92.4247 32.3597
2378 1 8.16215 92.4391 31.0767
8721 2 7.2536 94.0102 32.3762
2380 1 10.8905 94.0236 31.0933
8491 2 9.9814 92.4247 32.3597
2180 1 13.6184 92.4391 31.0767
8367 2 15.4376 92.4247 32.3597
8489 2 12.7098 94.0102 32.3762
2178 1 16.3467 94.0236 31.0933
8369 2 18.1661 94.0102 32.3762
3011 1 21.803 94.0236 31.0933
2088 1 19.0746 92.4391 31.0767
8327 2 20.8939 92.4247 32.3597
2654 1 2.70635 95.6084 31.1093
9029 2 1.79801 97.1819 32.4071
2656 1 5.43471 97.1935 31.1245
8712 2 4.52581 95.5959 32.392
2367 1 8.16259 95.6084 31.1093
8710 2 7.25425 97.1819 32.4071
2365 1 10.8909 97.1935 31.1245
8490 2 9.98205 95.5959 32.392
2179 1 13.6188 95.6084 31.1093
8360 2 15.4383 95.5959 32.392
8492 2 12.7105 97.1819 32.4071
2181 1 16.3472 97.1935 31.1245
8358 2 18.1667 97.1819 32.4071
3009 1 21.8034 97.1935 31.1245
2078 1 19.0751 95.6084 31.1093
8326 2 20.8945 95.5959 32.392
2646 1 2.70682 98.7788 31.1389
11418 2 1.79864 100.355 32.435
8711 2 4.52645 98.7681 32.4214
4937 1 5.43518 100.364 31.1526
2366 1 8.16306 98.7788 31.1389
11120 2 7.25487 100.355 32.435
8484 2 9.98269 98.7681 32.4214
4640 1 10.8914 100.364 31.1526
2169 1 13.6193 98.7788 31.1389
8359 2 15.4389 98.7681 32.4214
10833 2 12.7111 100.355 32.435
4377 1 16.3477 100.364 31.1526
10648 2 18.1674 100.355 32.435
2077 1 19.0755 98.7788 31.1389
8323 2 20.8952 98.7681 32.4214
5273 1 21.8039 100.364 31.1526
8906 2 2.84539 51.6309 34.3068
2526 1 4.68164 51.6299 35.6296
8630 2 8.30163 51.6309 34.3068
2306 1 10.1379 51.6299 35.6296
8458 2 13.7579 51.6309 34.3068
2142 1 15.5941 51.6299 35.6296
8349 2 19.2141 51.6309 34.3068
2064 1 21.0504 51.6299 35.6296
8867 2 2.79648 54.6929 34.277
2843 1 1.93218 53.1687 35.6461
9193 2 0.0960035 53.1653 34.2906
8907 2 5.55224 53.1653 34.2906
2525 1 4.62869 54.6691 35.6139
8629 2 8.25272 54.6929 34.277
2524 1 7.38842 53.1687 35.6461
8628 2 11.0085 53.1653 34.2906
2283 1 10.0849 54.6691 35.6139
8443 2 13.709 54.6929 34.277
2307 1 12.8447 53.1687 35.6461
2141 1 15.5412 54.6691 35.6139
8459 2 16.4647 53.1653 34.2906
2140 1 18.3009 53.1687 35.6461
8348 2 19.1652 54.6929 34.277
2063 1 20.9974 54.6691 35.6139
8866 2 2.7571 57.7628 34.3203
2796 1 1.8384 56.1639 35.6247
9194 2 0.0493637 56.2269 34.2904
8865 2 5.5056 56.2269 34.2904
2490 1 4.55664 57.7035 35.6663
8602 2 8.21333 57.7628 34.3203
2527 1 7.29464 56.1639 35.6247
8631 2 10.9618 56.2269 34.2904
2282 1 10.0129 57.7035 35.6663
8442 2 13.6696 57.7628 34.3203
2281 1 12.7509 56.1639 35.6247
2130 1 15.4691 57.7035 35.6663
8441 2 16.4181 56.2269 34.2904
2143 1 18.2071 56.1639 35.6247
8345 2 19.1258 57.7628 34.3203
2062 1 20.9254 57.7035 35.6663
8827 2 2.73472 60.8418 34.4185
9146 2 0.0177554 59.2995 34.3688
2797 1 1.82171 59.2212 35.7152
8868 2 5.47399 59.2995 34.3688
2489 1 4.53974 60.7654 35.7524
8601 2 8.19096 60.8418 34.4185
2488 1 7.27794 59.2212 35.7152
8600 2 10.9302 59.2995 34.3688
2259 1 9.99598 60.7654 35.7524
8427 2 13.6472 60.8418 34.4185
2284 1 12.7342 59.2212 35.7152
2129 1 15.4522 60.7654 35.7524
8444 2 16.3865 59.2995 34.3688
2128 1 18.1904 59.2212 35.7152
8344 2 19.1034 60.8418 34.4185
2061 1 20.9085 60.7654 35.7524
8826 2 2.71937 63.9474 34.5053
9147 2 -0.00191325 62.391 34.4645
2751 1 1.8055 62.3165 35.7889
8825 2 5.45433 62.391 34.4645
2454 1 4.52823 63.8795 35.8201
8574 2 8.17561 63.9474 34.5053
2491 1 7.26174 62.3165 35.7889
8603 2 10.9106 62.391 34.4645
2258 1 9.98447 63.8795 35.8201
8426 2 13.6318 63.9474 34.5053
2257 1 12.718 62.3165 35.7889
2118 1 15.4407 63.8795 35.8201
8425 2 16.3668 62.391 34.4645
2131 1 18.1742 62.3165 35.7889
8341 2 19.0881 63.9474 34.5053
2060 1 20.8969 63.8795 35.8201
2754 1 0.896263 67.1206 33.292
8788 2 2.71007 67.0769 34.5746
9106 2 -0.0140837 65.5096 34.5417
2752 1 1.79601 65.4484 35.8491
8828 2 5.44215 65.5096 34.5417
2453 1 4.52131 67.0224 35.8764
2458 1 6.3525 67.1206 33.292
8573 2 8.16631 67.0769 34.5746
2452 1 7.25225 65.4484 35.8491
2262 1 11.8087 67.1206 33.292
8572 2 10.8984 65.5096 34.5417
2235 1 9.97755 67.0224 35.8764
8411 2 13.6225 67.0769 34.5746
2260 1 12.7085 65.4484 35.8491
2117 1 15.4338 67.0224 35.8764
2122 1 17.265 67.1206 33.292
8428 2 16.3546 65.5096 34.5417
2116 1 18.1647 65.4484 35.8491
8340 2 19.0788 67.0769 34.5746
2059 1 20.89 67.0224 35.8764
2717 1 0.889574 70.2607 33.3494
8787 2 2.70529 70.2225 34.6329
9107 2 -0.0208716 68.6481 34.6048
2713 1 1.79146 68.5994 35.9026
2756 1 3.62053 68.6891 33.3216
8786 2 5.43537 68.6481 34.6048
2419 1 4.5186 70.1787 35.9277
2456 1 9.07677 68.6891 33.3216
2457 1 6.34581 70.2607 33.3494
8546 2 8.16153 70.2225 34.6329
2455 1 7.2477 68.5994 35.9026
2239 1 11.8021 70.2607 33.3494
8575 2 10.8916 68.6481 34.6048
2234 1 9.97484 70.1787 35.9277
2264 1 14.533 68.6891 33.3216
8410 2 13.6178 70.2225 34.6329
2233 1 12.7039 68.5994 35.9026
2106 1 15.4311 70.1787 35.9277
2121 1 17.2583 70.2607 33.3494
8409 2 16.3478 68.6481 34.6048
2119 1 18.1602 68.5994 35.9026
2120 1 19.9892 68.6891 33.3216
8337 2 19.074 70.2225 34.6329
2058 1 20.8873 70.1787 35.9277
2716 1 0.886167 73.4116 33.401
8756 2 2.70323 73.3784 34.6845
2714 1 1.79006 71.7599 35.952
2715 1 3.61567 71.8351 33.3758
8789 2 5.43213 71.7995 34.6594
2418 1 4.51815 73.3424 35.9756
2423 1 6.34241 73.4116 33.401
2459 1 9.07191 71.8351 33.3758
8545 2 8.15946 73.3784 34.6845
2417 1 7.2463 71.7599 35.952
2238 1 11.7986 73.4116 33.401
8544 2 10.8884 71.7995 34.6594
2211 1 9.97439 73.3424 35.9756
2237 1 14.5281 71.8351 33.3758
8395 2 13.6157 73.3784 34.6845
2236 1 12.7025 71.7599 35.952
2105 1 15.4306 73.3424 35.9756
2110 1 17.2549 73.4116 33.401
8412 2 16.3446 71.7995 34.6594
2104 1 18.1588 71.7599 35.952
2123 1 19.9844 71.8351 33.3758
9074 2 21.8008 71.7995 34.6594
8336 2 19.0719 73.3784 34.6845
2057 1 20.8869 73.3424 35.9756
2687 1 0.884744 76.5696 33.4485
2683 1 1.79027 74.9259 35.9984
8755 2 2.7027 76.5407 34.7318
2718 1 3.61339 74.9898 33.4252
8754 2 5.43094 74.9589 34.7086
2391 1 4.51882 76.5104 36.0207
2421 1 9.06963 74.9898 33.4252
2422 1 6.34098 76.5696 33.4485
2420 1 7.24651 74.9259 35.9984
8519 2 8.15894 76.5407 34.7318
2215 1 11.7972 76.5696 33.4485
8547 2 10.8872 74.9589 34.7086
2210 1 9.97506 76.5104 36.0207
2240 1 14.5259 74.9898 33.4252
2209 1 12.7027 74.9259 35.9984
8394 2 13.6152 76.5407 34.7318
2094 1 15.4313 76.5104 36.0207
2109 1 17.2535 76.5696 33.4485
8393 2 16.3434 74.9589 34.7086
2107 1 18.159 74.9259 35.9984
2108 1 19.9821 74.9898 33.4252
9075 2 21.7997 74.9589 34.7086
8333 2 19.0714 76.5407 34.7318
2056 1 20.8875 76.5104 36.0207
2686 1 0.88447 79.7324 33.493
2684 1 1.79128 78.0955 36.0424
8732 2 2.70303 79.7073 34.776
2685 1 3.61262 78.1505 33.4711
8757 2 5.43091 78.1236 34.7542
2424 1 9.06886 78.1505 33.4711
2395 1 6.34071 79.7324 33.493
2389 1 7.24751 78.0955 36.0424
8518 2 8.15927 79.7073 34.776
2214 1 11.7969 79.7324 33.493
8517 2 10.8871 78.1236 34.7542
2213 1 14.5251 78.1505 33.4711
2212 1 12.7038 78.0955 36.0424
8379 2 13.6155 79.7073 34.776
2098 1 17.2532 79.7324 33.493
8396 2 16.3434 78.1236 34.7542
2092 1 18.16 78.0955 36.0424
9050 2 21.7996 78.1236 34.7542
2111 1 19.9813 78.1505 33.4711
8332 2 19.0717 79.7073 34.776
2665 1 0.884847 82.8987 33.5348
8731 2 2.70384 82.8767 34.8175
2688 1 3.61272 81.3152 33.5142
8730 2 5.43151 81.2917 34.7971
2393 1 9.06896 81.3152 33.5142
2394 1 6.34109 82.8987 33.5348
8499 2 8.16008 82.8767 34.8175
8520 2 10.8878 81.2917 34.7971
2192 1 11.7973 82.8987 33.5348
2216 1 14.5252 81.3152 33.5142
8378 2 13.6163 82.8767 34.8175
8377 2 16.344 81.2917 34.7971
2097 1 17.2536 82.8987 33.5348
2096 1 19.9814 81.3152 33.5142
9051 2 21.8002 81.2917 34.7971
8329 2 19.0726 82.8767 34.8175
2663 1 3.6133 84.4828 33.5548
8733 2 5.43247 84.4623 34.8374
2396 1 9.06954 84.4828 33.5548
8497 2 10.8887 84.4623 34.8374
2190 1 14.5258 84.4828 33.5548
8380 2 16.3449 84.4623 34.8374
2099 1 19.982 84.4828 33.5548
9034 2 21.8012 84.4623 34.8374
2664 1 0.885576 86.0675 33.5742
8716 2 2.70489 86.0482 34.8568
2666 1 3.61413 87.6526 33.593
8714 2 5.43357 87.6346 34.8755
2373 1 9.07037 87.6526 33.593
2375 1 6.34181 86.0675 33.5742
8498 2 8.16113 86.0482 34.8568
2191 1 11.7981 86.0675 33.5742
8500 2 10.8898 87.6346 34.8755
2193 1 14.5266 87.6526 33.593
8364 2 13.6174 86.0482 34.8568
2086 1 17.2543 86.0675 33.5742
8362 2 16.3461 87.6346 34.8755
9035 2 21.8023 87.6346 34.8755
2084 1 19.9828 87.6526 33.593
8328 2 19.0736 86.0482 34.8568
8715 2 2.70603 89.2213 34.8936
2651 1 0.886473 89.2381 33.6113
8717 2 5.43472 90.8083 34.9111
2649 1 3.61507 90.824 33.6289
8487 2 8.16227 89.2213 34.8936
2376 1 9.0713 90.824 33.6289
2374 1 6.34271 89.2381 33.6113
8485 2 10.891 90.8083 34.9111
2176 1 11.7989 89.2381 33.6113
8363 2 13.6185 89.2213 34.8936
2174 1 14.5275 90.824 33.6289
8365 2 16.3472 90.8083 34.9111
2085 1 17.2552 89.2381 33.6113
9026 2 21.8034 90.8083 34.9111
8325 2 19.0747 89.2213 34.8936
2087 1 19.9838 90.824 33.6289
8708 2 2.70717 92.3955 34.9279
2650 1 0.887424 92.4102 33.6458
8706 2 5.43584 93.983 34.9442
2652 1 3.61601 93.9966 33.6621
8486 2 8.16341 92.3955 34.9279
2363 1 6.34366 92.4102 33.6458
2361 1 9.07225 93.9966 33.6621
2175 1 11.7999 92.4102 33.6458
8488 2 10.8921 93.983 34.9442
2177 1 14.5285 93.9966 33.6621
8356 2 13.6196 92.3955 34.9279
2075 1 17.2561 92.4102 33.6458
8354 2 16.3483 93.983 34.9442
9027 2 21.8046 93.983 34.9442
2073 1 19.9847 93.9966 33.6621
8324 2 19.0759 92.3955 34.9279
2645 1 0.888355 95.5833 33.6777
8707 2 2.70825 95.5706 34.9597
8709 2 5.43688 97.1585 34.9745
2643 1 3.61692 97.1703 33.6926
8483 2 8.16449 95.5706 34.9597
2364 1 9.07316 97.1703 33.6926
2362 1 6.34459 95.5833 33.6777
8481 2 10.8931 97.1585 34.9745
2168 1 11.8008 95.5833 33.6777
8355 2 13.6207 95.5706 34.9597
2166 1 14.5294 97.1703 33.6926
8357 2 16.3494 97.1585 34.9745
2074 1 17.2571 95.5833 33.6777
8322 2 19.077 95.5706 34.9597
2076 1 19.9856 97.1703 33.6926
9025 2 21.8056 97.1585 34.9745
8705 2 2.70925 98.7465 34.9887
2644 1 0.889224 98.7574 33.7069
4936 1 3.61775 100.345 33.7203
11081 2 5.43782 100.335 35.0021
8482 2 8.16549 98.7465 34.9887
2356 1 6.34546 98.7574 33.7069
4609 1 9.07398 100.345 33.7203
2167 1 11.8017 98.7574 33.7069
10832 2 10.8941 100.335 35.0021
8353 2 13.6217 98.7465 34.9887
4376 1 14.5302 100.345 33.7203
2068 1 17.2579 98.7574 33.7069
10633 2 16.3503 100.335 35.0021
8321 2 19.078 98.7465 34.9887
11417 2 21.8065 100.335 35.0021
4201 1 19.9865 100.345 33.7203
10494 2 1.08835 51.645 36.885
16495 1 2.18161 53.5105 38.2993
16494 1 4.9066 51.8098 38.2317
10463 2 6.54459 51.645 36.8849
16398 1 7.63785 53.5105 38.2993
10430 2 12.0008 51.645 36.8849
16400 1 10.3628 51.8098 38.2317
16207 1 13.0941 53.5105 38.2993
10399 2 17.4571 51.645 36.885
16206 1 15.8191 51.8098 38.2317
15920 1 18.5503 53.5105 38.2993
16512 1 21.2753 51.8098 38.2317
10493 2 0.95144 54.674 36.8537
10492 2 3.76561 53.1864 36.8576
16496 1 4.89584 55.36 38.3725
10460 2 6.40768 54.674 36.8537
10464 2 9.22185 53.1864 36.8576
10429 2 11.8639 54.674 36.8537
16396 1 10.3521 55.36 38.3725
10428 2 14.6781 53.1864 36.8576
10396 2 17.3202 54.674 36.8537
16208 1 15.8083 55.36 38.3725
16510 1 21.2646 55.36 38.3725
10400 2 20.1343 53.1864 36.8576
16491 1 2.43424 57.0883 38.42
10490 2 0.923114 57.6455 36.8703
10495 2 3.6405 56.1548 36.8081
16489 1 5.35931 58.8961 38.3231
16397 1 7.89048 57.0883 38.42
10458 2 9.09674 56.1548 36.8081
10459 2 6.37935 57.6455 36.8703
10426 2 11.8356 57.6455 36.8703
16399 1 10.8155 58.8961 38.3231
16203 1 13.3467 57.0883 38.42
10431 2 14.553 56.1548 36.8081
15919 1 18.803 57.0883 38.42
10395 2 17.2918 57.6455 36.8703
16201 1 16.2718 58.8961 38.3231
16511 1 21.728 58.8961 38.3231
10394 2 20.0092 56.1548 36.8081
16490 1 2.65862 60.5022 38.354
10489 2 0.897075 60.7088 36.9946
10488 2 3.63758 59.1727 36.9314
16492 1 5.40164 62.1164 38.3809
16390 1 8.11486 60.5022 38.354
10456 2 6.35331 60.7088 36.9946
10461 2 9.09382 59.1727 36.9314
10425 2 11.8096 60.7088 36.9947
16388 1 10.8579 62.1164 38.3809
16202 1 13.5711 60.5022 38.354
10424 2 14.5501 59.1727 36.9314
15914 1 19.0273 60.5022 38.354
10392 2 17.2658 60.7088 36.9946
16204 1 16.3141 62.1164 38.3809
16508 1 21.7704 62.1164 38.3809
10397 2 20.0063 59.1727 36.9314
16480 1 2.68153 63.7158 38.4028
10486 2 0.886365 63.829 37.0835
10491 2 3.61956 62.2647 37.0426
16478 1 5.41515 65.3131 38.4263
16389 1 8.13777 63.7158 38.4028
10454 2 9.0758 62.2647 37.0426
10455 2 6.3426 63.829 37.0835
10422 2 11.7988 63.829 37.0835
16391 1 10.8714 65.3131 38.4263
16191 1 13.594 63.7158 38.4028
10427 2 14.532 62.2647 37.0426
15913 1 19.0502 63.7158 38.4028
10391 2 17.2551 63.829 37.0835
16189 1 16.3276 65.3131 38.4263
16509 1 21.7839 65.3131 38.4263
10390 2 19.9883 62.2647 37.0426
10485 2 0.881498 66.9772 37.1503
16479 1 2.69011 66.9062 38.4503
10484 2 3.61144 65.4007 37.1188
10452 2 6.33774 66.9772 37.1503
10457 2 9.06767 65.4007 37.1188
16374 1 8.14635 66.9062 38.4503
10421 2 11.794 66.9772 37.1503
10420 2 14.5239 65.4007 37.1188
16190 1 13.6026 66.9062 38.4503
10388 2 17.2502 66.9772 37.1503
15900 1 19.0588 66.9062 38.4503
10393 2 19.9802 65.4007 37.1188
10482 2 0.88023 70.1392 37.2059
16468 1 2.69376 70.0888 38.4978
16481 1 5.42033 68.4981 38.4742
10487 2 3.60868 68.557 37.1791
10450 2 9.06492 68.557 37.1791
10451 2 6.33647 70.1392 37.2059
16373 1 8.14999 70.0888 38.4978
16372 1 10.8766 68.4981 38.4742
10418 2 11.7927 70.1392 37.2059
10423 2 14.5212 68.557 37.1791
16171 1 13.6062 70.0888 38.4978
16192 1 16.3328 68.4981 38.4742
10387 2 17.2489 70.1392 37.2059
16506 1 21.789 68.4981 38.4742
15899 1 19.0625 70.0888 38.4978
10386 2 19.9774 68.557 37.1791
10481 2 0.880651 73.3081 37.2554
16467 1 2.69639 73.269 38.5437
16466 1 5.42324 71.6791 38.521
10480 2 3.60842 71.7231 37.2312
10448 2 6.33689 73.3081 37.2554
10453 2 9.06466 71.7231 37.2312
16351 1 8.15263 73.269 38.5437
16375 1 10.8795 71.6791 38.521
10417 2 11.7931 73.3081 37.2554
10416 2 14.5209 71.7231 37.2312
16170 1 13.6089 73.269 38.5437
16169 1 16.3357 71.6791 38.521
10384 2 17.2494 73.3081 37.2554
16507 1 21.792 71.6791 38.521
15878 1 19.0651 73.269 38.5437
10389 2 19.9771 71.7231 37.2312
16456 1 2.69886 76.4488 38.5878
10478 2 0.881865 76.4808 37.3012
16469 1 5.42576 74.8589 38.566
10483 2 3.60931 74.8941 37.2787
10446 2 9.06555 74.8941 37.2787
16350 1 8.1551 76.4488 38.5878
10447 2 6.3381 76.4808 37.3012
16349 1 10.882 74.8589 38.566
10414 2 11.7943 76.4808 37.3012
10419 2 14.5218 74.8941 37.2787
16143 1 13.6113 76.4488 38.5878
16172 1 16.3382 74.8589 38.566
10383 2 17.2506 76.4808 37.3012
16504 1 21.7945 74.8589 38.566
15877 1 19.0676 76.4488 38.5878
10382 2 19.978 74.8941 37.2787
16455 1 2.70127 79.6287 38.63
10477 2 0.883447 79.6556 37.3443
10476 2 3.61075 78.068 37.3231
16454 1 5.4282 78.0387 38.6091
2390 1 4.52006 79.6813 36.0635
10449 2 9.06698 78.068 37.3231
16327 1 8.15751 79.6287 38.63
10444 2 6.33969 79.6556 37.3443
16352 1 10.8844 78.0387 38.6091
10413 2 11.7959 79.6556 37.3443
2188 1 9.9763 79.6813 36.0635
10412 2 14.5232 78.068 37.3231
16142 1 13.6137 79.6287 38.63
2093 1 15.4325 79.6813 36.0635
16141 1 16.3407 78.0387 38.6091
10380 2 17.2522 79.6556 37.3443
15848 1 19.07 79.6287 38.63
16505 1 21.7969 78.0387 38.6091
10385 2 19.9795 78.068 37.3231
2055 1 20.8888 79.6813 36.0635
16444 1 2.70358 82.8088 38.6702
10474 2 0.885173 82.8318 37.3852
2661 1 1.79266 81.2676 36.0841
10479 2 3.61242 81.2436 37.365
16457 1 5.43056 81.2187 38.6503
2371 1 4.52154 82.8543 36.1042
10442 2 9.06866 81.2436 37.365
16326 1 8.15982 82.8088 38.6702
10443 2 6.34141 82.8318 37.3852
2392 1 7.2489 81.2676 36.0841
16325 1 10.8868 81.2187 38.6503
10410 2 11.7977 82.8318 37.3852
2187 1 9.97778 82.8543 36.1042
10415 2 14.5249 81.2436 37.365
16108 1 13.6161 82.8088 38.6702
2186 1 12.7051 81.2676 36.0841
2082 1 15.434 82.8543 36.1042
16144 1 16.343 81.2187 38.6503
10379 2 17.2539 82.8318 37.3852
2095 1 18.1614 81.2676 36.0841
15847 1 19.0723 82.8088 38.6702
16502 1 21.7993 81.2187 38.6503
10378 2 19.9811 81.2436 37.365
2054 1 20.8903 82.8543 36.1042
2662 1 1.7942 84.4413 36.1237
10472 2 3.61417 84.4204 37.4048
16442 1 5.4328 84.399 38.6896
10445 2 9.0704 84.4204 37.4048
2369 1 7.25044 84.4413 36.1237
16328 1 10.889 84.399 38.6896
10408 2 14.5266 84.4204 37.4048
2189 1 12.7067 84.4413 36.1237
16106 1 16.3453 84.399 38.6896
2080 1 18.1629 84.4413 36.1237
16503 1 21.8015 84.399 38.6896
10381 2 19.9829 84.4204 37.4048
16443 1 2.70575 85.9892 38.7085
10473 2 0.886913 86.0091 37.4239
2647 1 1.79576 87.6164 36.1612
10475 2 3.61588 87.5981 37.4424
16445 1 5.43489 87.5795 38.7269
2370 1 4.5231 86.0287 36.1427
16303 1 8.16199 85.9892 38.7085
10438 2 9.07212 87.5981 37.4424
10440 2 6.34315 86.0091 37.4239
2372 1 7.252 87.6164 36.1612
10409 2 11.7994 86.0091 37.4239
16301 1 10.8911 87.5795 38.7269
2172 1 9.97934 86.0287 36.1427
16107 1 13.6182 85.9892 38.7085
10411 2 14.5284 87.5981 37.4424
2170 1 12.7082 87.6164 36.1612
2081 1 15.4356 86.0287 36.1427
10376 2 17.2556 86.0091 37.4239
16109 1 16.3474 87.5795 38.7269
2083 1 18.1645 87.6164 36.1612
15810 1 19.0745 85.9892 38.7085
16500 1 21.8036 87.5795 38.7269
10374 2 19.9846 87.5981 37.4424
2053 1 20.8918 86.0287 36.1427
16432 1 2.70775 89.1699 38.7447
10470 2 0.888587 89.1872 37.4603
2648 1 1.79726 90.7924 36.1964
10468 2 3.6175 90.7764 37.4776
16430 1 5.43679 90.7603 38.7619
2359 1 4.52464 89.2043 36.1791
16302 1 8.16399 89.1699 38.7447
10439 2 6.34483 89.1872 37.4603
10441 2 9.07374 90.7764 37.4776
2357 1 7.2535 90.7924 36.1964
10406 2 11.8011 89.1872 37.4603
16304 1 10.893 90.7603 38.7619
2171 1 9.98088 89.2043 36.1791
16072 1 13.6202 89.1699 38.7447
10404 2 14.53 90.7764 37.4776
2173 1 12.7097 90.7924 36.1964
2071 1 15.4371 89.2043 36.1791
10375 2 17.2573 89.1872 37.4603
16070 1 16.3493 90.7603 38.7619
2069 1 18.166 90.7924 36.1964
15809 1 19.0765 89.1699 38.7447
16501 1 21.8055 90.7603 38.7619
10377 2 19.9862 90.7764 37.4776
2052 1 20.8934 89.2043 36.1791
16431 1 2.70956 92.3509 38.7786
10469 2 0.890147 92.3658 37.4943
2641 1 1.79866 93.9692 36.2292
10471 2 3.61899 93.9554 37.5104
16433 1 5.43851 93.9415 38.7946
2358 1 4.5261 92.3807 36.2131
16279 1 8.16579 92.3509 38.7786
10434 2 9.07523 93.9554 37.5104
10436 2 6.34639 92.3658 37.4943
2360 1 7.2549 93.9692 36.2292
10405 2 11.8026 92.3658 37.4943
16277 1 10.8947 93.9415 38.7946
2164 1 9.98233 92.3807 36.2131
16071 1 13.622 92.3509 38.7786
10407 2 14.5315 93.9554 37.5104
2162 1 12.7111 93.9692 36.2292
2070 1 15.4386 92.3807 36.2131
10372 2 17.2589 92.3658 37.4943
16073 1 16.351 93.9415 38.7946
2072 1 18.1674 93.9692 36.2292
15765 1 19.0783 92.3509 38.7786
16498 1 21.8072 93.9415 38.7946
10370 2 19.9877 93.9554 37.5104
2051 1 20.8948 92.3807 36.2131
10467 2 0.891565 95.545 37.5258
16420 1 2.71117 95.5321 38.8099
2642 1 1.79992 97.1467 36.2594
10465 2 3.62034 97.1348 37.5405
16418 1 5.44002 97.1229 38.8246
2355 1 4.52743 95.5579 36.2446
10435 2 6.3478 95.545 37.5258
10437 2 9.07657 97.1348 37.5405
16278 1 8.16741 95.5321 38.8099
2353 1 7.25616 97.1467 36.2594
10403 2 11.804 95.545 37.5258
16280 1 10.8963 97.1229 38.8246
2163 1 9.98367 95.5579 36.2446
10401 2 14.5328 97.1348 37.5405
16036 1 13.6236 95.5321 38.8099
2067 1 15.4399 95.5579 36.2446
2165 1 12.7124 97.1467 36.2594
10371 2 17.2603 95.545 37.5258
16034 1 16.3525 97.1229 38.8246
2065 1 18.1686 97.1467 36.2594
16499 1 21.8087 97.1229 38.8246
10373 2 19.9891 97.1348 37.5405
15764 1 19.0799 95.5321 38.8099
2050 1 20.8961 95.5579 36.2446
4890 1 1.80104 100.325 36.2867
10466 2 0.892827 98.7246 37.5545
16419 1 2.71259 98.7137 38.8386
12672 2 3.62152 100.315 37.5678
2354 1 4.52862 98.7357 36.2734
16421 1 5.44134 100.305 38.8518
4608 1 7.25727 100.325 36.2867
12638 2 9.07776 100.315 37.5678
10433 2 6.34907 98.7246 37.5545
16256 1 8.16882 98.7137 38.8386
10402 2 11.8053 98.7246 37.5545
16254 1 10.8976 100.305 38.8518
2161 1 9.98485 98.7357 36.2734
4353 1 12.7135 100.325 36.2867
12608 2 14.534 100.315 37.5678
16035 1 13.6251 98.7137 38.8386
2066 1 15.4411 98.7357 36.2734
4200 1 18.1698 100.325 36.2867
10369 2 17.2615 98.7246 37.5545
16037 1 16.3538 100.305 38.8518
12574 2 19.9902 100.315 37.5678
16497 1 21.8101 100.305 38.8518
15719 1 19.0813 98.7137 38.8386
2049 1 20.8973 98.7357 36.2734
16487 1 0.760034 53.6554 40.6184
22151 2 1.53574 51.8554 39.4429
16493 1 3.4165 51.959 40.7086
22118 2 4.30622 53.5549 39.4024
16394 1 6.21627 53.6554 40.6184
16393 1 8.87274 51.959 40.7086
22120 2 6.99197 51.8554 39.4429
16199 1 11.6725 53.6554 40.6184
21991 2 9.76246 53.5549 39.4024
21990 2 12.4482 51.8554 39.4429
16205 1 14.329 51.959 40.7086
21766 2 15.2187 53.5549 39.4024
15917 1 17.1287 53.6554 40.6184
21768 2 17.9045 51.8554 39.4429
15916 1 19.7852 51.959 40.7086
21448 2 20.6749 53.5549 39.4024
22152 2 1.63349 55.3537 39.3707
16485 1 3.55823 55.3727 40.5579
16395 1 9.01447 55.3727 40.5579
22116 2 7.08972 55.3537 39.3707
21992 2 12.546 55.3537 39.3707
16197 1 14.4707 55.3727 40.5579
21764 2 18.0022 55.3537 39.3707
15918 1 19.9269 55.3727 40.5579
16486 1 0.824388 56.966 40.6934
22148 2 1.77484 58.859 39.5046
22117 2 4.47028 57.2241 39.4293
16386 1 6.28063 56.966 40.6934
16488 1 3.53266 58.6324 40.8486
16384 1 8.9889 58.6324 40.8486
22119 2 7.23108 58.859 39.5046
16198 1 11.7369 56.966 40.6934
21987 2 9.92652 57.2241 39.4293
21985 2 12.6873 58.859 39.5046
21765 2 15.3828 57.2241 39.4293
16200 1 14.4451 58.6324 40.8486
15911 1 17.1931 56.966 40.6934
21767 2 18.1436 58.859 39.5046
21447 2 20.839 57.2241 39.4293
15909 1 19.9014 58.6324 40.8486
16476 1 0.822004 60.2864 40.8895
22149 2 1.78386 62.0829 39.6065
16385 1 6.27824 60.2864 40.8895
22110 2 4.50751 60.4801 39.563
16474 1 3.57028 61.9336 40.92
16387 1 9.02651 61.9336 40.92
22108 2 7.2401 62.0829 39.6065
16187 1 11.7345 60.2864 40.8895
21986 2 9.96375 60.4801 39.563
21988 2 12.6963 62.0829 39.6065
21758 2 15.42 60.4801 39.563
16185 1 14.4828 61.9336 40.92
15910 1 17.1907 60.2864 40.8895
21756 2 18.1526 62.0829 39.6065
21446 2 20.8762 60.4801 39.563
15912 1 19.939 61.9336 40.92
16475 1 0.854368 63.5594 40.9514
22144 2 1.78521 65.2744 39.6822
22109 2 4.51256 63.6811 39.6473
16477 1 3.5898 65.1786 40.9802
16370 1 6.31061 63.5594 40.9514
16368 1 9.04603 65.1786 40.9802
22111 2 7.24145 65.2744 39.6822
21975 2 9.9688 63.6811 39.6473
16186 1 11.7668 63.5594 40.9514
21973 2 12.6977 65.2744 39.6822
21757 2 15.425 63.6811 39.6473
16188 1 14.5023 65.1786 40.9802
15897 1 17.2231 63.5594 40.9514
21759 2 18.1539 65.2744 39.6822
21439 2 20.8813 63.6811 39.6473
15895 1 19.9585 65.1786 40.9802
16464 1 0.866996 66.7891 41.0065
22095 2 4.51374 66.8672 39.7138
16369 1 6.32323 66.7891 41.0065
16167 1 11.7795 66.7891 41.0065
21974 2 9.96998 66.8672 39.7138
21742 2 15.4262 66.8672 39.7138
15896 1 17.2357 66.7891 41.0065
21438 2 20.8825 66.8672 39.7138
22145 2 1.78629 68.4593 39.7427
16463 1 0.873801 69.9972 41.0568
16462 1 3.59899 68.3952 41.0321
22094 2 4.51524 70.0514 39.7697
16371 1 9.05523 68.3952 41.0321
22093 2 7.24252 68.4593 39.7427
16347 1 6.33004 69.9972 41.0568
16166 1 11.7863 69.9972 41.0568
21955 2 9.97148 70.0514 39.7697
21976 2 12.6988 68.4593 39.7427
16165 1 14.5115 68.3952 41.0321
21741 2 15.4277 70.0514 39.7697
21740 2 18.155 68.4593 39.7427
15875 1 17.2425 69.9972 41.0568
15898 1 19.9677 68.3952 41.0321
21423 2 20.884 70.0514 39.7697
22140 2 1.78813 71.6435 39.7951
16452 1 0.87816 73.1946 41.1042
16465 1 3.60427 71.5969 41.0808
22079 2 4.51735 73.2355 39.8194
16345 1 9.06051 71.5969 41.0808
22096 2 7.24436 71.6435 39.7951
16346 1 6.3344 73.1946 41.1042
16139 1 11.7906 73.1946 41.1042
21954 2 9.97358 73.2355 39.8194
21953 2 12.7006 71.6435 39.7951
16168 1 14.5167 71.5969 41.0808
21718 2 15.4298 73.2355 39.8194
21743 2 18.1568 71.6435 39.7951
15874 1 17.2469 73.1946 41.1042
15873 1 19.973 71.5969 41.0808
21422 2 20.8861 73.2355 39.8194
22141 2 1.79039 74.8275 39.8427
16451 1 0.881614 76.3865 41.1492
16450 1 3.60808 74.791 41.127
22078 2 4.51969 76.4193 39.8653
16348 1 9.06431 74.791 41.127
22077 2 7.24662 74.8275 39.8427
16323 1 6.33785 76.3865 41.1492
16138 1 11.7941 76.3865 41.1492
21928 2 9.97593 76.4193 39.8653
21956 2 12.7029 74.8275 39.8427
16137 1 14.5206 74.791 41.127
21717 2 15.4322 76.4193 39.8653
21716 2 18.1591 74.8275 39.8427
15845 1 17.2503 76.3865 41.1492
15876 1 19.9768 74.791 41.127
21399 2 20.8884 76.4193 39.8653
16440 1 0.884643 79.5755 41.192
22136 2 1.79277 78.0112 39.8872
16453 1 3.61129 77.9812 41.1709
22063 2 4.52208 79.6029 39.9085
16322 1 6.34088 79.5755 41.192
16321 1 9.06753 77.9812 41.1709
22080 2 7.24901 78.0112 39.8872
16104 1 11.7971 79.5755 41.192
21927 2 9.97832 79.6029 39.9085
21926 2 12.7052 78.0112 39.8872
16140 1 14.5238 77.9812 41.1709
21686 2 15.4346 79.6029 39.9085
15844 1 17.2534 79.5755 41.192
21719 2 18.1615 78.0112 39.8872
15843 1 19.98 77.9812 41.1709
21398 2 20.8908 79.6029 39.9085
16439 1 0.887382 82.7629 41.2328
22137 2 1.79513 81.1946 39.9293
16438 1 3.61417 81.1693 41.2127
22062 2 4.52439 82.7863 39.9495
16299 1 6.34362 82.7629 41.2328
16324 1 9.0704 81.1693 41.2127
22061 2 7.25137 81.1946 39.9293
16103 1 11.7999 82.7629 41.2328
21900 2 9.98063 82.7863 39.9495
21929 2 12.7076 81.1946 39.9293
16102 1 14.5266 81.1693 41.2127
21685 2 15.4369 82.7863 39.9495
15807 1 17.2561 82.7629 41.2328
21684 2 18.1638 81.1946 39.9293
15846 1 19.9829 81.1693 41.2127
21367 2 20.8931 82.7863 39.9495
16428 1 0.889865 85.9493 41.2715
22132 2 1.79738 84.3779 39.9691
16441 1 3.61677 84.3562 41.2524
22047 2 4.52657 85.9695 39.9882
16297 1 9.07301 84.3562 41.2524
16298 1 6.3461 85.9493 41.2715
22064 2 7.25362 84.3779 39.9691
16068 1 11.8023 85.9493 41.2715
21899 2 9.98281 85.9695 39.9882
16105 1 14.5293 84.3562 41.2524
21647 2 15.439 85.9695 39.9882
21898 2 12.7099 84.3779 39.9691
15806 1 17.2586 85.9493 41.2715
21687 2 18.1661 84.3779 39.9691
15805 1 19.9855 84.3562 41.2524
21366 2 20.8953 85.9695 39.9882
22133 2 1.79948 87.5611 40.0067
16426 1 3.61913 87.5423 41.29
16300 1 9.07537 87.5423 41.29
22045 2 7.25572 87.5611 40.0067
16066 1 14.5316 87.5423 41.29
21901 2 12.712 87.5611 40.0067
21645 2 18.1682 87.5611 40.0067
15808 1 19.9878 87.5423 41.29
16427 1 0.892102 89.1352 41.308
22128 2 1.8014 90.7442 40.042
22046 2 4.52858 89.1526 40.0247
16429 1 3.62125 90.728 41.3253
16275 1 6.34834 89.1352 41.308
16273 1 9.07749 90.728 41.3253
22048 2 7.25764 90.7442 40.042
16067 1 11.8046 89.1352 41.308
21872 2 9.98482 89.1526 40.0247
21646 2 15.4411 89.1526 40.0247
16069 1 14.5337 90.728 41.3253
21870 2 12.7139 90.7442 40.042
15762 1 17.2608 89.1352 41.308
21648 2 18.1701 90.7442 40.042
21327 2 20.8973 89.1526 40.0247
15760 1 19.99 90.728 41.3253
16416 1 0.894098 92.3207 41.342
22129 2 1.80313 93.9275 40.0748
22031 2 4.53041 92.3358 40.0587
16414 1 3.62313 93.9134 41.3581
16274 1 6.35034 92.3207 41.342
16276 1 9.07937 93.9134 41.3581
22029 2 7.25937 93.9275 40.0748
16032 1 11.8066 92.3207 41.342
21871 2 9.98664 92.3358 40.0587
21607 2 15.4429 92.3358 40.0587
16030 1 14.5356 93.9134 41.3581
21873 2 12.7156 93.9275 40.0748
15761 1 17.2628 92.3207 41.342
21605 2 18.1718 93.9275 40.0748
21326 2 20.8991 92.3358 40.0587
15763 1 19.9918 93.9134 41.3581
16415 1 0.895862 95.5061 41.3735
22124 2 1.80466 97.1108 40.1049
16417 1 3.62478 97.0988 41.3883
22030 2 4.53204 95.5191 40.0902
16250 1 9.08102 97.0988 41.3883
16252 1 6.3521 95.5061 41.3735
22032 2 7.2609 97.1108 40.1049
16031 1 11.8083 95.5061 41.3735
21844 2 9.98828 95.5191 40.0902
16033 1 14.5373 97.0988 41.3883
21606 2 15.4445 95.5191 40.0902
21842 2 12.7171 97.1108 40.1049
15716 1 17.2646 95.5061 41.3735
21608 2 18.1734 97.1108 40.1049
15714 1 19.9935 97.0988 41.3883
21280 2 20.9008 95.5191 40.0902
16408 1 0.897402 98.6915 41.4023
22125 2 1.806 100.294 40.1322
16406 1 3.62621 100.284 41.4155
22016 2 4.53347 98.7025 40.1189
16251 1 6.35364 98.6915 41.4023
16253 1 9.08245 100.284 41.4155
22014 2 7.26224 100.294 40.1322
16000 1 11.8099 98.6915 41.4023
21843 2 9.98971 98.7025 40.1189
15998 1 14.5387 100.284 41.4155
21568 2 15.4459 98.7025 40.1189
21845 2 12.7185 100.294 40.1322
15715 1 17.2661 98.6915 41.4023
21566 2 18.1747 100.294 40.1322
15717 1 19.9949 100.284 41.4155
21279 2 20.9022 98.7025 40.1189
16483 1 1.67654 51.9467 43.1961
22114 2 2.56623 53.6088 41.931
16382 1 4.41676 53.6046 43.1851
22113 2 5.26591 51.9247 41.9607
22112 2 3.5042 51.9169 44.4923
16392 1 7.13278 51.9467 43.1961
21983 2 8.02247 53.6088 41.931
21978 2 8.96043 51.9169 44.4923
16195 1 9.873 53.6046 43.1851
21989 2 10.7221 51.9247 41.9607
15907 1 15.3292 53.6046 43.1851
16194 1 12.589 51.9467 43.1961
21762 2 13.4787 53.6088 41.931
21760 2 14.4167 51.9169 44.4923
15915 1 18.0453 51.9467 43.1961
21761 2 16.1784 51.9248 41.9607
22150 2 21.6346 51.9248 41.9607
15552 1 20.7855 53.6046 43.1851
21445 2 18.935 53.6088 41.931
21441 2 19.8729 51.9169 44.4923
16484 1 1.70936 55.2317 43.2112
22115 2 5.33176 55.2843 41.9306
16380 1 7.1656 55.2317 43.2112
21981 2 10.788 55.2843 41.9306
16196 1 12.6218 55.2317 43.2112
15905 1 18.0781 55.2317 43.2112
21763 2 16.2442 55.2843 41.9306
22146 2 21.7005 55.2843 41.9306
22106 2 2.63682 56.9499 41.9645
16472 1 1.75694 58.509 43.3003
16381 1 4.46185 56.8678 43.2476
22104 2 5.39026 58.6287 42.0376
21982 2 8.09305 56.9499 41.9645
16383 1 7.21318 58.509 43.3003
16183 1 9.91809 56.8678 43.2476
21984 2 10.8465 58.6287 42.0376
15906 1 15.3743 56.8678 43.2476
21754 2 13.5493 56.9499 41.9645
16181 1 12.6694 58.509 43.3003
15908 1 18.1257 58.509 43.3003
21752 2 16.3027 58.6287 42.0376
15551 1 20.8306 56.8678 43.2476
21444 2 19.0055 56.9499 41.9645
22147 2 21.759 58.6287 42.0376
22105 2 2.67792 60.2913 42.0973
16473 1 1.76454 61.8011 43.4372
16366 1 4.49104 60.1575 43.3782
22107 2 5.41446 61.9214 42.1484
21971 2 8.13416 60.2913 42.0973
16364 1 7.22078 61.8011 43.4372
16182 1 9.94728 60.1575 43.3782
21969 2 10.8707 61.9214 42.1484
15893 1 15.4035 60.1575 43.3782
21753 2 13.5904 60.2913 42.0973
16184 1 12.677 61.8011 43.4372
15891 1 18.1333 61.8011 43.4372
21755 2 16.3269 61.9214 42.1484
15550 1 20.8598 60.1575 43.3782
21437 2 19.0466 60.2913 42.0973
22142 2 21.7832 61.9214 42.1484
16460 1 1.77638 65.0643 43.5148
22091 2 2.69086 63.5405 42.1917
16365 1 4.49866 63.4367 43.4786
22089 2 5.42179 65.1522 42.2299
16367 1 7.23262 65.0643 43.5148
21970 2 8.1471 63.5405 42.1917
16163 1 9.9549 63.4367 43.4786
21972 2 10.878 65.1522 42.2299
15892 1 15.4111 63.4367 43.4786
16161 1 12.6889 65.0643 43.5148
21738 2 13.6033 63.5405 42.1917
15894 1 18.1451 65.0643 43.5148
21736 2 16.3343 65.1522 42.2299
22143 2 21.7905 65.1522 42.2299
15543 1 20.8674 63.4367 43.4786
21436 2 19.0596 63.5405 42.1917
16461 1 1.78444 68.3001 43.5775
22090 2 2.69549 66.7592 42.2641
16343 1 4.50909 66.685 43.5475
22092 2 5.42515 68.3629 42.2951
16341 1 7.24068 68.3001 43.5775
21951 2 8.15172 66.7592 42.2641
16162 1 9.96533 66.685 43.5475
21949 2 10.8814 68.3629 42.2951
15871 1 15.4216 66.685 43.5475
16164 1 12.6969 68.3001 43.5775
21737 2 13.608 66.7592 42.2641
15869 1 18.1532 68.3001 43.5775
21739 2 16.3376 68.3629 42.2951
22138 2 21.7939 68.3629 42.2951
15542 1 20.8778 66.685 43.5475
21421 2 19.0642 66.7592 42.2641
22075 2 2.69842 69.9645 42.3238
16342 1 4.51541 69.9107 43.6055
21950 2 8.15466 69.9645 42.3238
16135 1 9.97165 69.9107 43.6055
15870 1 15.4279 69.9107 43.6055
21714 2 13.6109 69.9645 42.3238
15527 1 20.8841 69.9107 43.6055
21420 2 19.0671 69.9645 42.3238
16448 1 1.78966 71.5178 43.6319
22074 2 2.70118 73.1633 42.3762
22073 2 5.42792 71.5645 42.3507
16319 1 4.51983 73.1221 43.6572
16344 1 7.2459 71.5178 43.6319
21924 2 8.15742 73.1633 42.3762
21952 2 10.8842 71.5645 42.3507
16134 1 9.97607 73.1221 43.6572
16133 1 12.7021 71.5178 43.6319
15841 1 15.4323 73.1221 43.6572
21713 2 13.6137 73.1633 42.3762
15872 1 18.1584 71.5178 43.6319
21712 2 16.3404 71.5645 42.3507
22139 2 21.7966 71.5645 42.3507
15526 1 20.8885 73.1221 43.6572
21397 2 19.0699 73.1633 42.3762
16449 1 1.79355 74.7244 43.6815
22059 2 2.70392 76.3581 42.4239
22076 2 5.43067 74.7611 42.4005
16318 1 4.52336 76.325 43.705
16317 1 7.24979 74.7244 43.6815
21923 2 8.16016 76.3581 42.4239
21922 2 10.8869 74.7611 42.4005
16100 1 9.9796 76.325 43.705
16136 1 12.706 74.7244 43.6815
15840 1 15.4358 76.325 43.705
21682 2 13.6164 76.3581 42.4239
15839 1 18.1623 74.7244 43.6815
21715 2 16.3432 74.7611 42.4005
22134 2 21.7994 74.7611 42.4005
15503 1 20.8921 76.325 43.705
21396 2 19.0726 76.3581 42.4239
16436 1 1.79682 77.9244 43.7277
22058 2 2.70658 79.5502 42.4684
16295 1 4.52643 79.5227 43.7498
22057 2 5.43338 77.9544 42.4465
16320 1 7.25306 77.9244 43.7277
21896 2 8.16282 79.5502 42.4684
16099 1 9.98267 79.5227 43.7498
21925 2 10.8896 77.9544 42.4465
15803 1 15.4389 79.5227 43.7498
16098 1 12.7093 77.9244 43.7277
21681 2 13.6191 79.5502 42.4684
15842 1 18.1655 77.9244 43.7277
21680 2 16.3459 77.9544 42.4465
22135 2 21.8021 77.9544 42.4465
15502 1 20.8951 79.5227 43.7498
21365 2 19.0753 79.5502 42.4684
16437 1 1.79973 81.1202 43.7712
22043 2 2.7091 82.7406 42.5103
16294 1 4.5292 82.7171 43.7919
22060 2 5.43598 81.1456 42.4897
16293 1 7.25597 81.1202 43.7712
21895 2 8.16534 82.7406 42.5103
16064 1 9.98543 82.7171 43.7919
21894 2 10.8922 81.1456 42.4897
15802 1 15.4417 82.7171 43.7919
16101 1 12.7122 81.1202 43.7712
21643 2 13.6216 82.7406 42.5103
15801 1 18.1684 81.1202 43.7712
21683 2 16.3485 81.1456 42.4897
22130 2 21.8047 81.1456 42.4897
15471 1 20.8979 82.7171 43.7919
21364 2 19.0778 82.7406 42.5103
16424 1 1.80236 84.3135 43.8121
22042 2 2.71144 85.9297 42.5498
16271 1 4.5317 85.9095 43.8317
22041 2 5.43841 84.3352 42.5303
16296 1 7.2586 84.3135 43.8121
21868 2 8.16767 85.9297 42.5498
16063 1 9.98794 85.9095 43.8317
21897 2 10.8946 84.3352 42.5303
15758 1 15.4442 85.9095 43.8317
16062 1 12.7148 84.3135 43.8121
21642 2 13.6239 85.9297 42.5498
15804 1 18.1711 84.3135 43.8121
21641 2 16.3509 84.3352 42.5303
22131 2 21.8071 84.3352 42.5303
15470 1 20.9004 85.9095 43.8317
21325 2 19.0802 85.9297 42.5498
16425 1 1.80474 87.5051 43.8506
22044 2 5.44065 87.5239 42.5686
16269 1 7.26097 87.5051 43.8506
21866 2 10.8969 87.5239 42.5686
16065 1 12.7172 87.5051 43.8506
15756 1 18.1735 87.5051 43.8506
21644 2 16.3531 87.5239 42.5686
22126 2 21.8094 87.5239 42.5686
22027 2 2.71357 89.1179 42.5868
16412 1 1.80687 90.6955 43.8866
16270 1 4.53395 89.1004 43.8689
22025 2 5.44268 90.7118 42.6043
21867 2 8.16981 89.1179 42.5868
16272 1 7.26311 90.6955 43.8866
16028 1 9.99019 89.1004 43.8689
21869 2 10.8989 90.7118 42.6043
15757 1 15.4464 89.1004 43.8689
21603 2 13.626 89.1179 42.5868
16026 1 12.7193 90.6955 43.8866
15759 1 18.1756 90.6955 43.8866
21601 2 16.3552 90.7118 42.6043
15431 1 20.9027 89.1004 43.8689
21324 2 19.0823 89.1179 42.5868
22127 2 21.8114 90.7118 42.6043
22026 2 2.7155 92.3056 42.6212
16413 1 1.80877 93.8853 43.9199
16248 1 4.53597 92.2905 43.9036
22028 2 5.4445 93.8993 42.6375
21840 2 8.17174 92.3056 42.6212
16246 1 7.265 93.8853 43.9199
16027 1 9.9922 92.2905 43.9036
21838 2 10.9007 93.8993 42.6375
15712 1 15.4484 92.2905 43.9036
21602 2 13.628 92.3056 42.6212
16029 1 12.7212 93.8853 43.9199
15710 1 18.1775 93.8853 43.9199
21604 2 16.357 93.8993 42.6375
15430 1 20.9047 92.2905 43.9036
21278 2 19.0842 92.3056 42.6212
22122 2 21.8132 93.8993 42.6375
16404 1 1.81044 97.0746 43.9504
22012 2 2.71722 95.493 42.653
16247 1 4.53775 95.4799 43.9355
22010 2 5.44612 97.0866 42.6678
16249 1 7.26668 97.0746 43.9504
21839 2 8.17346 95.493 42.653
15996 1 9.99399 95.4799 43.9355
21841 2 10.9024 97.0866 42.6678
15711 1 15.4502 95.4799 43.9355
15994 1 12.7229 97.0746 43.9504
21564 2 13.6297 95.493 42.653
15713 1 18.1792 97.0746 43.9504
21562 2 16.3586 97.0866 42.6678
22123 2 21.8148 97.0866 42.6678
15385 1 20.9065 95.4799 43.9355
21277 2 19.0859 95.493 42.653
16405 1 1.81189 100.264 43.9779
22011 2 2.71873 98.6802 42.6819
16232 1 4.53931 98.6691 43.9645
22013 2 5.44752 100.274 42.6952
16230 1 7.26813 100.264 43.9779
21816 2 8.17496 98.6802 42.6819
15995 1 9.99555 98.6691 43.9645
21814 2 10.9038 100.274 42.6952
15672 1 15.4518 98.6691 43.9645
15997 1 12.7244 100.264 43.9779
21563 2 13.6312 98.6802 42.6819
15670 1 18.1806 100.264 43.9779
21565 2 16.36 100.274 42.6952
22121 2 21.8162 100.274 42.6952
15384 1 20.908 98.6691 43.9645
21231 2 19.0874 98.6802 42.6819
22102 2 0.791962 53.5707 44.4908
16378 1 2.63024 53.5411 45.7614
22098 2 1.72596 51.8898 47.0404
16377 1 5.34968 51.8997 45.7507
21963 2 4.46315 53.5321 47.0499
21979 2 6.2482 53.5707 44.4908
16179 1 8.08648 53.5411 45.7614
21977 2 7.18219 51.8898 47.0404
21750 2 11.7044 53.5707 44.4908
16193 1 10.8059 51.8997 45.7507
21746 2 9.91939 53.5321 47.0499
15903 1 13.5427 53.5411 45.7614
21430 2 15.3756 53.5321 47.0499
21745 2 12.6384 51.8898 47.0404
21442 2 17.1607 53.5707 44.4908
15902 1 16.2622 51.8997 45.7507
21440 2 18.0947 51.8898 47.0404
16482 1 21.7184 51.8997 45.7507
15549 1 18.999 53.5411 45.7614
21064 2 20.8319 53.5321 47.0499
22099 2 1.74596 55.1696 47.0675
22100 2 3.53999 55.2197 44.5035
16379 1 5.3715 55.1775 45.7795
21980 2 8.99623 55.2197 44.5035
21961 2 7.2022 55.1696 47.0675
16177 1 10.8277 55.1775 45.7795
21748 2 14.4525 55.2197 44.5035
21747 2 12.6584 55.1696 47.0675
15904 1 16.284 55.1775 45.7795
21428 2 18.1147 55.1696 47.0675
21443 2 19.9087 55.2197 44.5035
16470 1 21.7402 55.1775 45.7795
22101 2 0.831992 56.865 44.532
16362 1 2.65776 56.8102 45.8097
22083 2 1.7688 58.4372 47.1307
21962 2 4.48586 56.804 47.0945
21967 2 6.28823 56.865 44.532
22103 2 3.57533 58.5092 44.5766
16360 1 5.40066 58.4418 45.8492
16178 1 8.114 56.8102 45.8097
21965 2 9.03157 58.5092 44.5766
21964 2 7.22504 58.4372 47.1307
21749 2 11.7445 56.865 44.532
21730 2 9.9421 56.804 47.0945
16180 1 10.8569 58.4418 45.8492
15889 1 13.5702 56.8102 45.8097
21429 2 15.3983 56.804 47.0945
21751 2 14.4878 58.5092 44.5766
21728 2 12.6813 58.4372 47.1307
21434 2 17.2007 56.865 44.532
15887 1 16.3131 58.4418 45.8492
21431 2 18.1375 58.4372 47.1307
15548 1 19.0265 56.8102 45.8097
21063 2 20.8546 56.804 47.0945
21432 2 19.944 58.5092 44.5766
16471 1 21.7694 58.4418 45.8492
22087 2 0.861358 60.1537 44.6294
16361 1 2.68367 60.0755 45.8985
22084 2 1.78637 61.7023 47.2176
21943 2 4.50655 60.0701 47.1725
22085 2 3.59818 61.7931 44.6809
16363 1 5.41871 61.711 45.9517
21966 2 6.3176 60.1537 44.6294
16159 1 8.13991 60.0755 45.8985
21968 2 9.05442 61.7931 44.6809
21941 2 7.24261 61.7023 47.2176
21734 2 11.7738 60.1537 44.6294
21729 2 9.96279 60.0701 47.1725
16157 1 10.875 61.711 45.9517
15888 1 13.5961 60.0755 45.8985
21414 2 15.419 60.0701 47.1725
21732 2 14.5107 61.7931 44.6809
21731 2 12.6988 61.7023 47.2176
21433 2 17.2301 60.1537 44.6294
15890 1 16.3312 61.711 45.9517
21412 2 18.1551 61.7023 47.2176
15541 1 19.0524 60.0755 45.8985
21062 2 20.8753 60.0701 47.1725
21435 2 19.9669 61.7931 44.6809
16458 1 21.7874 61.711 45.9517
22086 2 0.875562 63.4231 44.7269
16339 1 2.69443 63.3443 46.0008
22067 2 1.79608 64.957 47.3039
22088 2 3.6073 65.045 44.7681
16337 1 5.42551 64.9732 46.0433
21942 2 4.52028 63.3317 47.262
21947 2 6.3318 63.4231 44.7269
21945 2 9.06354 65.045 44.7681
16158 1 8.15066 63.3443 46.0008
21944 2 7.25232 64.957 47.3039
21733 2 11.788 63.4231 44.7269
16160 1 10.8817 64.9732 46.0433
21706 2 9.97652 63.3317 47.262
21735 2 14.5198 65.045 44.7681
15867 1 13.6069 63.3443 46.0008
21413 2 15.4328 63.3317 47.262
21704 2 12.7086 64.957 47.3039
21418 2 17.2443 63.4231 44.7269
15865 1 16.338 64.9732 46.0433
21415 2 18.1648 64.957 47.3039
21416 2 19.976 65.045 44.7681
16459 1 21.7942 64.9732 46.0433
15540 1 19.0631 63.3443 46.0008
21055 2 20.889 63.3317 47.262
22071 2 0.881708 66.6614 44.8052
16338 1 2.70021 66.5974 46.081
22068 2 1.80086 68.1949 47.3787
22069 2 3.61172 68.2737 44.8391
16340 1 5.43078 68.217 46.1154
21916 2 4.52694 66.5778 47.3427
21946 2 6.33795 66.6614 44.8052
21948 2 9.06796 68.2737 44.8391
16131 1 8.15644 66.5974 46.081
21914 2 7.25709 68.1949 47.3787
21710 2 11.7942 66.6614 44.8052
16129 1 10.887 68.217 46.1154
21705 2 9.98318 66.5778 47.3427
21708 2 14.5242 68.2737 44.8391
15866 1 13.6127 66.5974 46.081
21390 2 15.4394 66.5778 47.3427
21707 2 12.7133 68.1949 47.3787
21417 2 17.2504 66.6614 44.8052
15868 1 16.3433 68.217 46.1154
21388 2 18.1696 68.1949 47.3787
21419 2 19.9804 68.2737 44.8391
16446 1 21.7995 68.217 46.1154
15525 1 19.0689 66.5974 46.081
21054 2 20.8957 66.5778 47.3427
22070 2 0.885178 69.8827 44.8703
16315 1 2.70477 69.8327 46.147
21915 2 4.53057 69.8089 47.4121
21920 2 6.34142 69.8827 44.8703
16130 1 8.16101 69.8327 46.147
21709 2 11.7977 69.8827 44.8703
21674 2 9.98681 69.8089 47.4121
15837 1 13.6172 69.8327 46.147
21389 2 15.443 69.8089 47.4121
21394 2 17.2539 69.8827 44.8703
15524 1 19.0735 69.8327 46.147
21039 2 20.8993 69.8089 47.4121
22051 2 1.80379 71.4201 47.4434
22055 2 0.88795 73.0939 44.9267
16314 1 2.70829 73.0541 46.2043
22072 2 3.61472 71.4893 44.8993
16313 1 5.43474 71.4448 46.1765
21888 2 4.53312 73.029 47.4728
21918 2 9.07096 71.4893 44.8993
21917 2 7.26003 71.4201 47.4434
21919 2 6.34419 73.0939 44.9267
16096 1 8.16453 73.0541 46.2043
16132 1 10.891 71.4448 46.1765
21678 2 11.8004 73.0939 44.9267
21673 2 9.98935 73.029 47.4728
21711 2 14.5272 71.4893 44.8993
21672 2 12.7163 71.4201 47.4434
15836 1 13.6208 73.0541 46.2043
21358 2 15.4456 73.029 47.4728
15835 1 16.3472 71.4448 46.1765
21391 2 18.1725 71.4201 47.4434
21393 2 17.2567 73.0939 44.9267
21392 2 19.9834 71.4893 44.8993
16447 1 21.8035 71.4448 46.1765
15501 1 19.077 73.0541 46.2043
21038 2 20.9018 73.029 47.4728
22052 2 1.80613 74.636 47.5006
22054 2 0.890554 76.2984 44.9775
16291 1 2.71126 76.2659 46.256
22053 2 3.61738 74.6968 44.9527
16316 1 5.43794 74.661 46.2308
21887 2 4.53534 76.2414 47.5272
21921 2 9.07362 74.6968 44.9527
21886 2 7.26237 74.636 47.5006
21892 2 6.34679 76.2984 44.9775
16095 1 8.1675 76.2659 46.256
16094 1 10.8942 74.661 46.2308
21677 2 11.803 76.2984 44.9775
21635 2 9.99158 76.2414 47.5272
21676 2 14.5299 74.6968 44.9527
21675 2 12.7186 74.636 47.5006
15799 1 13.6237 76.2659 46.256
21357 2 15.4478 76.2414 47.5272
15838 1 16.3504 74.661 46.2308
21356 2 18.1748 74.636 47.5006
21362 2 17.2593 76.2984 44.9775
21395 2 19.9861 74.6968 44.9527
16434 1 21.8067 74.661 46.2308
15500 1 19.08 76.2659 46.256
21015 2 20.9041 76.2414 47.5272
22039 2 0.893068 79.4984 45.0243
16290 1 2.71394 79.4712 46.3036
22056 2 3.61994 77.8989 45.0013
16289 1 5.44075 77.8692 46.2803
21891 2 6.34931 79.4984 45.0243
21890 2 9.07618 77.8989 45.0013
16060 1 8.17017 79.4712 46.3036
21639 2 11.8055 79.4984 45.0243
16097 1 10.897 77.8692 46.2803
21679 2 14.5324 77.8989 45.0013
15798 1 13.6264 79.4712 46.3036
21361 2 17.2618 79.4984 45.0243
15797 1 16.3532 77.8692 46.2803
21360 2 19.9887 77.8989 45.0013
16435 1 21.8095 77.8692 46.2803
15469 1 19.0827 79.4712 46.3036
22038 2 0.895464 82.6953 45.0679
16267 1 2.7164 82.672 46.3479
22037 2 3.6224 81.0972 45.0465
16292 1 5.44331 81.0721 46.3262
21864 2 6.3517 82.6953 45.0679
21893 2 9.07864 81.0972 45.0465
16059 1 8.17264 82.672 46.3479
21638 2 11.8079 82.6953 45.0679
16058 1 10.8996 81.0721 46.3262
21637 2 14.5349 81.0972 45.0465
15754 1 13.6289 82.672 46.3479
21322 2 17.2642 82.6953 45.0679
15800 1 16.3558 81.0721 46.3262
21363 2 19.9911 81.0972 45.0465
16422 1 21.812 81.0721 46.3262
15468 1 19.0851 82.672 46.3479
22023 2 0.897707 85.89 45.1087
16266 1 2.71868 85.8699 46.3893
22040 2 3.62473 84.2929 45.0886
16265 1 5.44568 84.2713 46.369
21862 2 9.08096 84.2929 45.0886
21863 2 6.35394 85.89 45.1087
16024 1 8.17491 85.8699 46.3893
21599 2 11.8102 85.89 45.1087
16061 1 10.9019 84.2713 46.369
21640 2 14.5372 84.2929 45.0886
15753 1 13.6312 85.8699 46.3893
21321 2 17.2664 85.89 45.1087
15752 1 16.3582 84.2713 46.369
21320 2 19.9934 84.2929 45.0886
16423 1 21.8144 84.2713 46.369
15429 1 19.0874 85.8699 46.3893
22021 2 3.62688 87.4868 45.128
16268 1 5.44786 87.468 46.4088
21865 2 9.08312 87.4868 45.128
16022 1 10.9041 87.468 46.4088
21597 2 14.5394 87.4868 45.128
15755 1 16.3603 87.468 46.4088
21323 2 19.9956 87.4868 45.128
16410 1 21.8166 87.468 46.4088
16244 1 2.72075 89.0657 46.4277
22022 2 0.899772 89.0832 45.1466
22024 2 3.62885 90.6794 45.1646
16242 1 5.44984 90.6631 46.4458
16023 1 8.17699 89.0657 46.4277
21836 2 6.35601 89.0832 45.1466
21834 2 9.08509 90.6794 45.1646
21598 2 11.8122 89.0832 45.1466
16025 1 10.9061 90.6631 46.4458
15708 1 13.6332 89.0657 46.4277
21600 2 14.5413 90.6794 45.1646
21275 2 17.2685 89.0832 45.1466
15706 1 16.3623 90.6631 46.4458
15428 1 19.0895 89.0657 46.4277
21273 2 19.9976 90.6794 45.1646
16411 1 21.8186 90.6631 46.4458
22008 2 0.901648 92.2753 45.1818
16243 1 2.72264 92.2601 46.4632
22006 2 3.63063 93.8711 45.1983
16245 1 5.45162 93.857 46.4799
21835 2 6.35789 92.2753 45.1818
21837 2 9.08687 93.8711 45.1983
15992 1 8.17887 92.2601 46.4632
21560 2 11.8141 92.2753 45.1818
15990 1 10.9079 93.857 46.4799
21558 2 14.5431 93.8711 45.1983
15707 1 13.6351 92.2601 46.4632
21274 2 17.2704 92.2753 45.1818
15709 1 16.3641 93.857 46.4799
21276 2 19.9993 93.8711 45.1983
15383 1 19.0914 92.2601 46.4632
16402 1 21.8203 93.857 46.4799
22007 2 0.90333 95.4668 45.2141
16228 1 2.72432 95.4537 46.4958
22009 2 3.63222 97.0623 45.2291
16226 1 5.45321 97.0502 46.511
21810 2 9.08846 97.0623 45.2291
21812 2 6.35957 95.4668 45.2141
15991 1 8.18056 95.4537 46.4958
21559 2 11.8158 95.4668 45.2141
15993 1 10.9094 97.0502 46.511
21561 2 14.5447 97.0623 45.2291
15668 1 13.6368 95.4537 46.4958
21228 2 17.272 95.4668 45.2141
15666 1 16.3657 97.0502 46.511
21226 2 20.0009 97.0623 45.2291
16403 1 21.8219 97.0502 46.511
15382 1 19.093 95.4537 46.4958
22000 2 0.904818 98.6578 45.2434
16227 1 2.72581 98.6466 46.5253
21998 2 3.63361 100.253 45.2569
16229 1 5.45461 100.243 46.5389
21811 2 6.36106 98.6578 45.2434
21813 2 9.08985 100.253 45.2569
15968 1 8.18205 98.6466 46.5253
21528 2 11.8173 98.6578 45.2434
15966 1 10.9108 100.243 46.5389
21526 2 14.5461 100.253 45.2569
15667 1 13.6383 98.6466 46.5253
21227 2 17.2735 98.6578 45.2434
15669 1 16.3671 100.243 46.5389
21229 2 20.0023 100.253 45.2569
16401 1 21.8233 100.243 46.5389
15338 1 19.0945 98.6466 46.5253
16358 1 0.840583 53.5047 48.3216
21959 2 2.67037 53.5 49.6091
16376 1 3.56377 51.8698 48.307
21958 2 5.39313 51.8668 49.5957
16174 1 9.02001 51.8698 48.307
16175 1 6.29682 53.5047 48.3216
21726 2 8.12661 53.5 49.6091
15885 1 11.7531 53.5047 48.3216
21744 2 10.8494 51.8668 49.5957
15901 1 14.4762 51.8698 48.307
21426 2 13.5828 53.5 49.6091
15546 1 17.2093 53.5047 48.3216
21425 2 16.3056 51.8668 49.5957
22097 2 21.7618 51.8668 49.5957
15545 1 19.9325 51.8698 48.307
21061 2 19.0391 53.5 49.6091
16356 1 3.57615 55.1362 48.3424
21960 2 5.40519 55.1304 49.6287
16176 1 9.03239 55.1362 48.3424
21724 2 10.8614 55.1304 49.6287
15883 1 14.4886 55.1362 48.3424
21427 2 16.3177 55.1304 49.6287
22081 2 21.7739 55.1304 49.6287
15547 1 19.9449 55.1362 48.3424
16357 1 0.857111 56.765 48.3698
21939 2 2.68455 56.7586 49.6545
16359 1 3.59505 58.3926 48.4036
21937 2 5.42021 58.3857 49.6861
16155 1 6.31335 56.765 48.3698
21725 2 8.14079 56.7586 49.6545
16153 1 9.05129 58.3926 48.4036
15884 1 11.7696 56.765 48.3698
21727 2 10.8764 58.3857 49.6861
21410 2 13.597 56.7586 49.6545
15886 1 14.5075 58.3926 48.4036
15538 1 17.2258 56.765 48.3698
21408 2 16.3327 58.3857 49.6861
21060 2 19.0533 56.7586 49.6545
22082 2 21.7889 58.3857 49.6861
15536 1 19.9638 58.3926 48.4036
16335 1 0.875625 60.0201 48.443
21938 2 2.69922 60.0124 49.7222
16333 1 3.61077 61.6478 48.4863
21940 2 5.43355 61.6386 49.7614
16154 1 6.33186 60.0201 48.443
16156 1 9.06701 61.6478 48.4863
21702 2 8.15546 60.0124 49.7222
15863 1 11.7881 60.0201 48.443
21700 2 10.8898 61.6386 49.7614
15861 1 14.5232 61.6478 48.4863
21409 2 13.6117 60.0124 49.7222
15537 1 17.2443 60.0201 48.443
21411 2 16.346 61.6386 49.7614
22065 2 21.8023 61.6386 49.7614
15539 1 19.9795 61.6478 48.4863
21053 2 19.0679 60.0124 49.7222
16334 1 0.887507 63.2756 48.531
21912 2 2.71055 63.264 49.8018
16336 1 3.61879 64.902 48.574
21910 2 5.44259 64.8877 49.842
16125 1 9.07503 64.902 48.574
16127 1 6.34375 63.2756 48.531
21701 2 8.16679 63.264 49.8018
15862 1 11.8 63.2756 48.531
21703 2 10.8988 64.8877 49.842
15864 1 14.5313 64.902 48.574
21386 2 13.623 63.264 49.8018
15522 1 17.2562 63.2756 48.531
21384 2 16.3551 64.8877 49.842
22066 2 21.8113 64.8877 49.842
15520 1 19.9875 64.902 48.574
21052 2 19.0793 63.264 49.8018
16311 1 0.892916 66.5258 48.6139
21911 2 2.71735 66.5091 49.8806
16309 1 3.62281 68.1467 48.6509
21913 2 5.44758 68.1279 49.9174
16126 1 6.34915 66.5258 48.6139
16128 1 9.07905 68.1467 48.6509
21670 2 8.17359 66.5091 49.8806
15833 1 11.8054 66.5258 48.6139
21668 2 10.9038 68.1279 49.9174
15831 1 14.5353 68.1467 48.6509
21385 2 13.6298 66.5091 49.8806
15521 1 17.2616 66.5258 48.6139
21387 2 16.3601 68.1279 49.9174
22049 2 21.8163 68.1279 49.9174
15523 1 19.9915 68.1467 48.6509
21037 2 19.0861 66.5091 49.8806
16310 1 0.896206 69.7646 48.6853
21884 2 2.72106 69.7441 49.9522
16092 1 6.35244 69.7646 48.6853
21669 2 8.1773 69.7441 49.9522
15832 1 11.8087 69.7646 48.6853
21354 2 13.6335 69.7441 49.9522
15498 1 17.2649 69.7646 48.6853
21036 2 19.0898 69.7441 49.9522
16287 1 0.898738 72.992 48.7477
21883 2 2.7234 72.9698 50.0163
16312 1 3.62565 71.3796 48.7175
21882 2 5.45045 71.358 49.9851
16090 1 9.08189 71.3796 48.7175
16091 1 6.35498 72.992 48.7477
21631 2 8.17964 72.9698 50.0163
21671 2 10.9067 71.358 49.9851
15795 1 11.8112 72.992 48.7477
15834 1 14.5381 71.3796 48.7175
21353 2 13.6359 72.9698 50.0163
21352 2 16.3629 71.358 49.9851
15497 1 17.2675 72.992 48.7477
22050 2 21.8192 71.358 49.9851
15496 1 19.9944 71.3796 48.7175
21013 2 19.0921 72.9698 50.0163
16286 1 0.900947 76.2103 48.8035
21856 2 2.72523 76.1879 50.0741
16285 1 3.62799 74.6021 48.7763
21885 2 5.45247 74.5797 50.0459
16093 1 9.08422 74.6021 48.7763
16056 1 6.35719 76.2103 48.8035
21630 2 8.18147 76.1879 50.0741
21629 2 10.9087 74.5797 50.0459
15794 1 11.8134 76.2103 48.8035
15793 1 14.5405 74.6021 48.7763
21314 2 13.6377 76.1879 50.0741
21355 2 16.3649 74.5797 50.0459
15466 1 17.2697 76.2103 48.8035
22033 2 21.8212 74.5797 50.0459
15499 1 19.9967 74.6021 48.7763
21012 2 19.0939 76.1879 50.0741
22035 2 1.80829 77.8454 47.5525
16263 1 0.903012 79.4217 48.8544
21855 2 2.7269 79.4001 50.1268
21860 2 4.53747 79.4482 47.5768
16288 1 3.63011 77.8167 48.8295
21854 2 5.45419 77.7946 50.101
21889 2 7.26453 77.8454 47.5525
16054 1 9.08635 77.8167 48.8295
16055 1 6.35925 79.4217 48.8544
21591 2 8.18313 79.4001 50.1268
21634 2 9.9937 79.4482 47.5768
15750 1 11.8155 79.4217 48.8544
21632 2 10.9104 77.7946 50.101
21318 2 15.4499 79.4482 47.5768
21633 2 12.7208 77.8454 47.5525
15796 1 14.5426 77.8167 48.8295
21313 2 13.6394 79.4001 50.1268
21359 2 18.177 77.8454 47.5525
15465 1 17.2717 79.4217 48.8544
21312 2 16.3667 77.7946 50.101
21014 2 20.9062 79.4482 47.5768
22034 2 21.8229 77.7946 50.101
15464 1 19.9988 77.8167 48.8295
20981 2 19.0956 79.4001 50.1268
22036 2 1.81038 81.05 47.6002
16262 1 0.904985 82.6281 48.9013
21828 2 2.72851 82.6079 50.1751
22017 2 -0.000409919 81.0045 50.1514
21859 2 4.53952 82.651 47.6226
16261 1 3.63213 81.0254 48.8783
21857 2 5.45583 81.0045 50.1514
21858 2 7.26662 81.05 47.6002
16020 1 6.36122 82.6281 48.9013
16057 1 9.08837 81.0254 48.8783
21590 2 8.18475 82.6079 50.1751
21595 2 9.99576 82.651 47.6226
15749 1 11.8175 82.6281 48.9013
21589 2 10.9121 81.0045 50.1514
21317 2 15.452 82.651 47.6226
21636 2 12.7229 81.05 47.6002
15748 1 14.5446 81.0254 48.8783
21267 2 13.641 82.6079 50.1751
21316 2 18.1791 81.05 47.6002
15426 1 17.2737 82.6281 48.9013
21315 2 16.3683 81.0045 50.1514
20983 2 20.9082 82.651 47.6226
15467 1 20.0008 81.0254 48.8783
20980 2 19.0972 82.6079 50.1751
22019 2 1.8124 84.2512 47.6443
16240 1 0.906862 85.8309 48.9445
21827 2 2.73009 85.8124 50.2196
22018 2 0.00118705 84.2105 50.1978
21832 2 4.54148 85.8509 47.6651
16264 1 3.63406 84.2299 48.9233
21826 2 5.45743 84.2105 50.1978
21861 2 7.26863 84.2512 47.6443
16018 1 9.09029 84.2299 48.9233
16019 1 6.3631 85.8309 48.9445
21552 2 8.18633 85.8124 50.2196
21594 2 9.99772 85.8509 47.6651
15704 1 11.8193 85.8309 48.9445
21592 2 10.9137 84.2105 50.1978
21271 2 15.454 85.8509 47.6651
21593 2 12.7249 84.2512 47.6443
15751 1 14.5465 84.2299 48.9233
21266 2 13.6426 85.8124 50.2196
21319 2 18.1811 84.2512 47.6443
15425 1 17.2756 85.8309 48.9445
21265 2 16.3699 84.2105 50.1978
20982 2 20.9102 85.8509 47.6651
15424 1 20.0028 84.2299 48.9233
20941 2 19.0988 85.8124 50.2196
22020 2 1.8143 87.45 47.6852
22002 2 0.00273574 87.4138 50.2405
16238 1 3.63588 87.4314 48.9649
21829 2 5.45897 87.4138 50.2405
21830 2 7.27054 87.45 47.6852
16021 1 9.09212 87.4314 48.9649
21550 2 10.9152 87.4138 50.2405
21596 2 12.7268 87.45 47.6852
15702 1 14.5484 87.4314 48.9649
21269 2 18.183 87.45 47.6852
21268 2 16.3715 87.4138 50.2405
15427 1 20.0046 87.4314 48.9649
16239 1 0.908627 89.0313 48.9845
21804 2 2.7316 89.0146 50.2605
22004 2 1.81607 90.647 47.7229
22003 2 0.00421537 90.6149 50.2796
21831 2 4.54332 89.0487 47.7044
16241 1 3.63758 90.6308 49.0033
21802 2 5.46045 90.6149 50.2796
15988 1 6.36487 89.0313 48.9845
21551 2 8.18784 89.0146 50.2605
21833 2 7.27231 90.647 47.7229
15986 1 9.09382 90.6308 49.0033
21556 2 9.99956 89.0487 47.7044
15703 1 11.8211 89.0313 48.9845
21553 2 10.9167 90.6149 50.2796
21270 2 15.4558 89.0487 47.7044
21220 2 13.6441 89.0146 50.2605
21554 2 12.7285 90.647 47.7229
15705 1 14.5501 90.6308 49.0033
15380 1 17.2773 89.0313 48.9845
21272 2 18.1848 90.647 47.7229
21218 2 16.3729 90.6149 50.2796
20943 2 20.912 89.0487 47.7044
20940 2 19.1003 89.0146 50.2605
15378 1 20.0063 90.6308 49.0033
22005 2 1.8177 93.8429 47.7576
21803 2 2.73304 92.215 50.2979
16224 1 0.910263 92.2299 49.0212
21994 2 0.00560663 93.8147 50.3153
21808 2 4.54502 92.2451 47.7407
16222 1 3.63915 93.8287 49.0384
21805 2 5.46185 93.8147 50.3153
21806 2 7.27393 93.8429 47.7576
21520 2 8.18928 92.215 50.2979
15987 1 6.3665 92.2299 49.0212
15989 1 9.09539 93.8287 49.0384
21555 2 10.0013 92.2451 47.7407
15664 1 11.8227 92.2299 49.0212
21518 2 10.9181 93.8147 50.3153
21224 2 15.4575 92.2451 47.7407
21557 2 12.7302 93.8429 47.7576
21219 2 13.6455 92.215 50.2979
15662 1 14.5516 93.8287 49.0384
21222 2 18.1864 93.8429 47.7576
15379 1 17.279 92.2299 49.0212
21221 2 16.3743 93.8147 50.3153
20942 2 20.9137 92.2451 47.7407
20897 2 19.1018 92.215 50.2979
15381 1 20.0079 93.8287 49.0384
21996 2 1.81916 97.0379 47.789
16223 1 0.911759 95.4273 49.0547
21807 2 4.54657 95.4405 47.7737
16225 1 3.64057 97.0257 49.0702
21809 2 7.2754 97.0379 47.789
15962 1 9.09681 97.0257 49.0702
15964 1 6.368 95.4273 49.0547
21524 2 10.0028 95.4405 47.7737
15663 1 11.8242 95.4273 49.0547
21223 2 15.459 95.4405 47.7737
21522 2 12.7316 97.0379 47.789
15665 1 14.553 97.0257 49.0702
21225 2 18.1879 97.0379 47.789
15335 1 17.2805 95.4273 49.0547
20899 2 20.9153 95.4405 47.7737
15333 1 20.0093 97.0257 49.0702
21997 2 1.82047 100.232 47.8173
16216 1 0.91311 98.624 49.0848
21792 2 4.54796 98.6352 47.8036
16214 1 3.64185 100.222 49.0986
21790 2 7.27671 100.232 47.8173
15963 1 6.36935 98.624 49.0848
15965 1 9.09809 100.222 49.0986
21523 2 10.0042 98.6352 47.8036
15632 1 11.8256 98.624 49.0848
21184 2 15.4604 98.6352 47.8036
21525 2 12.733 100.232 47.8173
15630 1 14.5543 100.222 49.0986
21182 2 18.1892 100.232 47.8173
15334 1 17.2818 98.624 49.0848
20898 2 20.9167 98.6352 47.8036
15336 1 20.0106 100.222 49.0986
16354 1 1.76986 51.8521 50.8668
21935 2 0.872756 53.4766 52.1698
16151 1 4.50139 53.4795 50.8822
21957 2 3.59739 51.8508 52.1558
16173 1 7.2261 51.8521 50.8668
21721 2 9.05363 51.8508 52.1558
21722 2 6.32899 53.4766 52.1698
15881 1 9.95763 53.4795 50.8822
21406 2 11.7852 53.4766 52.1698
15534 1 15.4139 53.4795 50.8822
15880 1 12.6823 51.8521 50.8668
21424 2 14.5099 51.8508 52.1558
15544 1 18.1386 51.8521 50.8668
21058 2 17.2415 53.4766 52.1698
15184 1 20.8701 53.4795 50.8822
21057 2 19.9661 51.8508 52.1558
16355 1 1.77813 55.1054 50.9029
21933 2 3.60531 55.1011 52.1891
16149 1 7.23437 55.1054 50.9029
21723 2 9.06155 55.1011 52.1891
15882 1 12.6906 55.1054 50.9029
21404 2 14.5178 55.1011 52.1891
15532 1 18.1468 55.1054 50.9029
21059 2 19.974 55.1011 52.1891
21934 2 0.882275 56.7245 52.2133
16331 1 1.79064 58.3538 50.9592
16150 1 4.5122 56.73 50.9287
21936 2 3.61575 58.3471 52.242
21698 2 6.33851 56.7245 52.2133
16152 1 7.24688 58.3538 50.9592
21696 2 9.07198 58.3471 52.242
15859 1 9.96844 56.73 50.9287
21405 2 11.7948 56.7245 52.2133
15533 1 15.4247 56.73 50.9287
15857 1 12.7031 58.3538 50.9592
21407 2 14.5282 58.3471 52.242
21050 2 17.251 56.7245 52.2133
15535 1 18.1594 58.3538 50.9592
15183 1 20.8809 56.73 50.9287
21048 2 19.9845 58.3471 52.242
16332 1 1.80279 61.6004 51.0314
21908 2 0.892909 59.9693 52.2744
16123 1 4.52519 59.9771 50.9937
21906 2 3.62592 61.5913 52.3095
16121 1 7.25903 61.6004 51.0314
21697 2 6.34915 59.9693 52.2744
21699 2 9.08215 61.5913 52.3095
15858 1 9.98142 59.9771 50.9937
21382 2 11.8054 59.9693 52.2744
15518 1 15.4377 59.9771 50.9937
15860 1 12.7153 61.6004 51.0314
21380 2 14.5384 61.5913 52.3095
15516 1 18.1715 61.6004 51.0314
21049 2 17.2616 59.9693 52.2744
15182 1 20.8939 59.9771 50.9937
21051 2 19.9946 61.5913 52.3095
16307 1 1.81087 64.8464 51.1111
21907 2 0.902066 63.2129 52.3464
16122 1 4.53554 63.2236 51.071
21909 2 3.63372 64.8338 52.3839
16124 1 7.2671 64.8464 51.1111
21664 2 9.08996 64.8338 52.3839
21666 2 6.3583 63.2129 52.3464
15829 1 9.99178 63.2236 51.071
21381 2 11.8145 63.2129 52.3464
15517 1 15.448 63.2236 51.071
15827 1 12.7233 64.8464 51.1111
21383 2 14.5462 64.8338 52.3839
15519 1 18.1796 64.8464 51.1111
21034 2 17.2708 63.2129 52.3464
15175 1 20.9043 63.2236 51.071
21032 2 20.0024 64.8338 52.3839
16308 1 1.81505 68.0882 51.1878
21880 2 0.908402 66.4536 52.4212
16088 1 4.54142 66.4681 51.1503
21878 2 3.63866 68.072 52.4577
16086 1 7.27129 68.0882 51.1878
21665 2 6.36464 66.4536 52.4212
21667 2 9.0949 68.072 52.4577
15828 1 9.99766 66.4681 51.1503
21350 2 11.8209 66.4536 52.4212
15494 1 15.4539 66.4681 51.1503
15830 1 12.7275 68.0882 51.1878
21348 2 14.5511 68.072 52.4577
15492 1 18.1838 68.0882 51.1878
21033 2 17.2771 66.4536 52.4212
15174 1 20.9101 66.4681 51.1503
21035 2 20.0074 68.072 52.4577
21879 2 0.912164 69.6886 52.4929
16087 1 4.54448 69.7063 51.2235
21881 2 3.64153 71.3035 52.5267
21625 2 9.09777 71.3035 52.5267
21627 2 6.3684 69.6886 52.4929
15791 1 10.0007 69.7063 51.2235
21349 2 11.8246 69.6886 52.4929
15493 1 15.457 69.7063 51.2235
21351 2 14.554 71.3035 52.5267
21010 2 17.2809 69.6886 52.4929
15159 1 20.9132 69.7063 51.2235
21008 2 20.0102 71.3035 52.5267
16283 1 1.81742 71.3224 51.2574
21852 2 0.914399 72.9167 52.5591
16052 1 4.54643 72.9364 51.2894
16089 1 7.27366 71.3224 51.2574
21626 2 6.37064 72.9167 52.5591
15790 1 10.0027 72.9364 51.2894
21310 2 11.8269 72.9167 52.5591
15789 1 12.7299 71.3224 51.2574
15462 1 15.4589 72.9364 51.2894
15495 1 18.1861 71.3224 51.2574
21009 2 17.2831 72.9167 52.5591
15158 1 20.9151 72.9364 51.2894
16284 1 1.81912 74.5485 51.3199
21851 2 0.915928 76.1383 52.6197
21850 2 3.64334 74.5283 52.59
16051 1 4.54799 76.1588 51.3489
16050 1 7.27536 74.5485 51.3199
21628 2 9.09957 74.5283 52.59
21587 2 6.37217 76.1383 52.6197
15746 1 10.0042 76.1588 51.3489
21309 2 11.8284 76.1383 52.6197
15792 1 12.7316 74.5485 51.3199
21308 2 14.5558 74.5283 52.59
15461 1 15.4605 76.1588 51.3489
15460 1 18.1878 74.5485 51.3199
20978 2 17.2846 76.1383 52.6197
21011 2 20.0121 74.5283 52.59
15135 1 20.9167 76.1588 51.3489
16259 1 1.8206 77.7674 51.3766
21824 2 0.917189 79.3545 52.6751
16016 1 4.54944 79.3747 51.403
21853 2 3.64469 77.7471 52.648
16053 1 7.27684 77.7674 51.3766
21585 2 9.10093 77.7471 52.648
21586 2 6.37343 79.3545 52.6751
15745 1 10.0057 79.3747 51.403
21263 2 11.8297 79.3545 52.6751
15422 1 15.4619 79.3747 51.403
15744 1 12.7331 77.7674 51.3766
21311 2 14.5572 77.7471 52.648
15463 1 18.1893 77.7674 51.3766
20977 2 17.2859 79.3545 52.6751
15134 1 20.9182 79.3747 51.403
20976 2 20.0134 77.7471 52.648
16260 1 1.82204 80.9807 51.4283
21823 2 0.91837 82.5664 52.7259
16015 1 4.55086 82.5856 51.4525
21822 2 3.6459 80.961 52.701
16014 1 7.27827 80.9807 51.4283
21548 2 6.37461 82.5664 52.7259
21588 2 9.10214 80.961 52.701
15700 1 10.0071 82.5856 51.4525
21262 2 11.8308 82.5664 52.7259
15421 1 15.4633 82.5856 51.4525
15747 1 12.7345 80.9807 51.4283
21261 2 14.5584 80.961 52.701
15420 1 18.1908 80.9807 51.4283
20938 2 17.2871 82.5664 52.7259
15103 1 20.9196 82.5856 51.4525
20979 2 20.0146 80.961 52.701
16236 1 1.82345 84.1896 51.4757
21800 2 0.919535 85.7749 52.7724
15984 1 4.55227 85.7929 51.498
21825 2 3.64707 84.171 52.7496
16017 1 7.27969 84.1896 51.4757
21546 2 9.10331 84.171 52.7496
21547 2 6.37577 85.7749 52.7724
15699 1 10.0085 85.7929 51.498
21216 2 11.832 85.7749 52.7724
15376 1 15.4647 85.7929 51.498
15698 1 12.7359 84.1896 51.4757
21264 2 14.5595 84.171 52.7496
15423 1 18.1922 84.1896 51.4757
20937 2 17.2882 85.7749 52.7724
15102 1 20.921 85.7929 51.498
20936 2 20.0158 84.171 52.7496
16237 1 1.82484 87.3954 51.5193
21799 2 0.92069 88.9809 52.815
15983 1 4.55365 88.9973 51.5397
21798 2 3.64823 87.3782 52.7942
15982 1 7.28108 87.3954 51.5193
21516 2 6.37693 88.9809 52.815
21549 2 9.10447 87.3782 52.7942
15660 1 10.0099 88.9973 51.5397
21215 2 11.8332 88.9809 52.815
15375 1 15.4661 88.9973 51.5397
15701 1 12.7373 87.3954 51.5193
21214 2 14.5607 87.3782 52.7942
15374 1 18.1936 87.3954 51.5193
20894 2 17.2894 88.9809 52.815
15067 1 20.9224 88.9973 51.5397
20939 2 20.0169 87.3782 52.7942
16220 1 1.82619 90.5988 51.5591
21801 2 3.64938 90.5832 52.8348
15985 1 7.28243 90.5988 51.5591
21514 2 9.10562 90.5832 52.8348
15658 1 12.7387 90.5988 51.5591
21217 2 14.5619 90.5832 52.8348
15377 1 18.1949 90.5988 51.5591
20892 2 20.0181 90.5832 52.8348
21784 2 0.921826 92.1851 52.8537
16221 1 1.82748 93.8006 51.5954
15960 1 4.55497 92.1999 51.5777
21782 2 3.6505 93.7866 52.8717
21515 2 6.37806 92.1851 52.8537
15958 1 7.28372 93.8006 51.5954
21517 2 9.10674 93.7866 52.8717
15659 1 10.0112 92.1999 51.5777
21176 2 11.8343 92.1851 52.8537
15331 1 15.4674 92.1999 51.5777
15661 1 12.74 93.8006 51.5954
21174 2 14.563 93.7866 52.8717
20893 2 17.2905 92.1851 52.8537
15329 1 18.1962 93.8006 51.5954
15066 1 20.9237 92.1999 51.5777
20895 2 20.0192 93.7866 52.8717
21788 2 2.73438 95.4142 50.3319
21995 2 0.00689482 97.0134 50.3476
16212 1 1.82869 97.0012 51.628
21783 2 0.922924 95.3879 52.8887
21786 2 5.46313 97.0134 50.3476
15959 1 4.55621 95.401 51.6121
21785 2 3.65157 96.989 52.9049
21519 2 8.19062 95.4142 50.3319
15961 1 7.28493 97.0012 51.628
21490 2 9.10781 96.989 52.9049
21492 2 6.37916 95.3879 52.8887
21521 2 10.9194 97.0134 50.3476
15628 1 10.0125 95.401 51.6121
21175 2 11.8354 95.3879 52.8887
21180 2 13.6469 95.4142 50.3319
15330 1 15.4687 95.401 51.6121
15626 1 12.7412 97.0012 51.628
21177 2 14.564 96.989 52.9049
21178 2 16.3756 97.0134 50.3476
15332 1 18.1974 97.0012 51.628
20851 2 17.2916 95.3879 52.8887
20896 2 19.1031 95.4142 50.3319
15031 1 20.9249 95.401 51.6121
20849 2 20.0203 96.989 52.9049
21787 2 2.73562 98.6126 50.3624
21993 2 0.00806918 100.212 50.3764
16213 1 1.8298 100.201 51.6571
21776 2 0.923967 98.5899 52.92
21789 2 5.46431 100.212 50.3764
15944 1 4.55738 98.6013 51.643
21774 2 3.65258 100.191 52.9343
21496 2 8.19185 98.6126 50.3624
15942 1 7.28604 100.201 51.6571
21491 2 6.38021 98.5899 52.92
21493 2 9.10882 100.191 52.9343
21494 2 10.9205 100.212 50.3764
15627 1 10.0136 98.6013 51.643
21144 2 11.8364 98.5899 52.92
21179 2 13.6481 98.6126 50.3624
15293 1 15.4699 98.6013 51.643
15629 1 12.7423 100.201 51.6571
21142 2 14.5651 100.191 52.9343
21181 2 16.3768 100.212 50.3764
15291 1 18.1985 100.201 51.6571
20850 2 17.2927 98.5899 52.92
20854 2 19.1043 98.6126 50.3624
15030 1 20.9261 98.6013 51.643
20852 2 20.0213 100.191 52.9343
16147 1 2.70174 53.4622 53.4443
21931 2 1.79751 51.8403 54.7182
16146 1 5.42726 51.8408 53.4298
21694 2 4.52807 53.4602 54.7316
15855 1 8.15798 53.4622 53.4443
21720 2 7.25374 51.8403 54.7182
15879 1 10.8835 51.8408 53.4298
21402 2 9.98431 53.4602 54.7316
15530 1 13.6142 53.4622 53.4443
21046 2 15.4405 53.4602 54.7316
21401 2 12.71 51.8403 54.7182
15529 1 16.3397 51.8408 53.4298
21056 2 18.1662 51.8403 54.7182
16353 1 21.796 51.8408 53.4298
15181 1 19.0705 53.4622 53.4443
20712 2 20.8968 53.4602 54.7316
21932 2 1.80312 55.0797 54.7497
16148 1 5.43336 55.0831 53.4637
21692 2 7.25936 55.0797 54.7497
15853 1 10.8896 55.0831 53.4637
21403 2 12.7156 55.0797 54.7497
15531 1 16.3458 55.0831 53.4637
21044 2 18.1718 55.0797 54.7497
16329 1 21.8021 55.0831 53.4637
16119 1 2.70947 56.7034 53.4877
21904 2 1.81079 58.3175 54.7985
21693 2 4.53493 56.6988 54.7722
16117 1 5.44228 58.3235 53.5155
15854 1 8.16571 56.7034 53.4877
21695 2 7.26702 58.3175 54.7985
21378 2 9.99116 56.6988 54.7722
15856 1 10.8985 58.3235 53.5155
15514 1 13.6219 56.7034 53.4877
21045 2 15.4474 56.6988 54.7722
21376 2 12.7233 58.3175 54.7985
15512 1 16.3548 58.3235 53.5155
21047 2 18.1795 58.3175 54.7985
15180 1 19.0782 56.7034 53.4877
20711 2 20.9036 56.6988 54.7722
16330 1 21.811 58.3235 53.5155
16118 1 2.71893 59.9433 53.5468
21905 2 1.81871 61.5546 54.8602
16120 1 5.45156 61.5631 53.5808
21662 2 4.54295 59.9361 54.8281
15825 1 8.17516 59.9433 53.5468
21660 2 7.27495 61.5546 54.8602
15823 1 10.9078 61.5631 53.5808
21377 2 9.99918 59.9361 54.8281
15513 1 13.6314 59.9433 53.5468
21030 2 15.4554 59.9361 54.8281
21379 2 12.7312 61.5546 54.8602
15515 1 16.364 61.5631 53.5808
21028 2 18.1874 61.5546 54.8602
16305 1 21.8203 61.5631 53.5808
15173 1 19.0876 59.9433 53.5468
20710 2 20.9117 59.9361 54.8281
16084 1 2.7274 63.1828 53.6168
21876 2 1.82534 64.791 54.9293
16082 1 5.45878 64.8024 53.6538
21661 2 4.55037 63.1729 54.8942
15824 1 8.18364 63.1828 53.6168
21663 2 7.28158 64.791 54.9293
15826 1 10.915 64.8024 53.6538
21346 2 10.0066 63.1729 54.8942
15490 1 13.6399 63.1828 53.6168
21029 2 15.4628 63.1729 54.8942
21344 2 12.7378 64.791 54.9293
15488 1 16.3713 64.8024 53.6538
21031 2 18.1941 64.791 54.9293
16306 1 21.8275 64.8024 53.6538
15172 1 19.0961 63.1828 53.6168
20703 2 20.9191 63.1729 54.8942
16083 1 2.73317 66.4215 53.6911
21877 2 1.82998 68.0254 55.0004
16085 1 5.46316 68.0398 53.7279
21623 2 4.55603 66.4086 54.9649
15787 1 8.18941 66.4215 53.6911
21621 2 7.28621 68.0254 55.0004
15785 1 10.9194 68.0398 53.7279
21345 2 10.0123 66.4086 54.9649
15489 1 13.6457 66.4215 53.6911
21006 2 15.4685 66.4086 54.9649
21347 2 12.7425 68.0254 55.0004
15491 1 16.3756 68.0398 53.7279
21004 2 18.1987 68.0254 55.0004
16281 1 21.8319 68.0398 53.7279
15157 1 19.1019 66.4215 53.6911
20702 2 20.9247 66.4086 54.9649
16048 1 2.7364 69.657 53.7637
21848 2 1.83283 71.256 55.0694
16282 1 0.00928808 71.2728 53.7982
16046 1 5.46553 71.2728 53.7982
21622 2 4.55971 69.6413 55.0354
15786 1 8.19264 69.657 53.7637
21624 2 7.28907 71.256 55.0694
15788 1 10.9218 71.2728 53.7982
21306 2 10.0159 69.6413 55.0354
15458 1 13.6489 69.657 53.7637
21005 2 15.4722 69.6413 55.0354
21304 2 12.7453 71.256 55.0694
15456 1 16.378 71.2728 53.7982
21007 2 18.2015 71.256 55.0694
15156 1 19.1051 69.657 53.7637
20687 2 20.9284 69.6413 55.0354
16047 1 2.73818 72.8872 53.8313
21583 2 4.56191 72.8695 55.1024
15742 1 8.19442 72.8872 53.8313
21305 2 10.0181 72.8695 55.1024
15457 1 13.6507 72.8872 53.8313
20974 2 15.4744 72.8695 55.1024
15133 1 19.1069 72.8872 53.8313
20686 2 20.9306 72.8695 55.1024
21849 2 1.83454 74.4818 55.1342
16012 1 2.73935 76.1116 53.8935
16257 1 0.0106916 74.5001 53.8631
16049 1 5.46693 74.5001 53.8631
21582 2 4.56326 76.0928 55.1649
21581 2 7.29078 74.4818 55.1342
15741 1 8.19559 76.1116 53.8935
15740 1 10.9232 74.5001 53.8631
21259 2 10.0195 76.0928 55.1649
21307 2 12.747 74.4818 55.1342
15418 1 13.6518 76.1116 53.8935
20973 2 15.4757 76.0928 55.1649
15459 1 16.3794 74.5001 53.8631
20972 2 18.2033 74.4818 55.1342
15132 1 19.1081 76.1116 53.8935
20663 2 20.932 76.0928 55.1649
16011 1 2.74031 79.3305 53.9504
21820 2 1.83566 77.7027 55.1943
16258 1 0.0117229 77.7217 53.9226
16010 1 5.46796 77.7217 53.9226
21544 2 4.56423 79.3116 55.2226
15696 1 8.19655 79.3305 53.9504
21584 2 7.29189 77.7027 55.1943
15743 1 10.9242 77.7217 53.9226
21258 2 10.0205 79.3116 55.2226
15417 1 13.6528 79.3305 53.9504
20934 2 15.4767 79.3116 55.2226
21257 2 12.7481 77.7027 55.1943
15416 1 16.3804 77.7217 53.9226
20975 2 18.2044 77.7027 55.1943
15101 1 19.109 79.3305 53.9504
20662 2 20.9329 79.3116 55.2226
15980 1 2.74123 82.5449 54.0024
21821 2 1.83652 80.9195 55.2497
16234 1 0.0126528 80.9382 53.977
16013 1 5.46889 80.9382 53.977
21543 2 4.56504 82.5266 55.2756
15695 1 8.19747 82.5449 54.0024
21542 2 7.29276 80.9195 55.2497
15694 1 10.9251 80.9382 53.977
21212 2 10.0213 82.5266 55.2756
15372 1 13.6537 82.5449 54.0024
20933 2 15.4775 82.5266 55.2756
21260 2 12.749 80.9195 55.2497
15419 1 16.3814 80.9382 53.977
20932 2 18.2052 80.9195 55.2497
15100 1 19.1099 82.5449 54.0024
20632 2 20.9338 82.5266 55.2756
15979 1 2.74218 85.7558 54.0501
21796 2 1.83732 84.1328 55.3004
16235 1 0.013584 84.1507 54.0268
15978 1 5.46982 84.1507 54.0268
21512 2 4.56583 85.7384 55.3241
15656 1 8.19842 85.7558 54.0501
21545 2 7.29356 84.1328 55.3004
15697 1 10.9261 84.1507 54.0268
21211 2 10.0221 85.7384 55.3241
15371 1 13.6547 85.7558 54.0501
20890 2 15.4783 85.7384 55.3241
21210 2 12.7498 84.1328 55.3004
15370 1 16.3823 84.1507 54.0268
20935 2 18.206 84.1328 55.3004
15065 1 19.1109 85.7558 54.0501
20631 2 20.9345 85.7384 55.3241
15956 1 2.74315 88.9639 54.0935
21797 2 1.83811 87.3434 55.3468
16218 1 0.0145423 87.3601 54.0723
15981 1 5.47078 87.3601 54.0723
21511 2 4.56664 88.9478 55.3684
15655 1 8.19939 88.9639 54.0935
21510 2 7.29435 87.3434 55.3468
15654 1 10.927 87.3601 54.0723
21172 2 10.0229 88.9478 55.3684
15327 1 13.6556 88.9639 54.0935
20889 2 15.4791 88.9478 55.3684
21213 2 12.7506 87.3434 55.3468
15373 1 16.3833 87.3601 54.0723
20888 2 18.2068 87.3434 55.3468
15064 1 19.1119 88.9639 54.0935
20600 2 20.9354 88.9478 55.3684
21780 2 1.83894 90.5518 55.3889
16219 1 0.0155219 90.5672 54.1137
15954 1 5.47176 90.5672 54.1137
21513 2 7.29518 90.5518 55.3889
15657 1 10.928 90.5672 54.1137
21170 2 12.7514 90.5518 55.3889
15325 1 16.3842 90.5672 54.1137
20891 2 18.2077 90.5518 55.3889
15955 1 2.74413 92.1701 54.1329
21781 2 1.83978 93.7587 55.427
16210 1 0.0165055 93.7726 54.1511
21488 2 4.56748 92.1555 55.4085
15957 1 5.47274 93.7726 54.1511
15624 1 8.20037 92.1701 54.1329
21486 2 7.29602 93.7587 55.427
21171 2 10.0237 92.1555 55.4085
15622 1 10.929 93.7726 54.1511
15326 1 13.6566 92.1701 54.1329
20847 2 15.48 92.1555 55.4085
21173 2 12.7523 93.7587 55.427
15328 1 16.3852 93.7726 54.1511
20845 2 18.2085 93.7587 55.427
15029 1 19.1128 92.1701 54.1329
20599 2 20.9362 92.1555 55.4085
15940 1 2.74511 95.3748 54.1684
16211 1 0.0174729 96.9768 54.1847
21772 2 1.84063 96.9646 55.461
15938 1 5.47371 96.9768 54.1847
21487 2 4.56833 95.3618 55.4445
15623 1 8.20135 95.3748 54.1684
21489 2 7.29687 96.9646 55.461
15625 1 10.9299 96.9768 54.1847
21140 2 10.0246 95.3618 55.4445
15289 1 13.6576 95.3748 54.1684
20846 2 15.4808 95.3618 55.4445
21138 2 12.7531 96.9646 55.461
15287 1 16.3862 96.9768 54.1847
20848 2 18.2093 96.9646 55.461
15028 1 19.1138 95.3748 54.1684
20568 2 20.937 95.3618 55.4445
15939 1 2.74606 98.5786 54.2001
16209 1 0.0184031 100.18 54.2145
21773 2 1.84147 100.17 55.4912
15941 1 5.47464 100.18 54.2145
21472 2 4.56918 98.5672 55.4766
15600 1 8.2023 98.5786 54.2001
21470 2 7.29771 100.17 55.4912
15598 1 10.9309 100.18 54.2145
21139 2 10.0254 98.5672 55.4766
15288 1 13.6585 98.5786 54.2001
20811 2 15.4817 98.5672 55.4766
21141 2 12.754 100.17 55.4912
15290 1 16.3871 100.18 54.2145
20809 2 18.2102 100.17 55.4912
14994 1 19.1148 98.5786 54.2001
20567 2 20.9379 98.5672 55.4766
16115 1 0.899279 53.4503 56.0072
21690 2 2.72487 53.4488 57.2938
21930 2 -0.00510232 51.8335 57.2815
16111 1 1.82141 51.8292 58.5581
16145 1 3.62535 51.8337 55.994
21689 2 5.45114 51.8335 57.2815
15817 1 4.5512 53.4418 58.5701
15850 1 9.08159 51.8337 55.994
15851 1 6.35552 53.4503 56.0072
21374 2 8.1811 53.4488 57.2938
15849 1 7.27765 51.8292 58.5581
15510 1 11.8118 53.4503 56.0072
21400 2 10.9074 51.8335 57.2815
15506 1 10.0074 53.4418 58.5701
15528 1 14.5378 51.8337 55.994
21042 2 13.6373 53.4488 57.2938
15166 1 15.4637 53.4418 58.5701
15505 1 12.7339 51.8292 58.5581
15178 1 17.268 53.4503 56.0072
21041 2 16.3636 51.8335 57.2815
15176 1 18.1901 51.8292 58.5581
15177 1 19.9941 51.8337 55.994
20709 2 19.0936 53.4488 57.2938
14896 1 20.9199 53.4418 58.5701
21902 2 -0.000844946 55.064 57.3106
16112 1 1.82526 55.0547 58.5865
16113 1 3.63011 55.0668 56.025
21691 2 5.45539 55.064 57.3106
15852 1 9.08635 55.0668 56.025
15815 1 7.2815 55.0547 58.5865
21372 2 10.9116 55.064 57.3106
15508 1 14.5426 55.0668 56.025
15507 1 12.7377 55.0547 58.5865
21043 2 16.3679 55.064 57.3106
15164 1 18.194 55.0547 58.5865
15179 1 19.9988 55.0668 56.025
16114 1 0.905216 56.6833 56.047
21658 2 2.73011 56.6792 57.3313
16076 1 1.83072 58.281 58.6303
21903 2 0.00509019 58.2944 57.3556
16116 1 3.6369 58.2998 56.0726
21656 2 5.46133 58.2944 57.3556
15816 1 4.55597 56.6677 58.6067
15821 1 6.36145 56.6833 56.047
21373 2 8.18635 56.6792 57.3313
15819 1 9.09314 58.2998 56.0726
15818 1 7.28695 58.281 58.6303
15509 1 11.8177 56.6833 56.047
21375 2 10.9176 58.2944 57.3556
15482 1 10.0122 56.6677 58.6067
21026 2 13.6426 56.6792 57.3313
15511 1 14.5494 58.2998 56.0726
15480 1 12.7432 58.281 58.6303
15165 1 15.4684 56.6677 58.6067
15170 1 17.2739 56.6833 56.047
15167 1 18.1994 58.281 58.6303
21024 2 16.3738 58.2944 57.3556
20708 2 19.0988 56.6792 57.3313
15168 1 20.0056 58.2998 56.0726
14895 1 20.9247 56.6677 58.6067
16080 1 0.912481 59.9164 56.1013
16077 1 1.83667 61.5082 58.6861
21657 2 2.73642 59.9097 57.3829
21874 2 0.0114544 61.5251 57.4127
16078 1 3.64421 61.533 56.1326
15779 1 4.56182 59.8945 58.657
21659 2 5.46769 61.5251 57.4127
15820 1 6.36872 59.9164 56.1013
15822 1 9.10045 61.533 56.1326
15777 1 7.29291 61.5082 58.6861
21342 2 8.19266 59.9097 57.3829
15486 1 11.825 59.9164 56.1013
15481 1 10.0181 59.8945 58.657
21340 2 10.9239 61.5251 57.4127
15484 1 14.5567 61.533 56.1326
15150 1 15.4743 59.8945 58.657
15483 1 12.7491 61.5082 58.6861
21025 2 13.6489 59.9097 57.3829
15169 1 17.2812 59.9164 56.1013
15148 1 18.2054 61.5082 58.6861
21027 2 16.3802 61.5251 57.4127
15171 1 20.0129 61.533 56.1326
14894 1 20.9305 59.8945 58.657
20701 2 19.1051 59.9097 57.3829
16079 1 0.91941 63.1498 56.1659
16040 1 1.84201 64.7363 58.7499
21619 2 2.74254 63.1405 57.4444
21875 2 0.0170961 64.7559 57.4775
16081 1 3.65042 64.7665 56.2005
15778 1 4.5676 63.1222 58.7172
21617 2 5.47333 64.7559 57.4775
15781 1 9.10666 64.7665 56.2005
15783 1 6.37565 63.1498 56.1659
15780 1 7.29825 64.7363 58.7499
21341 2 8.19878 63.1405 57.4444
15485 1 11.8319 63.1498 56.1659
15450 1 10.0238 63.1222 58.7172
21343 2 10.9296 64.7559 57.4775
15487 1 14.5629 64.7665 56.2005
15149 1 15.4801 63.1222 58.7172
15448 1 12.7545 64.7363 58.7499
21002 2 13.655 63.1405 57.4444
15154 1 17.2881 63.1498 56.1659
15151 1 18.2107 64.7363 58.7499
21000 2 16.3858 64.7559 57.4775
15152 1 20.0191 64.7665 56.2005
14887 1 20.9363 63.1222 58.7172
20700 2 19.1113 63.1405 57.4444
16044 1 0.924695 66.3831 56.2358
16041 1 1.84601 67.9646 58.8177
21618 2 2.74753 66.3711 57.5115
21846 2 0.0213455 67.9861 57.5458
16042 1 3.6547 67.9993 56.2713
15734 1 4.57232 66.3505 58.7835
21620 2 5.47758 67.9861 57.5458
15782 1 6.38093 66.3831 56.2358
15784 1 9.11094 67.9993 56.2713
15732 1 7.30225 67.9646 58.8177
21302 2 8.20377 66.3711 57.5115
15454 1 11.8372 66.3831 56.2358
15449 1 10.0286 66.3505 58.7835
21300 2 10.9338 67.9861 57.5458
15452 1 14.5672 67.9993 56.2713
15126 1 15.4848 66.3505 58.7835
15451 1 12.7585 67.9646 58.8177
21001 2 13.66 66.3711 57.5115
15153 1 17.2934 66.3831 56.2358
15124 1 18.2147 67.9646 58.8177
21003 2 16.3901 67.9861 57.5458
15155 1 20.0234 67.9993 56.2713
14886 1 20.941 66.3505 58.7835
20685 2 19.1162 66.3711 57.5115
16043 1 0.928004 69.615 56.3065
16004 1 1.84854 71.1919 58.8861
21579 2 2.75103 69.6005 57.5801
21847 2 0.0241355 71.2143 57.6139
16045 1 3.65718 71.2298 56.341
15733 1 4.57556 69.5784 58.852
21577 2 5.48037 71.2143 57.6139
15736 1 9.11342 71.2298 56.341
15738 1 6.38424 69.615 56.3065
15735 1 7.30478 71.1919 58.8861
21301 2 8.20727 69.6005 57.5801
15453 1 11.8405 69.615 56.3065
15410 1 10.0318 69.5784 58.852
21303 2 10.9366 71.2143 57.6139
15455 1 14.5697 71.2298 56.341
15125 1 15.488 69.5784 58.852
15408 1 12.761 71.1919 58.8861
20970 2 13.6635 69.6005 57.5801
15130 1 17.2967 69.615 56.3065
15127 1 18.2173 71.1919 58.8861
20968 2 16.3929 71.2143 57.6139
15128 1 20.0259 71.2298 56.341
14871 1 20.9443 69.5784 58.852
20684 2 19.1197 69.6005 57.5801
16008 1 0.929833 72.8438 56.3745
21578 2 2.7532 72.8274 57.647
15688 1 4.57747 72.8049 58.9196
15737 1 6.38607 72.8438 56.3745
21255 2 8.20944 72.8274 57.647
15414 1 11.8423 72.8438 56.3745
15409 1 10.0337 72.8049 58.9196
15094 1 15.4899 72.8049 58.9196
20969 2 13.6657 72.8274 57.647
15129 1 17.2985 72.8438 56.3745
14870 1 20.9462 72.8049 58.9196
20661 2 19.1219 72.8274 57.647
16005 1 1.84993 74.4173 58.9524
21818 2 0.0258053 74.4396 57.6793
16007 1 0.930843 76.0685 56.4384
21540 2 2.75448 76.051 57.7107
16006 1 3.65852 74.4567 56.407
21580 2 5.48204 74.4396 57.6793
15739 1 9.11476 74.4567 56.407
15686 1 7.30617 74.4173 58.9524
15692 1 6.38708 76.0685 56.4384
21254 2 8.21072 76.051 57.7107
21253 2 10.9383 74.4396 57.6793
15413 1 11.8433 76.0685 56.4384
15412 1 14.571 74.4567 56.407
15411 1 12.7624 74.4173 58.9524
20930 2 13.667 76.051 57.7107
15092 1 18.2186 74.4173 58.9524
20971 2 16.3945 74.4396 57.6793
15098 1 17.2996 76.0685 56.4384
15131 1 20.0272 74.4567 56.407
20660 2 19.1232 76.051 57.7107
15976 1 0.931493 79.2892 56.4974
21539 2 2.75525 79.2712 57.77
21819 2 0.026789 77.6615 57.7409
16009 1 3.65931 77.6793 56.4685
21538 2 5.48303 77.6615 57.7409
15690 1 9.11555 77.6793 56.4685
15691 1 6.38773 79.2892 56.4974
21208 2 8.21149 79.2712 57.77
15368 1 11.844 79.2892 56.4974
21256 2 10.9393 77.6615 57.7409
15415 1 14.5718 77.6793 56.4685
20929 2 13.6677 79.2712 57.77
15097 1 17.3002 79.2892 56.4974
20928 2 16.3955 77.6615 57.7409
15096 1 20.028 77.6793 56.4685
20630 2 19.124 79.2712 57.77
15975 1 0.932036 82.506 56.5516
21508 2 2.75581 82.4884 57.8249
21794 2 0.0274273 80.8801 57.798
15974 1 3.65989 80.898 56.5251
21541 2 5.48367 80.8801 57.798
15652 1 6.38827 82.506 56.5516
15693 1 9.11613 80.898 56.5251
21207 2 8.21205 82.4884 57.8249
15367 1 11.8445 82.506 56.5516
21206 2 10.9399 80.8801 57.798
15366 1 14.5724 80.898 56.5251
20886 2 13.6683 82.4884 57.8249
15062 1 17.3008 82.506 56.5516
20931 2 16.3961 80.8801 57.798
15099 1 20.0286 80.898 56.5251
20629 2 19.1245 82.4884 57.8249
15952 1 0.932588 85.7198 56.6012
21507 2 2.7563 85.7029 57.8752
21795 2 0.0279363 84.0959 57.8506
15977 1 3.66043 84.1133 56.577
21506 2 5.48417 84.0959 57.8506
15650 1 9.11666 84.1133 56.577
15651 1 6.38883 85.7198 56.6012
21168 2 8.21254 85.7029 57.8752
15323 1 11.8451 85.7198 56.6012
21209 2 10.9404 84.0959 57.8506
15369 1 14.5729 84.1133 56.577
20885 2 13.6688 85.7029 57.8752
15061 1 17.3013 85.7198 56.6012
20884 2 16.3967 84.0959 57.8506
15060 1 20.0291 84.1133 56.577
20598 2 19.125 85.7029 57.8752
15951 1 0.933195 88.9311 56.6463
21484 2 2.75682 88.9153 57.9209
21778 2 0.0284345 87.3093 57.8986
15950 1 3.661 87.3257 56.6243
21509 2 5.48467 87.3093 57.8986
15620 1 6.38943 88.9311 56.6463
15653 1 9.11724 87.3257 56.6243
21167 2 8.21306 88.9153 57.9209
15322 1 11.8457 88.9311 56.6463
21166 2 10.9409 87.3093 57.8986
15321 1 14.5735 87.3257 56.6243
20843 2 13.6693 88.9153 57.9209
15026 1 17.3019 88.9311 56.6463
20887 2 16.3971 87.3093 57.8986
15063 1 20.0297 87.3257 56.6243
20597 2 19.1255 88.9153 57.9209
21779 2 0.0289768 90.5209 57.9421
15953 1 3.66164 90.5361 56.6672
21482 2 5.48522 90.5209 57.9421
15618 1 9.11788 90.5361 56.6672
21169 2 10.9415 90.5209 57.9421
15324 1 14.5741 90.5361 56.6672
20841 2 16.3977 90.5209 57.9421
15024 1 20.0304 90.5361 56.6672
15936 1 0.933865 92.1406 56.6871
21483 2 2.75739 92.1261 57.9623
21770 2 0.029579 93.7311 57.9813
15934 1 3.66234 93.7448 56.7059
21485 2 5.48582 93.7311 57.9813
15619 1 6.3901 92.1406 56.6871
21136 2 8.21363 92.1261 57.9623
15621 1 9.11858 93.7448 56.7059
15285 1 11.8463 92.1406 56.6871
21134 2 10.9421 93.7311 57.9813
20842 2 13.6699 92.1261 57.9623
15283 1 14.5748 93.7448 56.7059
15025 1 17.3026 92.1406 56.6871
20844 2 16.3983 93.7311 57.9813
20566 2 19.1261 92.1261 57.9623
15027 1 20.0311 93.7448 56.7059
15935 1 0.934585 95.3487 56.7237
21468 2 2.75802 95.3357 57.9993
21771 2 0.0302333 96.9402 58.0162
15937 1 3.66308 96.9524 56.7404
21466 2 5.48647 96.9402 58.0162
15594 1 9.11931 96.9524 56.7404
15596 1 6.39082 95.3487 56.7237
21135 2 8.21426 95.3357 57.9993
15284 1 11.8471 95.3487 56.7237
21137 2 10.9427 96.9402 58.0162
15286 1 14.5756 96.9524 56.7404
20807 2 13.6705 95.3357 57.9993
14991 1 17.3033 95.3487 56.7237
20805 2 16.3989 96.9402 58.0162
14989 1 20.0318 96.9524 56.7404
20565 2 19.1267 95.3357 57.9993
15928 1 0.935333 98.5558 56.7562
21467 2 2.75869 98.5445 58.0322
21769 2 0.0309189 100.149 58.0471
15926 1 3.66383 100.159 56.7709
21469 2 5.48716 100.149 58.0471
15595 1 6.39157 98.5558 56.7562
15597 1 9.12007 100.159 56.7709
21112 2 8.21493 98.5445 58.0322
15255 1 11.8478 98.5558 56.7562
21110 2 10.9434 100.149 58.0471
15253 1 14.5763 100.159 56.7709
20806 2 13.6712 98.5445 58.0322
14990 1 17.304 98.5558 56.7562
20808 2 16.3996 100.149 58.0471
14992 1 20.0325 100.159 56.7709
20535 2 19.1274 98.5445 58.0322
21654 2 0.920036 53.4404 59.8559
15813 1 2.74558 53.4355 61.1328
16110 1 0.0160684 51.8261 61.1217
21688 2 3.64668 51.829 59.8446
15812 1 5.47231 51.8261 61.1217
21369 2 9.10292 51.829 59.8446
21370 2 6.37627 53.4404 59.8559
15478 1 8.20181 53.4355 61.1328
21022 2 11.8325 53.4404 59.8559
15504 1 10.9285 51.8261 61.1217
21040 2 14.5592 51.829 59.8446
15162 1 13.6581 53.4355 61.1328
20706 2 17.2888 53.4404 59.8559
15161 1 16.3848 51.8261 61.1217
20705 2 20.0154 51.829 59.8446
14893 1 19.1143 53.4355 61.1328
16074 1 0.0192697 55.045 61.1478
21652 2 3.65009 55.052 59.8714
15814 1 5.47551 55.045 61.1478
21371 2 9.10632 55.052 59.8714
15476 1 10.9317 55.045 61.1478
21020 2 14.5626 55.052 59.8714
15163 1 16.388 55.045 61.1478
20707 2 20.0188 55.052 59.8714
21653 2 0.924248 56.6637 59.8906
15775 1 2.74954 56.655 61.1665
16075 1 0.0237943 58.2652 61.1886
21655 2 3.65489 58.2757 59.9131
15773 1 5.48003 58.2652 61.1886
21338 2 6.38049 56.6637 59.8906
15477 1 8.20577 56.655 61.1665
21336 2 9.11113 58.2757 59.9131
21021 2 11.8367 56.6637 59.8906
15479 1 10.9363 58.2652 61.1886
15146 1 13.662 56.655 61.1665
21023 2 14.5674 58.2757 59.9131
20698 2 17.293 56.6637 59.8906
15144 1 16.3925 58.2652 61.1886
14892 1 19.1183 56.655 61.1665
20696 2 20.0236 58.2757 59.9131
21615 2 0.929406 59.8879 59.9386
15774 1 2.75441 59.8758 61.2135
16038 1 0.0287955 61.4868 61.2409
21613 2 3.66016 61.5004 59.9665
15776 1 5.48503 61.4868 61.2409
21337 2 6.38564 59.8879 59.9386
21339 2 9.1164 61.5004 59.9665
15446 1 8.21065 59.8758 61.2135
20998 2 11.8419 59.8879 59.9386
15444 1 10.9413 61.4868 61.2409
20996 2 14.5726 61.5004 59.9665
15145 1 13.6669 59.8758 61.2135
20697 2 17.2981 59.8879 59.9386
15147 1 16.3975 61.4868 61.2409
20699 2 20.0289 61.5004 59.9665
14885 1 19.1231 59.8758 61.2135
21614 2 0.93457 63.113 59.9964
15730 1 2.75932 63.0981 61.2704
16039 1 0.0334324 64.7098 61.3014
21616 2 3.66502 64.7259 60.0278
15728 1 5.48967 64.7098 61.3014
21296 2 9.12126 64.7259 60.0278
21298 2 6.39081 63.113 59.9964
15445 1 8.21556 63.0981 61.2704
20997 2 11.847 63.113 59.9964
15447 1 10.9459 64.7098 61.3014
20999 2 14.5775 64.7259 60.0278
15122 1 13.6718 63.0981 61.2704
20682 2 17.3033 63.113 59.9964
15120 1 16.4021 64.7098 61.3014
20680 2 20.0337 64.7259 60.0278
14884 1 19.128 63.0981 61.2704
21575 2 0.938979 66.3388 60.0604
15729 1 2.76353 66.3216 61.3337
16002 1 0.0371051 67.9336 61.3667
21573 2 3.66888 67.9517 60.0935
15731 1 5.49334 67.9336 61.3667
21297 2 6.39522 66.3388 60.0604
21299 2 9.12512 67.9517 60.0935
15406 1 8.21977 66.3216 61.3337
20966 2 11.8515 66.3388 60.0604
15404 1 10.9496 67.9336 61.3667
20964 2 14.5814 67.9517 60.0935
15121 1 13.676 66.3216 61.3337
20681 2 17.3077 66.3388 60.0604
15123 1 16.4058 67.9336 61.3667
20683 2 20.0376 67.9517 60.0935
14869 1 19.1322 66.3216 61.3337
21574 2 0.942247 69.5645 60.127
15684 1 2.76662 69.5457 61.4002
16003 1 0.0396014 71.1577 61.4337
21576 2 3.67156 71.177 60.1604
15682 1 5.49584 71.1577 61.4337
21249 2 9.1278 71.177 60.1604
21251 2 6.39849 69.5645 60.127
15405 1 8.22286 69.5457 61.4002
20965 2 11.8547 69.5645 60.127
15407 1 10.9521 71.1577 61.4337
20967 2 14.584 71.177 60.1604
15090 1 13.6791 69.5457 61.4002
20658 2 17.311 69.5645 60.127
15088 1 16.4083 71.1577 61.4337
20656 2 20.0403 71.177 60.1604
14868 1 19.1353 69.5457 61.4002
21536 2 0.944382 72.7892 60.1934
15683 1 2.76856 72.7695 61.4669
21250 2 6.40062 72.7892 60.1934
15360 1 8.2248 72.7695 61.4669
20926 2 11.8569 72.7892 60.1934
15089 1 13.681 72.7695 61.4669
20657 2 17.3131 72.7892 60.1934
14846 1 19.1373 72.7695 61.4669
15970 1 0.0410584 74.3811 61.4996
21535 2 0.945636 76.0121 60.2575
15644 1 2.76961 75.9923 61.5317
15687 1 4.57846 76.029 58.9843
21534 2 3.67322 74.4009 60.2258
15685 1 5.4973 74.3811 61.4996
21252 2 9.12946 74.4009 60.2258
21204 2 6.40187 76.0121 60.2575
15359 1 8.22585 75.9923 61.5317
15364 1 10.0347 76.029 58.9843
15358 1 10.9535 74.3811 61.4996
20925 2 11.8581 76.0121 60.2575
15093 1 15.4909 76.029 58.9843
20924 2 14.5857 74.4009 60.2258
15054 1 13.6821 75.9923 61.5317
15091 1 16.4098 74.3811 61.4996
20627 2 17.3144 76.0121 60.2575
14848 1 20.9472 76.029 58.9843
20659 2 20.0419 74.4009 60.2258
14845 1 19.1383 75.9923 61.5317
15972 1 1.85064 77.64 59.0151
21504 2 0.946326 79.2329 60.318
15643 1 2.77009 79.2135 61.5931
15971 1 0.0417825 77.6031 61.5629
15648 1 4.57897 79.2503 59.0448
21537 2 3.67415 77.6228 60.2882
15642 1 5.49802 77.6031 61.5629
15689 1 7.30687 77.64 59.0151
21202 2 9.13039 77.6228 60.2882
21203 2 6.40256 79.2329 60.318
15315 1 8.22633 79.2135 61.5931
15363 1 10.0352 79.2503 59.0448
20882 2 11.8588 79.2329 60.318
15361 1 10.9543 77.6031 61.5629
15058 1 15.4914 79.2503 59.0448
15362 1 12.7631 77.64 59.0151
20927 2 14.5866 77.6228 60.2882
15053 1 13.6826 79.2135 61.5931
15095 1 18.2194 77.64 59.0151
20626 2 17.315 79.2329 60.318
15052 1 16.4105 77.6031 61.5629
14847 1 20.9477 79.2503 59.0448
20625 2 20.0429 77.6228 60.2882
14822 1 19.1388 79.2135 61.5931
15973 1 1.85101 80.8599 59.0733
21503 2 0.946721 82.4516 60.3742
15612 1 2.77027 82.4331 61.6502
15946 1 0.0420828 80.8235 61.6222
15647 1 4.57927 82.4688 59.1007
21502 2 3.67467 80.8425 60.3466
15645 1 5.49832 80.8235 61.6222
15646 1 7.30725 80.8599 59.0733
21164 2 6.40296 82.4516 60.3742
21205 2 9.1309 80.8425 60.3466
15314 1 8.22651 82.4331 61.6502
15319 1 10.0355 82.4688 59.1007
20881 2 11.8592 82.4516 60.3742
15313 1 10.9546 80.8235 61.6222
15057 1 15.4917 82.4688 59.1007
15365 1 12.7635 80.8599 59.0733
20880 2 14.5871 80.8425 60.3466
15018 1 13.6827 82.4331 61.6502
15056 1 18.2197 80.8599 59.0733
20595 2 17.3154 82.4516 60.3742
15055 1 16.4108 80.8235 61.6222
14824 1 20.948 82.4688 59.1007
20628 2 20.0434 80.8425 60.3466
14821 1 19.139 82.4331 61.6502
15948 1 1.85128 84.0772 59.1269
21480 2 0.947012 85.6683 60.4259
15611 1 2.77037 85.6509 61.7027
15947 1 0.042202 84.0422 61.6771
15616 1 4.57953 85.6849 59.152
21505 2 3.67499 84.0602 60.4006
15610 1 5.49844 84.0422 61.6771
15649 1 7.30752 84.0772 59.1269
21162 2 9.13123 84.0602 60.4006
21163 2 6.40325 85.6683 60.4259
15277 1 8.22661 85.6509 61.7027
15318 1 10.0358 85.6849 59.152
20839 2 11.8595 85.6683 60.4259
15316 1 10.9547 84.0422 61.6771
15317 1 12.7638 84.0772 59.1269
15022 1 15.492 85.6849 59.152
20883 2 14.5875 84.0602 60.4006
15017 1 13.6828 85.6509 61.7027
15059 1 18.22 84.0772 59.1269
20594 2 17.3157 85.6683 60.4259
15016 1 16.4109 84.0422 61.6771
14823 1 20.9482 85.6849 59.152
20593 2 20.0437 84.0602 60.4006
14798 1 19.1391 85.6509 61.7027
15949 1 1.85156 87.2922 59.1758
21479 2 0.947314 88.8834 60.4729
15588 1 2.7705 88.8674 61.7505
15930 1 0.0423053 87.2593 61.7272
15615 1 4.57985 88.899 59.1985
21478 2 3.67528 87.276 60.45
15613 1 5.49854 87.2593 61.7272
15614 1 7.3078 87.2922 59.1758
21132 2 6.40355 88.8834 60.4729
21165 2 9.13151 87.276 60.45
15276 1 8.22674 88.8674 61.7505
15281 1 10.0361 88.899 59.1985
20838 2 11.8598 88.8834 60.4729
15275 1 10.9548 87.2593 61.7272
15021 1 15.4923 88.899 59.1985
15320 1 12.764 87.2922 59.1758
20837 2 14.5878 87.276 60.45
14983 1 13.683 88.8674 61.7505
15020 1 18.2203 87.2922 59.1758
20563 2 17.316 88.8834 60.4729
15019 1 16.411 87.2593 61.7272
14800 1 20.9486 88.899 59.1985
20596 2 20.044 87.276 60.45
14797 1 19.1392 88.8674 61.7505
15932 1 1.85193 90.5054 59.2201
15931 1 0.0424858 90.4751 61.7726
21481 2 3.67561 90.4904 60.4947
15586 1 5.49872 90.4751 61.7726
15617 1 7.30817 90.5054 59.2201
21130 2 9.13185 90.4904 60.4947
15278 1 10.955 90.4751 61.7726
15279 1 12.7644 90.5054 59.2201
20840 2 14.5881 90.4904 60.4947
15023 1 18.2206 90.5054 59.2201
14981 1 16.4112 90.4751 61.7726
20561 2 20.0443 90.4904 60.4947
21464 2 0.947688 92.0971 60.5153
15933 1 1.85239 93.7172 59.2598
15592 1 4.58027 92.1114 59.2405
21462 2 3.67603 93.7036 60.5349
21131 2 6.40393 92.0971 60.5153
15590 1 7.30863 93.7172 59.2598
21133 2 9.13227 93.7036 60.5349
15280 1 10.0365 92.1114 59.2405
20803 2 11.8602 92.0971 60.5153
14987 1 15.4927 92.1114 59.2405
15282 1 12.7649 93.7172 59.2598
20801 2 14.5885 93.7036 60.5349
20562 2 17.3164 92.0971 60.5153
14985 1 18.2211 93.7172 59.2598
14799 1 20.949 92.1114 59.2405
20564 2 20.0447 93.7036 60.5349
15924 1 1.85293 96.928 59.2952
21463 2 0.948149 95.3099 60.5533
15591 1 4.58077 95.3227 59.2781
21465 2 3.67653 96.9159 60.5706
15593 1 7.30917 96.928 59.2952
21106 2 9.13277 96.9159 60.5706
21108 2 6.40439 95.3099 60.5533
15251 1 10.037 95.3227 59.2781
20802 2 11.8606 95.3099 60.5533
14986 1 15.4932 95.3227 59.2781
15249 1 12.7654 96.928 59.2952
20804 2 14.589 96.9159 60.5706
14988 1 18.2216 96.928 59.2952
20532 2 17.3169 95.3099 60.5533
14776 1 20.9495 95.3227 59.2781
20530 2 20.0452 96.9159 60.5706
15925 1 1.85354 100.138 59.3264
21456 2 0.948687 98.5219 60.5868
15576 1 4.58135 98.5332 59.3113
21454 2 3.6771 100.128 60.602
15574 1 7.30978 100.138 59.3264
21107 2 6.40493 98.5219 60.5868
21109 2 9.13334 100.128 60.602
15250 1 10.0376 98.5332 59.3113
20775 2 11.8612 98.5219 60.5868
14959 1 15.4938 98.5332 59.3113
15252 1 12.766 100.138 59.3264
20773 2 14.5896 100.128 60.602
14957 1 18.2223 100.138 59.3264
20531 2 17.3174 98.5219 60.5868
14775 1 20.9501 98.5332 59.3113
20533 2 20.0458 100.128 60.602
21650 2 1.84088 51.8257 62.4069
15771 1 0.938931 53.4302 63.6951
21334 2 4.57023 53.4338 62.4175
15811 1 3.66587 51.8239 63.6848
21368 2 7.29712 51.8257 62.4069
15473 1 9.12211 51.8239 63.6848
15474 1 6.39517 53.4302 63.6951
21018 2 10.0265 53.4338 62.4175
15142 1 11.8514 53.4302 63.6951
20694 2 15.4827 53.4338 62.4175
21017 2 12.7534 51.8257 62.4069
15160 1 14.5783 51.8239 63.6848
20704 2 18.2096 51.8257 62.4069
14890 1 17.3076 53.4302 63.6951
20456 2 20.9389 53.4338 62.4175
14889 1 20.0346 51.8239 63.6848
21651 2 1.84372 55.042 62.4319
15769 1 3.66859 55.0368 63.7092
21332 2 7.29996 55.042 62.4319
15475 1 9.12483 55.0368 63.7092
21019 2 12.7562 55.042 62.4319
15140 1 14.5811 55.0368 63.7092
20692 2 18.2124 55.042 62.4319
14891 1 20.0373 55.0368 63.7092
15770 1 0.942292 56.6437 63.7268
21611 2 1.84775 58.2595 62.4709
21333 2 4.57375 56.6506 62.4498
15772 1 3.67243 58.2511 63.7475
15442 1 6.39853 56.6437 63.7268
21335 2 7.30399 58.2595 62.4709
15440 1 9.12867 58.2511 63.7475
20994 2 10.03 56.6506 62.4498
15141 1 11.8548 56.6437 63.7268
20693 2 15.4862 56.6506 62.4498
20992 2 12.7602 58.2595 62.4709
15143 1 14.5849 58.2511 63.7475
14882 1 17.311 56.6437 63.7268
20695 2 18.2165 58.2595 62.4709
20455 2 20.9425 56.6506 62.4498
14880 1 20.0411 58.2511 63.7475
21612 2 1.85225 61.4785 62.5213
15726 1 0.946451 59.859 63.7711
21294 2 4.57811 59.8688 62.4949
15724 1 3.67673 61.4673 63.7971
21292 2 7.30848 61.4785 62.5213
15441 1 6.40269 59.859 63.7711
15443 1 9.13297 61.4673 63.7971
20993 2 10.0343 59.8688 62.4949
15118 1 11.8589 59.859 63.7711
20678 2 15.4906 59.8688 62.4949
20995 2 12.7647 61.4785 62.5213
15116 1 14.5892 61.4673 63.7971
20676 2 18.221 61.4785 62.5213
14881 1 17.3152 59.859 63.7711
20454 2 20.9468 59.8688 62.4949
14883 1 20.0454 61.4673 63.7971
21571 2 1.8565 64.6989 62.5798
15725 1 0.950714 63.0761 63.8253
21293 2 4.58256 63.0885 62.5497
15727 1 3.68081 64.6853 63.855
21295 2 7.31274 64.6989 62.5798
15400 1 9.13705 64.6853 63.855
15402 1 6.40695 63.0761 63.8253
20962 2 10.0388 63.0885 62.5497
15117 1 11.8632 63.0761 63.8253
20677 2 15.495 63.0885 62.5497
20960 2 12.769 64.6989 62.5798
15119 1 14.5933 64.6853 63.855
20679 2 18.2252 64.6989 62.5798
14866 1 17.3194 63.0761 63.8253
20447 2 20.9513 63.0885 62.5497
14864 1 20.0495 64.6853 63.855
21572 2 1.86002 67.9205 62.6432
15680 1 0.95448 66.2949 63.8861
21247 2 4.58649 66.3096 62.6111
15678 1 3.68417 67.9049 63.9182
21245 2 7.31626 67.9205 62.6432
15401 1 6.41072 66.2949 63.8861
15403 1 9.14041 67.9049 63.9182
20961 2 10.0427 66.3096 62.6111
15086 1 11.867 66.2949 63.8861
20654 2 15.499 66.3096 62.6111
20963 2 12.7725 67.9205 62.6432
15084 1 14.5966 67.9049 63.9182
20652 2 18.2287 67.9205 62.6432
14865 1 17.3232 66.2949 63.8861
20446 2 20.9552 66.3096 62.6111
14867 1 20.0529 67.9049 63.9182
21532 2 1.86257 71.1426 62.7087
15679 1 0.957378 69.5152 63.9508
21246 2 4.58954 69.5315 62.6759
15681 1 3.68658 71.1256 63.9836
21248 2 7.31881 71.1426 62.7087
15354 1 9.14282 71.1256 63.9836
15356 1 6.41362 69.5152 63.9508
20922 2 10.0458 69.5315 62.6759
15085 1 11.8699 69.5152 63.9508
20653 2 15.502 69.5315 62.6759
20920 2 12.7751 71.1426 62.7087
15087 1 14.5991 71.1256 63.9836
20655 2 18.2313 71.1426 62.7087
14843 1 17.3261 69.5152 63.9508
20431 2 20.9583 69.5315 62.6759
14841 1 20.0553 71.1256 63.9836
15640 1 0.959325 72.7362 64.0165
21200 2 4.59162 72.7537 62.7414
15355 1 6.41556 72.7362 64.0165
20921 2 10.0479 72.7537 62.7414
15050 1 11.8718 72.7362 64.0165
20623 2 15.5041 72.7537 62.7414
14842 1 17.328 72.7362 64.0165
20430 2 20.9603 72.7537 62.7414
21533 2 1.86422 74.3647 62.7737
15639 1 0.96045 75.9574 64.081
15638 1 3.6881 74.3468 64.049
21199 2 4.59289 75.9754 62.8055
21198 2 7.32046 74.3647 62.7737
15357 1 9.14433 74.3468 64.049
15311 1 6.41669 75.9574 64.081
20878 2 10.0491 75.9754 62.8055
15049 1 11.8729 75.9574 64.081
20923 2 12.7767 74.3647 62.7737
15048 1 14.6006 74.3468 64.049
20622 2 15.5054 75.9754 62.8055
20621 2 18.2329 74.3647 62.7737
14819 1 17.3292 75.9574 64.081
14844 1 20.0568 74.3468 64.049
20411 2 20.9616 75.9754 62.8055
21500 2 1.86517 77.586 62.8365
15608 1 0.960978 79.1782 64.1428
21160 2 4.59357 79.1962 62.8666
15641 1 3.68889 77.5678 64.1123
21201 2 7.3214 77.586 62.8365
15309 1 9.14513 77.5678 64.1123
15310 1 6.41722 79.1782 64.1428
20877 2 10.0498 79.1962 62.8666
15014 1 11.8735 79.1782 64.1428
20591 2 15.506 79.1962 62.8666
20876 2 12.7776 77.586 62.8365
15051 1 14.6014 77.5678 64.1123
20624 2 18.2339 77.586 62.8365
14818 1 17.3297 79.1782 64.1428
20410 2 20.9623 79.1962 62.8666
14817 1 20.0576 77.5678 64.1123
21501 2 1.86564 80.8062 62.8957
15607 1 0.961151 82.3983 64.2006
21159 2 4.5939 82.4159 62.9238
15606 1 3.68921 80.7883 64.1722
21158 2 7.32188 80.8062 62.8957
15273 1 6.41739 82.3983 64.2006
15312 1 9.14545 80.7883 64.1722
20835 2 10.0501 82.4159 62.9238
15013 1 11.8736 82.3983 64.2006
20590 2 15.5064 82.4159 62.9238
20879 2 12.7781 80.8062 62.8957
15012 1 14.6017 80.7883 64.1722
20589 2 18.2344 80.8062 62.8957
14795 1 17.3299 82.3983 64.2006
20391 2 20.9626 82.4159 62.9238
14820 1 20.0579 80.7883 64.1722
21476 2 1.86588 84.0253 62.9507
15584 1 0.961189 85.6177 64.254
21128 2 4.59408 85.6344 62.9765
15609 1 3.68929 84.0081 64.2279
21161 2 7.32212 84.0253 62.9507
15271 1 9.14553 84.0081 64.2279
15272 1 6.41743 85.6177 64.254
20834 2 10.0503 85.6344 62.9765
14979 1 11.8737 85.6177 64.254
20559 2 15.5066 85.6344 62.9765
20833 2 12.7784 84.0253 62.9507
15015 1 14.6018 84.0081 64.2279
20592 2 18.2346 84.0253 62.9507
14794 1 17.3299 85.6177 64.254
20390 2 20.9628 85.6344 62.9765
14793 1 20.058 84.0081 64.2279
21477 2 1.86604 87.2432 63.0011
15583 1 0.961242 88.8363 64.3026
21127 2 4.59426 88.8518 63.0245
15582 1 3.68933 87.2271 64.2789
21126 2 7.32228 87.2432 63.0011
15243 1 6.41748 88.8363 64.3026
15274 1 9.14556 87.2271 64.2789
20799 2 10.0505 88.8518 63.0245
14978 1 11.8737 88.8363 64.3026
20558 2 15.5067 88.8518 63.0245
20836 2 12.7785 87.2432 63.0011
14977 1 14.6018 87.2271 64.2789
20557 2 18.2348 87.2432 63.0011
14771 1 17.33 88.8363 64.3026
20371 2 20.963 88.8518 63.0245
14796 1 20.058 87.2271 64.2789
21460 2 1.86626 90.4602 63.0468
15585 1 3.68942 90.4453 64.3251
21129 2 7.32249 90.4602 63.0468
15241 1 9.14566 90.4453 64.3251
20797 2 12.7787 90.4602 63.0468
14980 1 14.6019 90.4453 64.3251
20560 2 18.235 90.4602 63.0468
14769 1 20.0581 90.4453 64.3251
15587 1 2.77074 92.0826 61.7935
15922 1 0.0427816 93.6899 61.8132
15568 1 0.961398 92.0541 64.3464
21461 2 1.86656 93.6763 63.0877
15589 1 5.49902 93.6899 61.8132
21104 2 4.59451 92.0683 63.0678
15566 1 3.68964 93.6628 64.3665
15247 1 8.22698 92.0826 61.7935
15242 1 6.41764 92.0541 64.3464
21102 2 7.3228 93.6763 63.0877
15244 1 9.14588 93.6628 64.3665
15245 1 10.9553 93.6899 61.8132
20798 2 10.0508 92.0683 63.0678
14951 1 11.8739 92.0541 64.3464
14982 1 13.6832 92.0826 61.7935
20528 2 15.507 92.0683 63.0678
20800 2 12.779 93.6763 63.0877
14949 1 14.6021 93.6628 64.3665
14984 1 16.4115 93.6899 61.8132
14770 1 17.3301 92.0541 64.3464
20526 2 18.2353 93.6763 63.0877
14774 1 19.1395 92.0826 61.7935
20370 2 20.9632 92.0683 63.0678
14772 1 20.0584 93.6628 64.3665
15572 1 2.77109 95.297 61.8319
15923 1 0.0431934 96.9038 61.8494
21452 2 1.86697 96.8918 63.1241
15567 1 0.961686 95.2714 64.3854
15570 1 5.49943 96.9038 61.8494
21103 2 4.59487 95.2841 63.1065
15569 1 3.69 96.8798 64.4032
15246 1 8.22733 95.297 61.8319
21105 2 7.32321 96.8918 63.1241
15219 1 9.14624 96.8798 64.4032
15221 1 6.41792 95.2714 64.3854
15248 1 10.9557 96.9038 61.8494
20771 2 10.0511 95.2841 63.1065
14950 1 11.8742 95.2714 64.3854
14955 1 13.6836 95.297 61.8319
20527 2 15.5074 95.2841 63.1065
20769 2 12.7795 96.8918 63.1241
14952 1 14.6025 96.8798 64.4032
14953 1 16.4119 96.9038 61.8494
20529 2 18.2357 96.8918 63.1241
14748 1 17.3304 95.2714 64.3854
14773 1 19.1398 95.297 61.8319
20351 2 20.9636 95.2841 63.1065
14746 1 20.0587 96.8798 64.4032
15571 1 2.77156 98.5106 61.8658
15921 1 0.0436982 100.117 61.8811
21453 2 1.86748 100.107 63.156
15560 1 0.9621 98.4881 64.4198
15573 1 5.49994 100.117 61.8811
21088 2 4.59533 98.4993 63.1406
15558 1 3.69046 100.096 64.4354
15225 1 8.22779 98.5106 61.8658
21086 2 7.32371 100.107 63.156
15220 1 6.41834 98.4881 64.4198
15222 1 9.1467 100.096 64.4354
15223 1 10.9562 100.117 61.8811
20770 2 10.0516 98.4993 63.1406
14931 1 11.8746 98.4881 64.4198
14954 1 13.684 98.5106 61.8658
20504 2 15.5078 98.4993 63.1406
20772 2 12.78 100.107 63.156
14929 1 14.6029 100.096 64.4354
14956 1 16.4124 100.117 61.8811
20502 2 18.2362 100.107 63.156
14747 1 17.3308 98.4881 64.4198
14751 1 19.1403 98.5106 61.8658
20350 2 20.964 98.4993 63.1406
14749 1 20.0592 100.096 64.4354
21330 2 2.76318 53.4278 64.9781
21649 2 0.0339917 51.823 64.9682
15767 1 1.85839 51.822 66.2486
21329 2 5.49023 51.823 64.9682
15438 1 4.58753 53.4253 66.2583
20990 2 8.21942 53.4278 64.9781
15472 1 7.31462 51.822 66.2486
21016 2 10.9465 51.823 64.9682
15138 1 10.0438 53.4253 66.2583
20690 2 13.6757 53.4278 64.9781
14878 1 15.5 53.4253 66.2583
15137 1 12.7709 51.822 66.2486
20689 2 16.4027 51.823 64.9682
14888 1 18.2271 51.822 66.2486
20453 2 19.1319 53.4278 64.9781
14704 1 20.9562 53.4253 66.2583
21609 2 0.0364517 55.033 64.9916
15768 1 1.86074 55.029 66.2717
21331 2 5.49269 55.033 64.9916
15436 1 7.31698 55.029 66.2717
20988 2 10.9489 55.033 64.9916
15139 1 12.7732 55.029 66.2717
20691 2 16.4052 55.033 64.9916
14876 1 18.2295 55.029 66.2717
21290 2 2.76622 56.6385 65.0086
21610 2 0.0399423 58.2444 65.0286
15722 1 1.86407 58.2376 66.3081
21288 2 5.49618 58.2444 65.0286
15437 1 4.59044 56.6331 66.2883
20989 2 8.22246 56.6385 65.0086
15439 1 7.32031 58.2376 66.3081
20991 2 10.9524 58.2444 65.0286
15114 1 10.0467 56.6331 66.2883
20674 2 13.6787 56.6385 65.0086
14877 1 15.5029 56.6331 66.2883
15112 1 12.7765 58.2376 66.3081
20672 2 16.4087 58.2444 65.0286
14879 1 18.2328 58.2376 66.3081
20452 2 19.1349 56.6385 65.0086
14703 1 20.9592 56.6331 66.2883
21289 2 2.77001 59.8508 65.0514
21569 2 0.0438796 61.4578 65.0766
15723 1 1.86783 61.4485 66.3556
21291 2 5.50012 61.4578 65.0766
15398 1 4.59405 59.8428 66.3307
20958 2 8.22625 59.8508 65.0514
15396 1 7.32407 61.4485 66.3556
20956 2 10.9564 61.4578 65.0766
15113 1 10.0503 59.8428 66.3307
20673 2 13.6825 59.8508 65.0514
14862 1 15.5065 59.8428 66.3307
15115 1 12.7803 61.4485 66.3556
20675 2 16.4126 61.4578 65.0766
14860 1 18.2365 61.4485 66.3556
20445 2 19.1387 59.8508 65.0514
14702 1 20.9628 59.8428 66.3307
21243 2 2.77395 63.0652 65.1038
21570 2 0.047684 64.6732 65.1328
15676 1 1.87146 64.6617 66.4114
21241 2 5.50392 64.6732 65.1328
15397 1 4.59781 63.0548 66.3827
20957 2 8.23019 63.0652 65.1038
15399 1 7.3277 64.6617 66.4114
20959 2 10.9602 64.6732 65.1328
15082 1 10.054 63.0548 66.3827
20650 2 13.6864 63.0652 65.1038
14861 1 15.5103 63.0548 66.3827
15080 1 12.7839 64.6617 66.4114
20648 2 16.4164 64.6732 65.1328
14863 1 18.2402 64.6617 66.4114
20444 2 19.1427 63.0652 65.1038
14695 1 20.9665 63.0548 66.3827
21242 2 2.77751 66.2817 65.1631
21530 2 0.050915 67.8906 65.1943
15677 1 1.87455 67.8771 66.4727
21244 2 5.50715 67.8906 65.1943
15352 1 4.60121 66.2691 66.4415
20918 2 8.23375 66.2817 65.1631
15350 1 7.33079 67.8771 66.4727
20916 2 10.9634 67.8906 65.1943
15081 1 10.0575 66.2691 66.4415
20649 2 13.69 66.2817 65.1631
14839 1 15.5137 66.2691 66.4415
15083 1 12.787 67.8771 66.4727
20651 2 16.4196 67.8906 65.1943
14837 1 18.2433 67.8771 66.4727
20429 2 19.1462 66.2817 65.1631
14694 1 20.9699 66.2691 66.4415
21196 2 2.78036 69.4999 65.2263
21531 2 0.0533588 71.1095 65.2585
15636 1 1.87687 71.0946 66.5367
21194 2 5.5096 71.1095 65.2585
15351 1 4.60393 69.4856 66.5045
20917 2 8.2366 69.4999 65.2263
15353 1 7.3331 71.0946 66.5367
20919 2 10.9658 71.1095 65.2585
15046 1 10.0602 69.4856 66.5045
20619 2 13.6928 69.4999 65.2263
14838 1 15.5164 69.4856 66.5045
15044 1 12.7893 71.0946 66.5367
20617 2 16.4221 71.1095 65.2585
14840 1 18.2456 71.0946 66.5367
20428 2 19.1491 69.4999 65.2263
14683 1 20.9726 69.4856 66.5045
21195 2 2.7824 72.7195 65.2908
15307 1 4.60586 72.7039 66.5691
20874 2 8.23864 72.7195 65.2908
15045 1 10.0621 72.7039 66.5691
20618 2 13.6949 72.7195 65.2908
14815 1 15.5183 72.7039 66.5691
20409 2 19.1511 72.7195 65.2908
14682 1 20.9746 72.7039 66.5691
21498 2 0.0550189 74.3296 65.3229
15637 1 1.87843 74.3136 66.6013
21156 2 2.78371 75.9398 65.3546
21197 2 5.51126 74.3296 65.3229
15306 1 4.60707 75.9234 66.6332
15305 1 7.33466 74.3136 66.6013
20873 2 8.23995 75.9398 65.3546
20872 2 10.9675 74.3296 65.3229
15010 1 10.0633 75.9234 66.6332
15047 1 12.7909 74.3136 66.6013
20587 2 13.6962 75.9398 65.3546
14814 1 15.5195 75.9234 66.6332
20620 2 16.4237 74.3296 65.3229
14813 1 18.2471 74.3136 66.6013
20408 2 19.1524 75.9398 65.3546
14671 1 20.9758 75.9234 66.6332
21155 2 2.78443 79.1603 65.4159
21499 2 0.0560118 77.55 65.3856
15604 1 1.87933 77.5335 66.6644
21154 2 5.51225 77.55 65.3856
15269 1 4.6077 79.1437 66.6949
20831 2 8.24067 79.1603 65.4159
15308 1 7.33557 77.5335 66.6644
20875 2 10.9685 77.55 65.3856
15009 1 10.0639 79.1437 66.6949
20586 2 13.6969 79.1603 65.4159
14791 1 15.5202 79.1437 66.6949
15008 1 12.7918 77.5335 66.6644
20585 2 16.4247 77.55 65.3856
14816 1 18.248 77.5335 66.6644
20389 2 19.1531 79.1603 65.4159
14670 1 20.9764 79.1437 66.6949
21124 2 2.78477 82.3807 65.4736
21474 2 0.0565174 80.7706 65.4452
15605 1 1.87973 80.754 66.7245
21157 2 5.51276 80.7706 65.4452
15268 1 4.60794 82.3643 66.7531
20830 2 8.24101 82.3807 65.4736
15267 1 7.33597 80.754 66.7245
20829 2 10.969 80.7706 65.4452
14975 1 10.0642 82.3643 66.7531
20555 2 13.6973 82.3807 65.4736
14790 1 15.5204 82.3643 66.7531
15011 1 12.7922 80.754 66.7245
20588 2 16.4252 80.7706 65.4452
14789 1 18.2484 80.754 66.7245
20388 2 19.1535 82.3807 65.4736
14659 1 20.9767 82.3643 66.7531
21123 2 2.78494 85.6009 65.5269
21475 2 0.0567487 83.9909 65.5008
15580 1 1.87987 83.9747 66.7805
21122 2 5.51299 83.9909 65.5008
15239 1 4.60801 85.585 66.8069
20795 2 8.24118 85.6009 65.5269
15270 1 7.3361 83.9747 66.7805
20832 2 10.9692 83.9909 65.5008
14974 1 10.0643 85.585 66.8069
20554 2 13.6974 85.6009 65.5269
14767 1 15.5205 85.585 66.8069
14973 1 12.7923 83.9747 66.7805
20553 2 16.4255 83.9909 65.5008
14792 1 18.2486 83.9747 66.7805
20369 2 19.1537 85.6009 65.5269
14658 1 20.9767 85.585 66.8069
21100 2 2.78509 88.8205 65.5756
21458 2 0.0568902 87.2108 65.5519
15581 1 1.87993 87.1953 66.832
21125 2 5.51313 87.2108 65.5519
15238 1 4.60809 88.8056 66.856
20794 2 8.24133 88.8205 65.5756
15237 1 7.33616 87.1953 66.832
20793 2 10.9694 87.2108 65.5519
14947 1 10.0643 88.8056 66.856
20524 2 13.6976 88.8205 65.5756
14766 1 15.5206 88.8056 66.856
14976 1 12.7924 87.1953 66.832
20556 2 16.4256 87.2108 65.5519
14765 1 18.2486 87.1953 66.832
20368 2 19.1538 88.8205 65.5756
14647 1 20.9768 88.8056 66.856
21459 2 0.0570662 90.4302 65.5982
15564 1 1.88004 90.4159 66.8787
21098 2 5.5133 90.4302 65.5982
15240 1 7.33628 90.4159 66.8787
20796 2 10.9695 90.4302 65.5982
14945 1 12.7925 90.4159 66.8787
20522 2 16.4258 90.4302 65.5982
14768 1 18.2488 90.4159 66.8787
21099 2 2.78531 92.0398 65.6196
21450 2 0.057342 93.6492 65.6398
15565 1 1.88028 93.6361 66.9206
15217 1 4.60826 92.026 66.9003
21101 2 5.51358 93.6492 65.6398
20767 2 8.24155 92.0398 65.6196
15215 1 7.33652 93.6361 66.9206
14946 1 10.0645 92.026 66.9003
20765 2 10.9698 93.6492 65.6398
20523 2 13.6978 92.0398 65.6196
14744 1 15.5207 92.026 66.9003
14948 1 12.7928 93.6361 66.9206
20525 2 16.4261 93.6492 65.6398
14742 1 18.249 93.6361 66.9206
20349 2 19.154 92.0398 65.6196
14646 1 20.977 92.026 66.9003
21084 2 2.78564 95.2585 65.6588
21451 2 0.0577355 96.8677 65.6766
15556 1 1.88066 96.8561 66.9577
15216 1 4.60857 95.2462 66.9397
21082 2 5.51397 96.8677 65.6766
20766 2 8.24188 95.2585 65.6588
15218 1 7.3369 96.8561 66.9577
14927 1 10.0648 95.2462 66.9397
20768 2 10.9702 96.8677 65.6766
14743 1 15.5211 95.2462 66.9397
20500 2 13.6981 95.2585 65.6588
14925 1 12.7931 96.8561 66.9577
20498 2 16.4265 96.8677 65.6766
14745 1 18.2494 96.8561 66.9577
14635 1 20.9773 95.2462 66.9397
20348 2 19.1544 95.2585 65.6588
21083 2 2.78609 98.4769 65.6933
21449 2 0.0582316 100.086 65.709
15557 1 1.88116 100.076 66.9902
21085 2 5.51447 100.086 65.709
15203 1 4.60902 98.466 66.9745
20747 2 8.24233 98.4769 65.6933
15201 1 7.3374 100.076 66.9902
20745 2 10.9707 100.086 65.709
14926 1 10.0653 98.466 66.9745
20499 2 13.6986 98.4769 65.6933
14728 1 15.5215 98.466 66.9745
14928 1 12.7936 100.076 66.9902
20501 2 16.4269 100.086 65.709
14726 1 18.2499 100.076 66.9902
20330 2 19.1548 98.4769 65.6933
14634 1 20.9777 98.466 66.9745
15766 1 0.0494037 51.8203 68.8167
21286 2 0.955116 53.4217 67.537
21282 2 1.873 51.8157 70.0823
15433 1 5.50564 51.8203 68.8167
21328 2 3.68227 51.8201 67.5276
20985 2 9.13851 51.8201 67.5276
20986 2 6.41135 53.4217 67.537
20984 2 7.32924 51.8157 70.0823
15136 1 10.9619 51.8203 68.8167
20670 2 11.8676 53.4217 67.537
20688 2 14.5947 51.8201 67.5276
20665 2 12.7855 51.8157 70.0823
14873 1 16.4181 51.8203 68.8167
20450 2 17.3238 53.4217 67.537
20448 2 18.2417 51.8157 70.0823
20449 2 20.051 51.8201 67.5276
15434 1 2.77843 53.4206 68.826
15720 1 0.0514783 55.0212 68.8388
21283 2 1.87509 55.0121 70.1038
20950 2 4.60203 53.4137 70.0914
15435 1 5.50772 55.0212 68.8388
21284 2 3.68448 55.0236 67.5499
15110 1 8.23467 53.4206 68.826
20987 2 9.14072 55.0236 67.5499
20948 2 7.33133 55.0121 70.1038
20666 2 10.0583 53.4137 70.0914
15108 1 10.964 55.0212 68.8388
14874 1 13.6909 53.4206 68.826
20438 2 15.5145 53.4137 70.0914
20668 2 14.597 55.0236 67.5499
20667 2 12.7876 55.0121 70.1038
14875 1 16.4202 55.0212 68.8388
20436 2 18.2438 55.0121 70.1038
14701 1 19.1471 53.4206 68.826
20296 2 20.9707 53.4137 70.0914
20451 2 20.0532 55.0236 67.5499
15394 1 2.78099 56.6224 68.8548
21285 2 0.957847 56.6259 67.5661
15721 1 0.0544144 58.2241 68.8738
21235 2 1.87805 58.2108 70.1379
15392 1 5.51065 58.2241 68.8738
21287 2 3.68762 58.2288 67.5852
20949 2 4.60461 56.6111 70.1194
15109 1 8.23722 56.6224 68.8548
20954 2 6.41409 56.6259 67.5661
20952 2 9.14386 58.2288 67.5852
20951 2 7.33429 58.2108 70.1379
20669 2 11.8703 56.6259 67.5661
15111 1 10.9669 58.2241 68.8738
20642 2 10.0608 56.6111 70.1194
14858 1 13.6935 56.6224 68.8548
20671 2 14.6001 58.2288 67.5852
20437 2 15.5171 56.6111 70.1194
20640 2 12.7905 58.2108 70.1379
20442 2 17.3266 56.6259 67.5661
14856 1 16.4231 58.2241 68.8738
20439 2 18.2468 58.2108 70.1379
14700 1 19.1497 56.6224 68.8548
20440 2 20.0563 58.2288 67.5852
20295 2 20.9733 56.6111 70.1194
15393 1 2.78418 59.8265 68.8955
15674 1 0.0577471 61.4296 68.9196
21239 2 0.961262 59.8324 67.6071
21236 2 1.88142 61.4127 70.1826
15395 1 5.51399 61.4296 68.9196
21237 2 3.69118 61.4366 67.6314
20910 2 4.60783 59.8113 70.1591
15078 1 8.24042 59.8265 68.8955
20953 2 6.4175 59.8324 67.6071
20955 2 9.14742 61.4366 67.6314
20908 2 7.33765 61.4127 70.1826
15076 1 10.9702 61.4296 68.9196
20646 2 11.8737 59.8324 67.6071
20641 2 10.0641 59.8113 70.1591
14857 1 13.6967 59.8265 68.8955
20644 2 14.6037 61.4366 67.6314
20643 2 12.7939 61.4127 70.1826
20422 2 15.5203 59.8113 70.1591
14859 1 16.4265 61.4296 68.9196
20441 2 17.33 59.8324 67.6071
20420 2 18.2501 61.4127 70.1826
14693 1 19.1529 59.8265 68.8955
20443 2 20.0599 61.4366 67.6314
20294 2 20.9765 59.8113 70.1591
15348 1 2.78753 63.0334 68.9458
15675 1 0.061014 64.638 68.9737
21238 2 0.964848 63.0415 67.6577
21188 2 1.88474 64.6182 70.2356
15346 1 5.51725 64.638 68.9737
21240 2 3.69468 64.647 67.6858
20909 2 4.61123 63.0149 70.2082
15077 1 8.24377 63.0334 68.9458
20912 2 9.15092 64.647 67.6858
20914 2 6.42109 63.0415 67.6577
20911 2 7.34098 64.6182 70.2356
15079 1 10.9735 64.638 68.9737
20645 2 11.8773 63.0415 67.6577
20611 2 10.0675 63.0149 70.2082
14835 1 13.7 63.0334 68.9458
20647 2 14.6072 64.647 67.6858
20421 2 15.5237 63.0149 70.2082
20609 2 12.7972 64.6182 70.2356
14833 1 16.4297 64.638 68.9737
20426 2 17.3336 63.0415 67.6577
20423 2 18.2535 64.6182 70.2356
14692 1 19.1562 63.0334 68.9458
20424 2 20.0634 64.647 67.6858
20288 2 20.9799 63.0149 70.2082
15347 1 2.79062 66.2434 69.0029
15634 1 0.0638577 67.8495 69.0333
21192 2 0.968149 66.2534 67.7152
21189 2 1.88768 67.8275 70.2942
15349 1 5.5201 67.8495 69.0333
21190 2 3.69771 67.8603 67.7457
20866 2 4.61439 66.2224 70.2643
15042 1 8.24686 66.2434 69.0029
20913 2 6.42439 66.2534 67.7152
20915 2 9.15395 67.8603 67.7457
20864 2 7.34392 67.8275 70.2942
15040 1 10.9763 67.8495 69.0333
20615 2 11.8806 66.2534 67.7152
20610 2 10.0706 66.2224 70.2643
14834 1 13.7031 66.2434 69.0029
20613 2 14.6102 67.8603 67.7457
20402 2 15.5269 66.2224 70.2643
20612 2 12.8002 67.8275 70.2942
14836 1 16.4326 67.8495 69.0333
20425 2 17.3369 66.2534 67.7152
20400 2 18.2564 67.8275 70.2942
14681 1 19.1593 66.2434 69.0029
20427 2 20.0664 67.8603 67.7457
20287 2 20.9831 66.2224 70.2643
15303 1 2.79317 69.4563 69.0644
15635 1 0.0660594 71.0639 69.0959
21191 2 0.970858 69.468 67.7769
21148 2 1.89001 71.0405 70.3559
15301 1 5.5223 71.0639 69.0959
21193 2 3.70007 71.0762 67.8086
20865 2 4.61704 69.4336 70.3248
15041 1 8.24941 69.4563 69.0644
20868 2 9.15631 71.0762 67.8086
20870 2 6.4271 69.468 67.7769
20867 2 7.34625 71.0405 70.3559
15043 1 10.9785 71.0639 69.0959
20614 2 11.8833 69.468 67.7769
20579 2 10.0733 69.4336 70.3248
14811 1 13.7056 69.4563 69.0644
20616 2 14.6125 71.0762 67.8086
20401 2 15.5295 69.4336 70.3248
20577 2 12.8025 71.0405 70.3559
14809 1 16.4348 71.0639 69.0959
20406 2 17.3396 69.468 67.7769
20403 2 18.2587 71.0405 70.3559
14680 1 19.1619 69.4563 69.0644
20404 2 20.0688 71.0762 67.8086
20280 2 20.9858 69.4336 70.3248
15302 1 2.79507 72.6721 69.1278
21152 2 0.972881 72.685 67.8405
20823 2 4.61905 72.6483 70.3873
15006 1 8.25131 72.6721 69.1278
20869 2 6.42912 72.685 67.8405
20583 2 11.8854 72.685 67.8405
20578 2 10.0753 72.6483 70.3873
14810 1 13.7075 72.6721 69.1278
20382 2 15.5315 72.6483 70.3873
20405 2 17.3416 72.685 67.8405
14669 1 19.1638 72.6721 69.1278
20279 2 20.9878 72.6483 70.3873
15602 1 0.0676526 74.2809 69.1596
15265 1 2.79636 75.8902 69.1913
21151 2 0.974279 75.904 67.9037
15304 1 5.52389 74.2809 69.1596
21150 2 3.70178 74.2943 67.8723
20871 2 9.15801 74.2943 67.8723
15005 1 8.2526 75.8902 69.1913
20827 2 6.43052 75.904 67.9037
15004 1 10.9801 74.2809 69.1596
20582 2 11.8868 75.904 67.9037
20581 2 14.6143 74.2943 67.8723
14787 1 13.7088 75.8902 69.1913
14812 1 16.4364 74.2809 69.1596
20386 2 17.343 75.904 67.9037
20407 2 20.0705 74.2943 67.8723
14668 1 19.1651 75.8902 69.1913
15264 1 2.79708 79.1099 69.2527
15603 1 0.068668 77.4999 69.2224
21120 2 0.975092 79.1243 67.9649
15263 1 5.52491 77.4999 69.2224
21153 2 3.70287 77.514 67.9347
14971 1 8.25332 79.1099 69.2527
20825 2 9.15911 77.514 67.9347
20826 2 6.43133 79.1243 67.9649
15007 1 10.9811 77.4999 69.2224
20551 2 11.8876 79.1243 67.9649
14786 1 13.7096 79.1099 69.2527
20584 2 14.6153 77.514 67.9347
14785 1 16.4374 77.4999 69.2224
20385 2 17.3438 79.1243 67.9649
14657 1 19.1658 79.1099 69.2527
20384 2 20.0716 77.514 67.9347
15235 1 2.79744 82.3311 69.3108
15578 1 0.0691756 80.7204 69.2822
21119 2 0.975506 82.3456 68.0227
15266 1 5.52541 80.7204 69.2822
21118 2 3.70345 80.7348 67.9943
14970 1 8.25368 82.3311 69.3108
20791 2 6.43174 82.3456 68.0227
20828 2 9.15969 80.7348 67.9943
14969 1 10.9817 80.7204 69.2822
20550 2 11.888 82.3456 68.0227
14763 1 13.7099 82.3311 69.3108
20549 2 14.6159 80.7348 67.9943
14788 1 16.4379 80.7204 69.2822
20366 2 17.3442 82.3456 68.0227
14656 1 19.1662 82.3311 69.3108
20387 2 20.0722 80.7348 67.9943
15234 1 2.79762 85.5532 69.3647
15579 1 0.0694209 83.942 69.3383
21096 2 0.97573 85.5673 68.0764
15233 1 5.52566 83.942 69.3383
21121 2 3.70375 83.9564 68.0501
14943 1 8.25386 85.5532 69.3647
20789 2 9.15999 83.9564 68.0501
20790 2 6.43197 85.5673 68.0764
14972 1 10.9819 83.942 69.3383
20520 2 11.8882 85.5673 68.0764
14762 1 13.7101 85.5532 69.3647
20552 2 14.6162 83.9564 68.0501
14761 1 16.4381 83.942 69.3383
20365 2 17.3444 85.5673 68.0764
14645 1 19.1663 85.5532 69.3647
20364 2 20.0725 83.9564 68.0501
15213 1 2.79781 88.7758 69.414
15562 1 0.0695892 87.1644 69.3899
21095 2 0.975926 88.7893 68.1255
15236 1 5.52583 87.1644 69.3899
21094 2 3.70394 87.1783 68.1015
14942 1 8.25405 88.7758 69.414
20763 2 6.43216 88.7893 68.1255
20792 2 9.16018 87.1783 68.1015
14941 1 10.9821 87.1644 69.3899
20519 2 11.8884 88.7893 68.1255
14740 1 13.7103 88.7758 69.414
20518 2 14.6164 87.1783 68.1015
14764 1 16.4383 87.1644 69.3899
20346 2 17.3446 88.7893 68.1255
14644 1 19.1665 88.7758 69.414
20367 2 20.0727 87.1783 68.1015
15212 1 2.79809 91.9987 69.4585
15563 1 0.0698138 90.3873 69.4369
21080 2 0.976194 92.0112 68.1698
15211 1 5.52605 90.3873 69.4369
21097 2 3.70417 90.4002 68.1482
14923 1 8.25433 91.9987 69.4585
20761 2 9.1604 90.4002 68.1482
20762 2 6.43243 92.0112 68.1698
14944 1 10.9823 90.3873 69.4369
20496 2 11.8887 92.0112 68.1698
14739 1 13.7106 91.9987 69.4585
20521 2 14.6166 90.4002 68.1482
14738 1 16.4385 90.3873 69.4369
20345 2 17.3449 92.0112 68.1698
14633 1 19.1668 91.9987 69.4585
20344 2 20.0729 90.4002 68.1482
15554 1 0.070164 93.6102 69.479
15214 1 5.5264 93.6102 69.479
21078 2 3.70449 93.6221 68.1902
20764 2 9.16073 93.6221 68.1902
14921 1 10.9826 93.6102 69.479
20494 2 14.617 93.6221 68.1902
14741 1 16.4389 93.6102 69.479
20347 2 20.0732 93.6221 68.1902
15199 1 2.79851 95.2217 69.4982
21079 2 0.976579 95.233 68.2094
15555 1 0.0706537 96.8332 69.5163
15197 1 5.52689 96.8332 69.5163
21081 2 3.70494 96.8438 68.2274
14922 1 8.25475 95.2217 69.4982
20743 2 6.43282 95.233 68.2094
20741 2 9.16117 96.8438 68.2274
20495 2 11.8891 95.233 68.2094
14924 1 10.9831 96.8332 69.5163
14724 1 13.711 95.2217 69.4982
20497 2 14.6174 96.8438 68.2274
20327 2 17.3453 95.233 68.2094
14722 1 16.4394 96.8332 69.5163
14632 1 19.1672 95.2217 69.4982
20325 2 20.0737 96.8438 68.2274
15198 1 2.79906 98.4447 69.5333
15553 1 0.0712586 100.056 69.5491
21072 2 0.977081 98.4545 68.2442
15200 1 5.5275 100.056 69.5491
21070 2 3.70549 100.065 68.26
14911 1 8.2553 98.4447 69.5333
20742 2 6.43332 98.4545 68.2442
20744 2 9.16172 100.065 68.26
14909 1 10.9837 100.056 69.5491
20480 2 11.8896 98.4545 68.2442
14723 1 13.7115 98.4447 69.5333
20478 2 14.618 100.065 68.26
14725 1 16.44 100.056 69.5491
20326 2 17.3458 98.4545 68.2442
14622 1 19.1678 98.4447 69.5333
20328 2 20.0742 100.065 68.26
21281 2 0.0616062 51.8097 72.6237
15432 1 3.69273 51.817 71.4014
20945 2 5.51784 51.8097 72.6237
15105 1 9.14897 51.817 71.4014
20664 2 10.9741 51.8097 72.6237
14872 1 14.6052 51.817 71.4014
20433 2 16.4303 51.8097 72.6237
14697 1 20.0614 51.817 71.4014
15390 1 0.965398 53.414 71.4104
20946 2 2.79063 53.4037 72.6325
21233 2 0.0636788 54.9983 72.6445
15388 1 3.69453 55.0115 71.4227
20947 2 5.51992 54.9983 72.6445
15106 1 6.42164 53.414 71.4104
20638 2 8.24687 53.4037 72.6325
15107 1 9.15077 55.0115 71.4227
14854 1 11.8779 53.414 71.4104
20636 2 10.9762 54.9983 72.6445
20434 2 13.7031 53.4037 72.6325
14852 1 14.607 55.0115 71.4227
14698 1 17.3341 53.414 71.4104
20435 2 16.4324 54.9983 72.6445
20293 2 19.1593 53.4037 72.6325
14699 1 20.0632 55.0115 71.4227
15389 1 0.967606 56.6096 71.4381
20906 2 2.79318 56.5937 72.6597
21234 2 0.0665895 58.1899 72.6777
15391 1 3.69706 58.2084 71.4565
20904 2 5.52283 58.1899 72.6777
15074 1 6.42384 56.6096 71.4381
15072 1 9.1533 58.2084 71.4565
20637 2 8.24941 56.5937 72.6597
14853 1 11.8801 56.6096 71.4381
20639 2 10.9791 58.1899 72.6777
14855 1 14.6095 58.2084 71.4565
20418 2 13.7057 56.5937 72.6597
14690 1 17.3363 56.6096 71.4381
20416 2 16.4353 58.1899 72.6777
14688 1 20.0658 58.2084 71.4565
20292 2 19.1619 56.5937 72.6597
15344 1 0.970354 59.808 71.4775
20905 2 2.79634 59.7872 72.6983
21186 2 0.0698881 61.3856 72.7213
15342 1 3.69992 61.4086 71.5009
20907 2 5.52613 61.3856 72.7213
15073 1 6.42659 59.808 71.4775
15075 1 9.15616 61.4086 71.5009
20607 2 8.25258 59.7872 72.6983
14831 1 11.8828 59.808 71.4775
20605 2 10.9824 61.3856 72.7213
14829 1 14.6124 61.4086 71.5009
20417 2 13.7088 59.7872 72.6983
14689 1 17.3391 59.808 71.4775
20419 2 16.4386 61.3856 72.7213
14691 1 20.0686 61.4086 71.5009
20286 2 19.1651 59.7872 72.6983
15343 1 0.973239 63.01 71.5263
20862 2 2.79966 62.9853 72.7463
21187 2 0.0731302 64.5861 72.773
15345 1 3.70274 64.6125 71.5534
20860 2 5.52937 64.5861 72.773
15036 1 9.15897 64.6125 71.5534
15038 1 6.42948 63.01 71.5263
20606 2 8.2559 62.9853 72.7463
14830 1 11.8857 63.01 71.5263
20608 2 10.9856 64.5861 72.773
14832 1 14.6152 64.6125 71.5534
20398 2 13.7121 62.9853 72.7463
14678 1 17.342 63.01 71.5263
20396 2 16.4418 64.5861 72.773
14676 1 20.0715 64.6125 71.5534
20285 2 19.1684 62.9853 72.7463
15299 1 0.975905 66.2159 71.5819
20861 2 2.80274 66.1883 72.8012
21146 2 0.0759797 67.7917 72.8305
15297 1 3.7052 67.8203 71.6115
20863 2 5.53222 67.7917 72.8305
15037 1 6.43214 66.2159 71.5819
15039 1 9.16144 67.8203 71.6115
20575 2 8.25898 66.1883 72.8012
14807 1 11.8884 66.2159 71.5819
20573 2 10.9885 67.7917 72.8305
14805 1 14.6177 67.8203 71.6115
20397 2 13.7152 66.1883 72.8012
14677 1 17.3446 66.2159 71.5819
20399 2 16.4447 67.7917 72.8305
14679 1 20.0739 67.8203 71.6115
20278 2 19.1715 66.1883 72.8012
15298 1 0.978139 69.4256 71.6419
20819 2 2.80532 69.3964 72.8606
21147 2 0.078265 71.0023 72.8912
15300 1 3.7072 71.0318 71.6727
20817 2 5.5345 71.0023 72.8912
15000 1 9.16344 71.0318 71.6727
15002 1 6.43438 69.4256 71.6419
20574 2 8.26156 69.3964 72.8606
14806 1 11.8906 69.4256 71.6419
20576 2 10.9907 71.0023 72.8912
14808 1 14.6197 71.0318 71.6727
20378 2 13.7178 69.3964 72.8606
14666 1 17.3469 69.4256 71.6419
20376 2 16.447 71.0023 72.8912
14664 1 20.0759 71.0318 71.6727
20277 2 19.174 69.3964 72.8606
15261 1 0.979883 72.6389 71.7036
20818 2 2.80724 72.6091 72.922
15001 1 6.43612 72.6389 71.7036
20543 2 8.26348 72.6091 72.922
14783 1 11.8924 72.6389 71.7036
20377 2 13.7197 72.6091 72.922
14665 1 17.3486 72.6389 71.7036
20270 2 19.176 72.6091 72.922
21149 2 1.89182 74.257 70.4187
21114 2 0.0801068 74.2171 72.9527
15260 1 0.980927 75.8556 71.7674
20783 2 2.80896 75.8263 72.9834
20822 2 4.62062 75.8662 70.4499
15259 1 3.70859 74.2468 71.7358
20820 2 5.53635 74.2171 72.9527
20821 2 7.34805 74.257 70.4187
15003 1 9.16482 74.2468 71.7358
14967 1 6.43717 75.8556 71.7674
20542 2 8.2652 75.8263 72.9834
20547 2 10.0769 75.8662 70.4499
20541 2 10.9926 74.2171 72.9527
14782 1 11.8934 75.8556 71.7674
20580 2 12.8043 74.257 70.4187
20381 2 15.5331 75.8662 70.4499
14781 1 14.6211 74.2468 71.7358
20358 2 13.7214 75.8263 72.9834
20380 2 18.2605 74.257 70.4187
20379 2 16.4488 74.2171 72.9527
14654 1 17.3496 75.8556 71.7674
20272 2 20.9893 75.8662 70.4499
14667 1 20.0773 74.2468 71.7358
20269 2 19.1777 75.8263 72.9834
21116 2 1.89303 77.4761 70.4806
15231 1 0.981571 79.0754 71.8284
20782 2 2.80991 79.0472 73.0432
21115 2 0.0813664 77.4363 73.0136
20787 2 4.62155 79.0866 70.5106
15262 1 3.70941 77.4652 71.7982
20781 2 5.5376 77.4363 73.0136
20824 2 7.34927 77.4761 70.4806
14965 1 9.16565 77.4652 71.7982
14966 1 6.43781 79.0754 71.8284
20512 2 8.26615 79.0472 73.0432
20546 2 10.0778 79.0866 70.5106
14759 1 11.894 79.0754 71.8284
20544 2 10.9938 77.4363 73.0136
20362 2 15.534 79.0866 70.5106
20545 2 12.8055 77.4761 70.4806
14784 1 14.6219 77.4652 71.7982
20357 2 13.7224 79.0472 73.0432
20383 2 18.2617 77.4761 70.4806
14653 1 17.3503 79.0754 71.8284
20356 2 16.4501 77.4363 73.0136
20271 2 20.9903 79.0866 70.5106
14652 1 20.0781 77.4652 71.7982
20262 2 19.1786 79.0472 73.0432
21117 2 1.89373 80.6976 70.5399
15230 1 0.981914 82.2974 71.8862
20755 2 2.81048 82.2711 73.1004
21090 2 0.0821125 80.6588 73.0722
20786 2 4.62207 82.3089 70.5683
15229 1 3.70989 80.6861 71.8577
20784 2 5.53835 80.6588 73.0722
20785 2 7.34996 80.6976 70.5399
14939 1 6.43815 82.2974 71.8862
14968 1 9.16613 80.6861 71.8577
20511 2 8.26672 82.2711 73.1004
20516 2 10.0783 82.3089 70.5683
14758 1 11.8944 82.2974 71.8862
20510 2 10.9946 80.6588 73.0722
20361 2 15.5345 82.3089 70.5683
20548 2 12.8062 80.6976 70.5399
14757 1 14.6224 80.6861 71.8577
20338 2 13.723 82.2711 73.1004
20360 2 18.2624 80.6976 70.5399
14642 1 17.3506 82.2974 71.8862
20359 2 16.4508 80.6588 73.0722
20264 2 20.9908 82.3089 70.5683
14655 1 20.0786 80.6861 71.8577
20261 2 19.1792 82.2711 73.1004
21092 2 1.89413 83.9206 70.5957
15209 1 0.98215 85.521 71.9399
20754 2 2.81088 85.4969 73.1537
21091 2 0.082571 83.8838 73.1276
20759 2 4.6224 85.5326 70.622
15232 1 3.71015 83.909 71.9136
20753 2 5.53881 83.8838 73.1276
20788 2 7.35037 83.9206 70.5957
14937 1 9.16639 83.909 71.9136
14938 1 6.43839 85.521 71.9399
20488 2 8.26712 85.4969 73.1537
20515 2 10.0786 85.5326 70.622
14736 1 11.8946 85.521 71.9399
20513 2 10.995 83.8838 73.1276
20342 2 15.5349 85.5326 70.622
20514 2 12.8066 83.9206 70.5957
14760 1 14.6226 83.909 71.9136
20337 2 13.7234 85.4969 73.1537
20363 2 18.2628 83.9206 70.5957
14641 1 17.3509 85.521 71.9399
20336 2 16.4513 83.8838 73.1276
20263 2 20.9911 85.5326 70.622
14640 1 20.0789 83.909 71.9136
20254 2 19.1796 85.4969 73.1537
21093 2 1.89443 87.1447 70.6471
21074 2 0.0829552 87.1104 73.1788
20735 2 2.81129 88.7241 73.2028
15208 1 0.982438 88.7457 71.9892
20758 2 4.6227 88.757 70.6711
20756 2 5.53919 87.1104 73.1788
15207 1 3.7104 87.1332 71.9651
20757 2 7.35067 87.1447 70.6471
20487 2 8.26752 88.7241 73.2028
14919 1 6.43868 88.7457 71.9892
14940 1 9.16664 87.1332 71.9651
20492 2 10.0789 88.757 70.6711
20486 2 10.9954 87.1104 73.1788
14735 1 11.8949 88.7457 71.9892
20341 2 15.5352 88.757 70.6711
20517 2 12.8069 87.1447 70.6471
20319 2 13.7238 88.7241 73.2028
14734 1 14.6229 87.1332 71.9651
20340 2 18.2631 87.1447 70.6471
20339 2 16.4517 87.1104 73.1788
14630 1 17.3512 88.7457 71.9892
20256 2 20.9914 88.757 70.6711
20253 2 19.18 88.7241 73.2028
14643 1 20.0791 87.1332 71.9651
21076 2 1.89476 90.3694 70.694
15195 1 0.98287 91.9711 72.0338
15210 1 3.71075 90.3583 72.0121
20739 2 4.62308 91.9818 70.7156
20760 2 7.351 90.3694 70.694
14917 1 9.16699 90.3583 72.0121
14918 1 6.43911 91.9711 72.0338
14720 1 11.8953 91.9711 72.0338
20491 2 10.0793 91.9818 70.7156
20490 2 12.8072 90.3694 70.694
14737 1 14.6232 90.3583 72.0121
20323 2 15.5356 91.9818 70.7156
20343 2 18.2635 90.3694 70.694
14629 1 17.3516 91.9711 72.0338
14628 1 20.0795 90.3583 72.0121
20255 2 20.9918 91.9818 70.7156
21077 2 1.8952 93.5943 70.7361
15193 1 3.71127 93.584 72.0543
14920 1 9.16751 93.584 72.0543
20737 2 7.35144 93.5943 70.7361
14718 1 14.6237 93.584 72.0543
20493 2 12.8077 93.5943 70.7361
20321 2 18.2639 93.5943 70.7361
14631 1 20.08 93.584 72.0543
15194 1 0.983467 95.1969 72.0736
21068 2 1.89576 96.8191 70.7735
20738 2 4.62358 95.2067 70.7554
15196 1 3.71194 96.8098 72.0918
14907 1 6.43971 95.1969 72.0736
14905 1 9.16818 96.8098 72.0918
20740 2 7.352 96.8191 70.7735
14719 1 11.8959 95.1969 72.0736
20476 2 10.0798 95.2067 70.7554
20322 2 15.5361 95.2067 70.7554
14721 1 14.6244 96.8098 72.0918
20474 2 12.8082 96.8191 70.7735
14619 1 17.3522 95.1969 72.0736
20324 2 18.2645 96.8191 70.7735
20248 2 20.9923 95.2067 70.7554
14617 1 20.0807 96.8098 72.0918
15189 1 0.984203 98.4228 72.1088
21069 2 1.89642 100.044 70.8062
15187 1 3.71273 100.036 72.1246
20727 2 4.6242 98.4315 70.7904
14906 1 6.44044 98.4228 72.1088
14908 1 9.16897 100.036 72.1246
20725 2 7.35266 100.044 70.8062
14712 1 11.8967 98.4228 72.1088
20475 2 10.0804 98.4315 70.7904
14710 1 14.6252 100.036 72.1246
20311 2 15.5367 98.4315 70.7904
20477 2 12.8089 100.044 70.8062
14618 1 17.3529 98.4228 72.1088
20309 2 18.2651 100.044 70.8062
14620 1 20.0814 100.036 72.1246
20247 2 20.9929 98.4315 70.7904
15386 1 1.84983 51.8172 74.0601
20944 2 3.69088 51.8067 75.1141
15104 1 7.30607 51.8172 74.0601
20633 2 9.14712 51.8067 75.1141
14849 1 12.7623 51.8172 74.0601
20432 2 14.6034 51.8067 75.1141
14696 1 18.2185 51.8172 74.0601
20289 2 20.0596 51.8067 75.1141
20902 2 0.963323 53.3976 75.1226
15387 1 1.84949 55.0066 74.0812
15070 1 4.57782 53.4116 74.069
20900 2 3.69214 54.9892 75.1341
20634 2 6.41956 53.3976 75.1226
15068 1 7.30573 55.0066 74.0812
20635 2 9.14838 54.9892 75.1341
14850 1 10.0341 53.4116 74.069
20414 2 11.8758 53.3976 75.1226
14686 1 15.4903 53.4116 74.069
14851 1 12.762 55.0066 74.0812
20412 2 14.6046 54.9892 75.1341
20290 2 17.332 53.3976 75.1226
14684 1 18.2182 55.0066 74.0812
14608 1 20.9465 53.4116 74.069
20291 2 20.0609 54.9892 75.1341
20901 2 0.964833 56.5817 75.1487
15340 1 1.84884 58.1991 74.1147
15069 1 4.57732 56.6024 74.0965
20903 2 3.69383 58.1754 75.166
20603 2 6.42107 56.5817 75.1487
15071 1 7.30507 58.1991 74.1147
20601 2 9.15007 58.1754 75.166
14827 1 10.0336 56.6024 74.0965
20413 2 11.8773 56.5817 75.1487
14685 1 15.4898 56.6024 74.0965
14825 1 12.7613 58.1991 74.1147
20415 2 14.6063 58.1754 75.166
20283 2 17.3335 56.5817 75.1487
14687 1 18.2176 58.1991 74.1147
14607 1 20.946 56.6024 74.0965
20281 2 20.0625 58.1754 75.166
15341 1 1.8479 61.3957 74.1587
20858 2 0.96663 59.7704 75.1858
15034 1 4.57652 59.7969 74.1356
20856 2 3.69566 61.3668 75.208
15032 1 7.30414 61.3957 74.1587
20602 2 6.42287 59.7704 75.1858
20604 2 9.1519 61.3668 75.208
14826 1 10.0328 59.7969 74.1356
20394 2 11.8791 59.7704 75.1858
14674 1 15.489 59.7969 74.1356
14828 1 12.7604 61.3957 74.1587
20392 2 14.6081 61.3668 75.208
14672 1 18.2166 61.3957 74.1587
20282 2 17.3353 59.7704 75.1858
14606 1 20.9452 59.7969 74.1356
20284 2 20.0644 61.3668 75.208
15295 1 1.84669 64.5967 74.2109
20857 2 0.968407 62.9646 75.2322
15033 1 4.57545 62.9956 74.1839
20859 2 3.69732 64.5639 75.2581
15035 1 7.30293 64.5967 74.2109
20569 2 9.15356 64.5639 75.2581
20571 2 6.42464 62.9646 75.2322
14803 1 10.0317 62.9956 74.1839
20393 2 11.8809 62.9646 75.2322
14673 1 15.4879 62.9956 74.1839
14801 1 12.7592 64.5967 74.2109
20395 2 14.6098 64.5639 75.2581
14675 1 18.2154 64.5967 74.2109
20275 2 17.3371 62.9646 75.2322
14605 1 20.9442 62.9956 74.1839
20273 2 20.066 64.5639 75.2581
15296 1 1.84524 67.8024 74.2687
20815 2 0.969897 66.1648 75.2854
14998 1 4.57411 66.199 74.2392
20813 2 3.6986 67.7671 75.3139
14996 1 7.30147 67.8024 74.2687
20570 2 6.42614 66.1648 75.2854
20572 2 9.15484 67.7671 75.3139
14802 1 10.0303 66.199 74.2392
20374 2 11.8824 66.1648 75.2854
14662 1 15.4866 66.199 74.2392
14804 1 12.7577 67.8024 74.2687
20372 2 14.6111 67.7671 75.3139
14660 1 18.214 67.8024 74.2687
20274 2 17.3386 66.1648 75.2854
14604 1 20.9428 66.199 74.2392
20276 2 20.0673 67.7671 75.3139
15257 1 1.84367 71.0122 74.3297
20814 2 0.970969 69.3709 75.3432
14997 1 4.57257 69.4067 74.2989
20816 2 3.69952 70.9761 75.3731
14999 1 7.2999 71.0122 74.3297
20537 2 9.15576 70.9761 75.3731
20539 2 6.42721 69.3709 75.3432
14779 1 10.0288 69.4067 74.2989
20373 2 11.8834 69.3709 75.3432
14661 1 15.485 69.4067 74.2989
14777 1 12.7561 71.0122 74.3297
20375 2 14.612 70.9761 75.3731
14663 1 18.2124 71.0122 74.3297
20267 2 17.3397 69.3709 75.3432
14603 1 20.9413 69.4067 74.2989
20265 2 20.0682 70.9761 75.3731
20779 2 0.971717 72.5827 75.4034
14963 1 4.57109 72.6183 74.3605
20777 2 3.70014 74.1905 75.4326
20538 2 6.42796 72.5827 75.4034
20540 2 9.15637 74.1905 75.4326
14778 1 10.0273 72.6183 74.3605
20354 2 11.8842 72.5827 75.4034
14650 1 15.4836 72.6183 74.3605
20352 2 14.6126 74.1905 75.4326
20266 2 17.3404 72.5827 75.4034
14602 1 20.9398 72.6183 74.3605
20268 2 20.0689 74.1905 75.4326
15258 1 1.84192 74.2255 74.3913
20778 2 0.972155 75.7994 75.462
14962 1 4.56909 75.8342 74.4217
14961 1 7.29816 74.2255 74.3913
20508 2 6.42839 75.7994 75.462
14755 1 10.0253 75.8342 74.4217
20353 2 11.8846 75.7994 75.462
14780 1 12.7544 74.2255 74.3913
14649 1 15.4816 75.8342 74.4217
14648 1 18.2106 74.2255 74.3913
20259 2 17.3409 75.7994 75.462
14601 1 20.9378 75.8342 74.4217
15227 1 1.84014 77.4436 74.4519
20751 2 0.972256 79.0205 75.5203
14935 1 4.56746 79.0537 74.4816
20780 2 3.70035 77.4095 75.4913
14964 1 7.29638 77.4436 74.4519
20506 2 9.15659 77.4095 75.4913
20507 2 6.42849 79.0205 75.5203
14754 1 10.0237 79.0537 74.4816
20334 2 11.8847 79.0205 75.5203
14638 1 15.4799 79.0537 74.4816
14753 1 12.7526 77.4436 74.4519
20355 2 14.6128 77.4095 75.4913
14651 1 18.2089 77.4436 74.4519
20258 2 17.341 79.0205 75.5203
14600 1 20.9362 79.0537 74.4816
20257 2 20.0691 77.4095 75.4913
15228 1 1.83861 80.6645 74.5105
20750 2 0.972175 82.245 75.5764
14934 1 4.5661 82.2758 74.5386
20749 2 3.70034 80.6324 75.5487
14933 1 7.29485 80.6645 74.5105
20484 2 6.42841 82.245 75.5764
20509 2 9.15658 80.6324 75.5487
14732 1 10.0223 82.2758 74.5386
20333 2 11.8847 82.245 75.5764
14637 1 15.4786 82.2758 74.5386
14756 1 12.7511 80.6645 74.5105
20332 2 14.6128 80.6324 75.5487
14636 1 18.2073 80.6645 74.5105
20251 2 17.3409 82.245 75.5764
14599 1 20.9348 82.2758 74.5386
20260 2 20.0691 80.6324 75.5487
15205 1 1.83746 83.8876 74.5658
20731 2 0.97217 85.4718 75.6291
14915 1 4.56519 85.4997 74.5919
20752 2 3.70027 83.8582 75.6032
14936 1 7.2937 83.8876 74.5658
20482 2 9.15651 83.8582 75.6032
20483 2 6.42841 85.4718 75.6291
14731 1 10.0214 85.4997 74.5919
20315 2 11.8846 85.4718 75.6291
14626 1 15.4777 85.4997 74.5919
14730 1 12.7499 83.8876 74.5658
20335 2 14.6127 83.8582 75.6032
14639 1 18.2062 83.8876 74.5658
20250 2 17.3409 85.4718 75.6291
14598 1 20.9339 85.4997 74.5919
20249 2 20.069 83.8582 75.6032
20730 2 0.972405 88.7003 75.6777
15206 1 1.83682 87.1122 74.617
20729 2 3.70037 87.0859 75.6539
14914 1 4.56482 88.7249 74.6409
20485 2 9.15661 87.0859 75.6539
20468 2 6.42864 88.7003 75.6777
14913 1 7.29306 87.1122 74.617
20314 2 11.8849 88.7003 75.6777
14716 1 10.0211 88.7249 74.6409
20313 2 14.6128 87.0859 75.6539
14733 1 12.7493 87.1122 74.617
14625 1 15.4773 88.7249 74.6409
20243 2 17.3411 88.7003 75.6777
14624 1 18.2055 87.1122 74.617
20252 2 20.0691 87.0859 75.6539
14597 1 20.9335 88.7249 74.6409
21075 2 0.0834074 90.3379 73.2256
20734 2 2.8118 91.9519 73.2472
20719 2 0.972938 91.9298 75.7219
15191 1 1.83672 90.338 74.6637
20733 2 5.53965 90.3379 73.2256
20732 2 3.70075 90.3149 75.7004
14903 1 4.56498 91.9512 74.6853
20472 2 8.26804 91.9519 73.2472
20467 2 6.42918 91.9298 75.7219
20466 2 9.15699 90.3149 75.7004
14916 1 7.29296 90.338 74.6637
20489 2 10.9959 90.3379 73.2256
20303 2 11.8854 91.9298 75.7219
14715 1 10.0212 91.9512 74.6853
20318 2 13.7243 91.9519 73.2472
20316 2 14.6132 90.3149 75.7004
14714 1 12.7492 90.338 74.6637
14615 1 15.4775 91.9512 74.6853
20317 2 16.4521 90.3379 73.2256
20242 2 17.3417 91.9298 75.7219
14627 1 18.2054 90.338 74.6637
20246 2 19.1805 91.9519 73.2472
20241 2 20.0695 90.3149 75.7004
14596 1 20.9337 91.9512 74.6853
21066 2 0.0839921 93.566 73.2677
15192 1 1.83711 93.5647 74.7057
20736 2 5.54023 93.566 73.2677
20717 2 3.70143 93.5448 75.7423
20469 2 9.15767 93.5448 75.7423
14901 1 7.29335 93.5647 74.7057
20470 2 10.9965 93.566 73.2677
20301 2 14.6139 93.5448 75.7423
14717 1 12.7496 93.5647 74.7057
20320 2 16.4527 93.566 73.2677
14613 1 18.2058 93.5647 74.7057
20244 2 20.0701 93.5448 75.7423
20723 2 2.81246 95.18 73.287
21067 2 0.0847112 96.7941 73.3051
20718 2 0.973739 95.1598 75.7615
15185 1 1.83788 96.7921 74.7431
20721 2 5.54095 96.7941 73.3051
14902 1 4.56557 95.1783 74.725
20720 2 3.70234 96.775 75.7796
20471 2 8.26869 95.18 73.287
20460 2 6.42998 95.1598 75.7615
20458 2 9.15858 96.775 75.7796
14904 1 7.29411 96.7921 74.7431
20473 2 10.9972 96.7941 73.3051
20302 2 11.8862 95.1598 75.7615
14708 1 10.0218 95.1783 74.725
20307 2 13.7249 95.18 73.287
14614 1 15.478 95.1783 74.725
20304 2 14.6148 96.775 75.7796
14706 1 12.7504 96.7921 74.7431
20305 2 16.4534 96.7941 73.3051
20236 2 17.3425 95.1598 75.7615
14616 1 18.2066 96.7921 74.7431
20245 2 19.1812 95.18 73.287
14595 1 20.9343 95.1783 74.725
20234 2 20.0711 96.775 75.7796
20722 2 2.81323 98.4081 73.3221
21065 2 0.0855282 100.022 73.338
20715 2 0.974732 98.3901 75.7966
15186 1 1.83888 100.02 74.776
20724 2 5.54177 100.022 73.338
20713 2 3.70339 100.005 75.8125
14899 1 4.56648 98.4061 74.7601
20464 2 8.26947 98.4081 73.3221
20461 2 9.15963 100.005 75.8125
20459 2 6.43097 98.3901 75.7966
14897 1 7.29512 100.02 74.776
14707 1 10.0227 98.4061 74.7601
20462 2 10.998 100.022 73.338
20299 2 11.8872 98.3901 75.7966
20306 2 13.7257 98.4081 73.3221
14611 1 15.479 98.4061 74.7601
14709 1 12.7514 100.02 74.776
20297 2 14.6159 100.005 75.8125
20308 2 16.4542 100.022 73.338
20235 2 17.3434 98.3901 75.7966
14609 1 18.2076 100.02 74.776
20237 2 20.0721 100.005 75.8125
14594 1 20.9352 98.4061 74.7601
20239 2 19.1819 98.4081 73.3221
12527 2 2.71175 102.191 -3.4679
6110 1 4.5177 102.177 -2.40448
12430 2 8.16799 102.191 -3.4679
5983 1 9.97394 102.177 -2.40448
5758 1 15.4302 102.177 -2.40448
12239 2 13.6242 102.191 -3.4679
5440 1 20.8864 102.177 -2.40448
11952 2 19.0805 102.191 -3.4679
12523 2 2.7101 105.324 -3.44081
6144 1 1.78833 103.745 -2.39032
12528 2 5.43901 103.758 -3.45386
6109 1 4.51532 105.312 -2.37718
12429 2 8.16633 105.324 -3.44081
6108 1 7.24457 103.745 -2.39032
12428 2 10.8952 103.758 -3.45386
5979 1 9.97156 105.312 -2.37718
5757 1 15.4278 105.312 -2.37718
5984 1 12.7008 103.745 -2.39032
12235 2 13.6226 105.324 -3.44081
5756 1 18.157 103.745 -2.39032
12240 2 16.3515 103.758 -3.45386
12542 2 21.8077 103.758 -3.45386
5439 1 20.884 105.312 -2.37718
11951 2 19.0788 105.324 -3.44081
12522 2 2.70873 108.457 -3.41776
6140 1 1.78618 106.88 -2.36506
12521 2 5.43749 106.891 -3.42878
6102 1 4.51338 108.447 -2.35395
12422 2 8.16497 108.457 -3.41776
6111 1 7.24241 106.88 -2.36506
12431 2 10.8937 106.891 -3.42878
5978 1 9.96962 108.447 -2.35395
5750 1 15.4259 108.447 -2.35395
5977 1 12.6987 106.88 -2.36506
12234 2 13.6212 108.457 -3.41776
5759 1 18.1549 106.88 -2.36506
12233 2 16.35 106.891 -3.42878
12543 2 21.8062 106.891 -3.42878
5438 1 20.8821 108.447 -2.35395
11946 2 19.0774 108.457 -3.41776
12512 2 2.70767 111.589 -3.3988
6141 1 1.78447 110.014 -2.34387
12524 2 5.43628 110.023 -3.40776
6101 1 4.51197 111.581 -2.33489
12421 2 8.16391 111.589 -3.3988
6100 1 7.24071 110.014 -2.34387
12420 2 10.8925 110.023 -3.40776
5967 1 9.96821 111.581 -2.33489
5749 1 15.4244 111.581 -2.33489
5980 1 12.697 110.014 -2.34387
12223 2 13.6201 111.589 -3.3988
5748 1 18.1532 110.014 -2.34387
12236 2 16.3488 110.023 -3.40776
12540 2 21.805 110.023 -3.40776
5431 1 20.8807 111.581 -2.33489
11945 2 19.0764 111.589 -3.3988
12511 2 2.70691 114.721 -3.38397
6136 1 1.78336 113.148 -2.32698
12510 2 5.43537 113.155 -3.39087
6087 1 4.5111 114.715 -2.32008
6103 1 7.2396 113.148 -2.32698
12406 2 8.16315 114.721 -3.38397
12423 2 10.8916 113.155 -3.39087
5966 1 9.96733 114.715 -2.32008
5734 1 15.4236 114.715 -2.32008
5965 1 12.6958 113.148 -2.32698
12222 2 13.6194 114.721 -3.38397
5751 1 18.1521 113.148 -2.32698
12221 2 16.3478 113.155 -3.39087
12541 2 21.8041 113.155 -3.39087
5430 1 20.8798 114.715 -2.32008
11932 2 19.0756 114.721 -3.38397
12500 2 2.70642 117.853 -3.37327
6137 1 1.78266 116.281 -2.31422
12513 2 5.43475 116.287 -3.3781
6086 1 4.51054 117.848 -2.30938
6085 1 7.2389 116.281 -2.31422
12405 2 8.16265 117.853 -3.37327
5947 1 9.96678 117.848 -2.30938
12404 2 10.891 116.287 -3.3781
5733 1 15.423 117.848 -2.30938
5968 1 12.6951 116.281 -2.31422
12203 2 13.6189 117.853 -3.37327
5732 1 18.1514 116.281 -2.31422
12224 2 16.3472 116.287 -3.3781
12538 2 21.8035 116.287 -3.3781
5415 1 20.8793 117.848 -2.30938
11931 2 19.0751 117.853 -3.37327
12499 2 2.70617 120.984 -3.3667
6132 1 1.78224 119.414 -2.30558
12498 2 5.43438 119.419 -3.36947
6071 1 4.51025 120.981 -2.30282
6088 1 7.23848 119.414 -2.30558
12383 2 8.16241 120.984 -3.3667
5946 1 9.96649 120.981 -2.30282
12407 2 10.8906 119.419 -3.36947
5710 1 15.4227 120.981 -2.30282
5945 1 12.6947 119.414 -2.30558
12202 2 13.6187 120.984 -3.3667
5735 1 18.151 119.414 -2.30558
12201 2 16.3469 119.419 -3.36947
12539 2 21.8031 119.419 -3.36947
5414 1 20.879 120.981 -2.30282
11910 2 19.0749 120.984 -3.3667
6133 1 1.78209 122.548 -2.30109
12488 2 2.70618 124.116 -3.36427
12501 2 5.43426 122.55 -3.36497
6070 1 4.51023 124.114 -2.3004
6069 1 7.23833 122.548 -2.30109
12382 2 8.16242 124.116 -3.36427
12381 2 10.8905 122.55 -3.36497
5920 1 9.96647 124.114 -2.3004
5948 1 12.6946 122.548 -2.30109
5709 1 15.4227 124.114 -2.3004
12175 2 13.6187 124.116 -3.36427
5708 1 18.1508 122.548 -2.30109
12204 2 16.3467 122.55 -3.36497
12536 2 21.803 122.55 -3.36497
5391 1 20.8789 124.114 -2.3004
11909 2 19.0749 124.116 -3.36427
6128 1 1.7822 125.681 -2.30074
12487 2 2.70644 127.247 -3.366
12486 2 5.4344 125.681 -3.36462
6055 1 4.51048 127.247 -2.30213
6072 1 7.23844 125.681 -2.30074
12359 2 8.16267 127.247 -3.366
12384 2 10.8906 125.681 -3.36462
5919 1 9.96672 127.247 -2.30213
5918 1 12.6947 125.681 -2.30074
5678 1 15.423 127.247 -2.30213
12174 2 13.6189 127.247 -3.366
5711 1 18.1509 125.681 -2.30074
12173 2 16.3469 125.681 -3.36462
12537 2 21.8031 125.681 -3.36462
5390 1 20.8792 127.247 -2.30213
11880 2 19.0752 127.247 -3.366
6129 1 1.78258 128.814 -2.30455
12489 2 5.43478 128.813 -3.36843
6053 1 7.23882 128.814 -2.30455
12357 2 10.891 128.813 -3.36843
5921 1 12.6951 128.814 -2.30455
5676 1 18.1513 128.814 -2.30455
12176 2 16.3473 128.813 -3.36843
12534 2 21.8035 128.813 -3.36843
12476 2 2.70694 130.378 -3.3719
6124 1 1.78323 131.947 -2.31253
12474 2 5.43541 131.944 -3.37641
6054 1 4.51099 130.38 -2.30802
6056 1 7.23947 131.947 -2.31253
12358 2 8.16318 130.378 -3.3719
5892 1 9.96723 130.38 -2.30802
12360 2 10.8916 131.944 -3.37641
5677 1 15.4235 130.38 -2.30802
5890 1 12.6957 131.947 -2.31253
12140 2 13.6194 130.378 -3.3719
5679 1 18.1519 131.947 -2.31253
12138 2 16.3479 131.944 -3.37641
12535 2 21.8041 131.944 -3.37641
5359 1 20.8797 130.38 -2.30802
11879 2 19.0757 130.378 -3.3719
12475 2 2.7077 133.51 -3.38196
6125 1 1.78414 135.08 -2.32467
12477 2 5.43629 135.076 -3.38855
6039 1 4.51177 133.513 -2.31808
6037 1 7.24038 135.08 -2.32467
12335 2 8.16394 133.51 -3.38196
5891 1 9.96801 133.513 -2.31808
12333 2 10.8925 135.076 -3.38855
5639 1 15.4242 133.513 -2.31808
5893 1 12.6966 135.08 -2.32467
12139 2 13.6202 133.51 -3.38196
5637 1 18.1529 135.08 -2.32467
12141 2 16.3488 135.076 -3.38855
12532 2 21.805 135.076 -3.38855
5358 1 20.8805 133.513 -2.31808
11842 2 19.0764 133.51 -3.38196
12464 2 2.7087 136.641 -3.39619
6120 1 1.78534 138.213 -2.34099
12462 2 5.43741 138.207 -3.40488
6038 1 4.51282 136.647 -2.33231
6040 1 7.24157 138.213 -2.34099
12334 2 8.16494 136.641 -3.39619
5864 1 9.96906 136.647 -2.33231
12336 2 10.8937 138.207 -3.40488
5638 1 15.4253 136.647 -2.33231
5862 1 12.6978 138.213 -2.34099
12104 2 13.6212 136.641 -3.39619
5640 1 18.1541 138.213 -2.34099
12102 2 16.3499 138.207 -3.40488
12533 2 21.8061 138.207 -3.40488
5319 1 20.8815 136.647 -2.33231
11841 2 19.0774 136.641 -3.39619
12463 2 2.70996 139.773 -3.4146
6121 1 1.78686 141.347 -2.36145
12465 2 5.43881 141.339 -3.42537
6023 1 4.51417 139.78 -2.3507
6021 1 7.2431 141.347 -2.36145
12311 2 8.16619 139.773 -3.4146
5863 1 9.9704 139.78 -2.3507
12309 2 10.895 141.339 -3.42537
5599 1 15.4266 139.78 -2.3507
5865 1 12.6993 141.347 -2.36145
12103 2 13.6224 139.773 -3.4146
5597 1 18.1556 141.347 -2.36145
12105 2 16.3513 141.339 -3.42537
12530 2 21.8075 141.339 -3.42537
5318 1 20.8829 139.78 -2.3507
11797 2 19.0787 139.773 -3.4146
12452 2 2.7115 142.905 -3.43718
6116 1 1.78902 144.481 -2.38624
12450 2 5.44051 144.471 -3.45003
6022 1 4.51597 142.914 -2.37328
6024 1 7.24526 144.481 -2.38624
12310 2 8.16774 142.905 -3.43718
5836 1 9.97221 142.914 -2.37328
12312 2 10.8968 144.471 -3.45003
5598 1 15.4284 142.914 -2.37328
5834 1 12.7015 144.481 -2.38624
12068 2 13.624 142.905 -3.43718
5600 1 18.1577 144.481 -2.38624
12066 2 16.353 144.471 -3.45003
12531 2 21.8092 144.471 -3.45003
5272 1 20.8847 142.914 -2.37328
11796 2 19.0802 142.905 -3.43718
12451 2 2.71336 146.038 -3.46391
6117 1 1.79181 147.616 -2.41524
12453 2 5.44252 147.604 -3.4788
6008 1 4.51847 146.048 -2.40023
6006 1 7.24805 147.616 -2.41524
12288 2 8.1696 146.038 -3.46391
5835 1 9.97471 146.048 -2.40023
12286 2 10.8988 147.604 -3.4788
5560 1 15.4309 146.048 -2.40023
5837 1 12.7043 147.616 -2.41524
12067 2 13.6258 146.038 -3.46391
5558 1 18.1605 147.616 -2.41524
12069 2 16.355 147.604 -3.4788
12529 2 21.8112 147.604 -3.4788
5271 1 20.8872 146.048 -2.40023
11751 2 19.0821 146.038 -3.46391
12441 2 2.71551 149.171 -3.49469
2047 1 1.79511 150.752 -2.44827
6007 1 4.52151 149.184 -2.43125
8174 2 5.4448 150.738 -3.51155
12287 2 8.17175 149.171 -3.49469
2016 1 7.25135 150.752 -2.44827
5809 1 9.97775 149.184 -2.43125
8080 2 10.901 150.738 -3.51155
5559 1 15.434 149.184 -2.43125
12033 2 13.628 149.171 -3.49469
1886 1 12.7076 150.752 -2.44827
1664 1 18.1638 150.752 -2.44827
7886 2 16.3573 150.738 -3.51155
5224 1 20.8902 149.184 -2.43125
11750 2 19.0842 149.171 -3.49469
8192 2 21.8135 150.738 -3.51155
12519 2 0.899751 102.172 -0.961083
6106 1 2.71526 102.159 0.261722
12414 2 4.53548 102.151 1.59355
12426 2 6.35599 102.172 -0.961083
5975 1 8.1715 102.159 0.261722
12231 2 11.8122 102.172 -0.961083
12227 2 9.99172 102.151 1.59355
5754 1 13.6277 102.159 0.261722
11939 2 15.448 102.151 1.59355
11949 2 17.2685 102.172 -0.961083
5437 1 19.084 102.159 0.261722
11584 2 20.9042 102.151 1.59355
12518 2 0.898455 105.308 -0.933729
12516 2 1.80662 103.721 1.60782
6098 1 2.71375 105.297 0.28916
12517 2 3.6272 103.74 -0.946898
6107 1 5.44259 103.728 0.275951
12413 2 4.53405 105.29 1.62106
12427 2 9.08344 103.74 -0.946898
12418 2 6.35469 105.308 -0.933729
5974 1 8.16999 105.297 0.28916
12412 2 7.26286 103.721 1.60782
12230 2 11.8109 105.308 -0.933729
5973 1 10.8988 103.728 0.275951
12215 2 9.99029 105.29 1.62106
12229 2 14.5397 103.74 -0.946898
5746 1 13.6262 105.297 0.28916
11938 2 15.4465 105.29 1.62106
12228 2 12.7191 103.721 1.60782
11943 2 17.2672 105.308 -0.933729
5755 1 16.3551 103.728 0.275951
11937 2 18.1753 103.721 1.60782
11950 2 19.9959 103.74 -0.946898
6138 1 21.8113 103.728 0.275951
5436 1 19.0825 105.297 0.28916
11583 2 20.9028 105.29 1.62106
12508 2 0.897361 108.444 -0.910464
12504 2 1.80531 106.86 1.63327
6097 1 2.7125 108.435 0.312491
12520 2 3.626 106.876 -0.921582
6096 1 5.44121 106.866 0.301342
12398 2 4.53286 108.429 1.64444
12417 2 6.3536 108.444 -0.910464
12416 2 9.08224 106.876 -0.921582
5963 1 8.16874 108.435 0.312491
12415 2 7.26155 106.86 1.63327
12219 2 11.8098 108.444 -0.910464
5976 1 10.8975 106.866 0.301342
12214 2 9.9891 108.429 1.64444
12232 2 14.5385 106.876 -0.921582
5745 1 13.625 108.435 0.312491
11925 2 15.4453 108.429 1.64444
12213 2 12.7178 106.86 1.63327
11942 2 17.2661 108.444 -0.910464
5744 1 16.3537 106.866 0.301342
11940 2 18.174 106.86 1.63327
11941 2 19.9947 106.876 -0.921582
6139 1 21.8099 106.866 0.301342
5429 1 19.0812 108.435 0.312491
11582 2 20.9016 108.429 1.64444
12507 2 0.896472 111.579 -0.891358
12505 2 1.80423 109.998 1.65456
6083 1 2.7115 111.572 0.331637
12506 2 3.62501 110.011 -0.900386
6099 1 5.44009 110.003 0.322593
12397 2 4.5319 111.568 1.66363
12419 2 9.08125 110.011 -0.900386
12402 2 6.35271 111.579 -0.891358
5962 1 8.16774 111.572 0.331637
12396 2 7.26047 109.998 1.65456
12218 2 11.8089 111.579 -0.891358
5961 1 10.8963 110.003 0.322593
12195 2 9.98814 111.568 1.66363
12217 2 14.5375 110.011 -0.900386
5730 1 13.624 111.572 0.331637
11924 2 15.4444 111.568 1.66363
12216 2 12.7167 109.998 1.65456
11929 2 17.2652 111.579 -0.891358
5747 1 16.3526 110.003 0.322593
11923 2 18.1729 109.998 1.65456
6134 1 21.8088 110.003 0.322593
11944 2 19.9937 110.011 -0.900386
5428 1 19.0802 111.572 0.331637
11575 2 20.9006 111.568 1.66363
12496 2 0.895789 114.714 -0.876444
12492 2 1.80339 113.137 1.67165
6082 1 2.71076 114.708 0.346569
12509 2 3.62422 113.146 -0.88338
6081 1 5.43922 113.14 0.339626
12400 2 9.08046 113.146 -0.88338
12401 2 6.35203 114.714 -0.876444
5943 1 8.167 114.708 0.346569
12399 2 7.25963 113.137 1.67165
12199 2 11.8083 114.714 -0.876444
5964 1 10.8955 113.14 0.339626
12220 2 14.5367 113.146 -0.88338
5729 1 13.6232 114.708 0.346569
12193 2 12.7159 113.137 1.67165
11928 2 17.2645 114.714 -0.876444
5728 1 16.3517 113.14 0.339626
11926 2 18.1721 113.137 1.67165
6135 1 21.8079 113.14 0.339626
11927 2 19.9929 113.146 -0.88338
5413 1 19.0795 114.708 0.346569
12495 2 0.895339 117.849 -0.865686
6067 1 2.71027 117.845 0.357336
12494 2 3.62365 116.281 -0.870546
6084 1 5.4386 116.277 0.352472
12379 2 6.35158 117.849 -0.865686
12403 2 9.07989 116.281 -0.870546
5942 1 8.16651 117.845 0.357336
12198 2 11.8078 117.849 -0.865686
5941 1 10.8948 116.277 0.352472
12197 2 14.5361 116.281 -0.870546
5706 1 13.6228 117.845 0.357336
11907 2 17.2641 117.849 -0.865686
5731 1 16.3511 116.277 0.352472
11930 2 19.9924 116.281 -0.870546
6130 1 21.8073 116.277 0.352472
5412 1 19.079 117.845 0.357336
12484 2 0.895129 120.983 -0.859081
6066 1 2.71004 120.981 0.363946
12497 2 3.62332 119.416 -0.861864
6065 1 5.43824 119.413 0.361161
12377 2 9.07956 119.416 -0.861864
12378 2 6.35137 120.983 -0.859081
5916 1 8.16628 120.981 0.363946
12171 2 11.8076 120.983 -0.859081
5944 1 10.8945 119.413 0.361161
12200 2 14.5358 119.416 -0.861864
5705 1 13.6225 120.981 0.363946
11906 2 17.2638 120.983 -0.859081
5704 1 16.3507 119.413 0.361161
11905 2 19.992 119.416 -0.861864
6131 1 21.807 119.413 0.361161
5389 1 19.0788 120.981 0.363946
12483 2 0.895159 124.118 -0.856639
6051 1 2.71005 124.117 0.366392
12482 2 3.62323 122.551 -0.857339
6068 1 5.43813 122.549 0.36569
12380 2 9.07947 122.551 -0.857339
12355 2 6.3514 124.118 -0.856639
5915 1 8.16629 124.117 0.366392
5914 1 10.8944 122.549 0.36569
12170 2 11.8076 124.118 -0.856639
12169 2 14.5357 122.551 -0.857339
5674 1 13.6225 124.117 0.366392
5707 1 16.3506 122.549 0.36569
11877 2 17.2639 124.118 -0.856639
11908 2 19.9919 122.551 -0.857339
6126 1 21.8068 122.549 0.36569
5388 1 19.0788 124.117 0.366392
12472 2 0.89543 127.252 -0.858367
6050 1 2.71032 127.253 0.364665
12485 2 3.62338 125.685 -0.856981
6049 1 5.43827 125.685 0.366051
12353 2 9.07962 125.685 -0.856981
12354 2 6.35167 127.252 -0.858367
5888 1 8.16656 127.253 0.364665
5917 1 10.8945 125.685 0.366051
12136 2 11.8079 127.252 -0.858367
12172 2 14.5359 125.685 -0.856981
5673 1 13.6228 127.253 0.364665
5672 1 16.3507 125.685 0.366051
11876 2 17.2641 127.252 -0.858367
11875 2 19.9921 125.685 -0.856981
6127 1 21.807 125.685 0.366051
5357 1 19.079 127.253 0.364665
12470 2 3.62377 128.82 -0.860798
6052 1 5.43866 128.822 0.362233
12356 2 9.08001 128.82 -0.860798
5886 1 10.8949 128.822 0.362233
12134 2 14.5363 128.82 -0.860798
5675 1 16.3511 128.822 0.362233
11878 2 19.9925 128.82 -0.860798
6122 1 21.8074 128.822 0.362233
12471 2 0.895941 130.387 -0.864276
6035 1 2.71083 130.39 0.358755
12473 2 3.62441 131.954 -0.868801
6033 1 5.4393 131.958 0.354229
12329 2 9.08064 131.954 -0.868801
12331 2 6.35218 130.387 -0.864276
5887 1 8.16707 130.39 0.358755
12135 2 11.8084 130.387 -0.864276
5889 1 10.8955 131.958 0.354229
12137 2 14.5369 131.954 -0.868801
5635 1 13.6233 130.39 0.358755
11839 2 17.2647 130.387 -0.864276
5633 1 16.3518 131.958 0.354229
11837 2 19.9931 131.954 -0.868801
6123 1 21.808 131.958 0.354229
5356 1 19.0795 130.39 0.358755
12460 2 0.896691 133.521 -0.874374
6034 1 2.71159 133.526 0.348653
12458 2 3.62527 135.089 -0.880997
6036 1 5.44019 135.094 0.342027
12330 2 6.35293 133.521 -0.874374
12332 2 9.08151 135.089 -0.880997
5860 1 8.16783 133.526 0.348653
12100 2 11.8092 133.521 -0.874374
5858 1 10.8964 135.094 0.342027
12098 2 14.5377 135.089 -0.880997
5634 1 13.6241 133.526 0.348653
11838 2 17.2654 133.521 -0.874374
5636 1 16.3527 135.094 0.342027
11840 2 19.994 135.089 -0.880997
6118 1 21.8089 135.094 0.342027
5317 1 19.0803 133.526 0.348653
12459 2 0.897674 136.656 -0.88867
6019 1 2.7126 136.662 0.33435
12461 2 3.62637 138.223 -0.897393
6017 1 5.44132 138.23 0.325622
12305 2 9.08261 138.223 -0.897393
12307 2 6.35391 136.656 -0.88867
5859 1 8.16884 136.662 0.33435
12099 2 11.8102 136.656 -0.88867
5861 1 10.8976 138.23 0.325622
12101 2 14.5388 138.223 -0.897393
5595 1 13.6251 136.662 0.33435
11794 2 17.2664 136.656 -0.88867
5593 1 16.3538 138.23 0.325622
11792 2 19.9951 138.223 -0.897393
6119 1 21.81 138.23 0.325622
5316 1 19.0813 136.662 0.33435
12448 2 0.898882 139.791 -0.907168
6018 1 2.71386 139.799 0.31584
12446 2 3.62768 141.358 -0.917999
6020 1 5.4427 141.367 0.304996
12306 2 6.35512 139.791 -0.907168
12308 2 9.08392 141.358 -0.917999
5832 1 8.1701 139.799 0.31584
12064 2 11.8114 139.791 -0.907168
5830 1 10.8989 141.367 0.304996
12062 2 14.5402 141.358 -0.917999
5594 1 13.6263 139.799 0.31584
11793 2 17.2676 139.791 -0.907168
5596 1 16.3552 141.367 0.304996
11795 2 19.9964 141.358 -0.917999
6114 1 21.8114 141.367 0.304996
5270 1 19.0826 139.799 0.31584
12447 2 0.900291 142.926 -0.929896
6004 1 2.71536 142.935 0.293078
12449 2 3.62917 144.493 -0.942859
6002 1 5.44433 144.504 0.280085
12282 2 9.08541 144.493 -0.942859
12284 2 6.35653 142.926 -0.929896
5831 1 8.1716 142.935 0.293078
12063 2 11.8128 142.926 -0.929896
5833 1 10.9006 144.504 0.280085
12065 2 14.5417 144.493 -0.942859
5556 1 13.6278 142.935 0.293078
11748 2 17.269 142.926 -0.929896
5554 1 16.3568 144.504 0.280085
11746 2 19.9979 144.493 -0.942859
6115 1 21.813 144.504 0.280085
5269 1 19.0841 142.935 0.293078
12440 2 0.901858 146.061 -0.956871
6003 1 2.71711 146.073 0.266033
12438 2 3.63082 147.629 -0.971916
6005 1 5.44618 147.641 0.250942
12283 2 6.3581 146.061 -0.956871
12285 2 9.08706 147.629 -0.971916
5808 1 8.17335 146.073 0.266033
12032 2 11.8143 146.061 -0.956871
5806 1 10.9024 147.641 0.250942
12030 2 14.5433 147.629 -0.971916
5555 1 13.6296 146.073 0.266033
11747 2 17.2706 146.061 -0.956871
5557 1 16.3587 147.641 0.250942
11749 2 19.9995 147.629 -0.971916
6113 1 21.8149 147.641 0.250942
5223 1 19.0858 146.073 0.266033
12439 2 0.903577 149.197 -0.987977
5993 1 2.71907 149.21 0.234826
8173 2 3.6326 150.766 -1.00504
2009 1 5.44825 150.78 0.217704
12265 2 6.35982 149.197 -0.987977
5807 1 8.17531 149.21 0.234826
8073 2 9.08884 150.766 -1.00504
12031 2 11.8161 149.197 -0.987977
1885 1 10.9045 150.78 0.217704
5521 1 13.6315 149.21 0.234826
7885 2 14.5451 150.766 -1.00504
11705 2 17.2723 149.197 -0.987977
1657 1 16.3607 150.78 0.217704
5222 1 19.0878 149.21 0.234826
7596 2 20.0013 150.766 -1.00504
2046 1 21.817 150.78 0.217704
6094 1 0.896631 102.14 2.85999
12410 2 2.71502 102.132 4.16101
5971 1 6.35287 102.14 2.85999
12211 2 8.17126 102.132 4.16101
5742 1 11.8091 102.14 2.85999
11935 2 13.6275 102.132 4.16101
5434 1 17.2653 102.14 2.85999
11581 2 19.0837 102.132 4.16101
6093 1 0.895106 105.281 2.88758
12394 2 2.7135 105.274 4.18859
6092 1 3.62395 103.71 2.8743
12411 2 5.44235 103.703 4.17532
5959 1 6.35134 105.281 2.88758
5972 1 9.08019 103.71 2.8743
12210 2 8.16974 105.274 4.18859
5741 1 11.8076 105.281 2.88758
12209 2 10.8986 103.703 4.17532
5740 1 14.5364 103.71 2.8743
11921 2 13.626 105.274 4.18859
5426 1 17.2638 105.281 2.88758
11936 2 16.3548 103.703 4.17532
12502 2 21.8111 103.703 4.17532
5435 1 19.9927 103.71 2.8743
11580 2 19.0822 105.274 4.18859
6079 1 0.893836 108.421 2.91102
12393 2 2.71222 108.416 4.21202
6095 1 3.62256 106.851 2.89982
12392 2 5.44095 106.845 4.20083
5957 1 9.0788 106.851 2.89982
5958 1 6.35007 108.421 2.91102
12191 2 8.16846 108.416 4.21202
5726 1 11.8063 108.421 2.91102
12212 2 10.8972 106.845 4.20083
5743 1 14.535 106.851 2.89982
11920 2 13.6247 108.416 4.21202
5425 1 17.2626 108.421 2.91102
11919 2 16.3534 106.845 4.20083
12503 2 21.8097 106.845 4.20083
5424 1 19.9913 106.851 2.89982
11573 2 19.0809 108.416 4.21202
6078 1 0.89282 111.561 2.93026
12371 2 2.71121 111.557 4.23126
6077 1 3.62142 109.991 2.92117
12395 2 5.4398 109.987 4.22217
5939 1 6.34906 111.561 2.93026
5960 1 9.07765 109.991 2.92117
12190 2 8.16744 111.557 4.23126
5725 1 11.8053 111.561 2.93026
12189 2 10.896 109.987 4.22217
5724 1 14.5339 109.991 2.92117
11899 2 13.6237 111.557 4.23126
5410 1 17.2615 111.561 2.93026
11922 2 16.3523 109.987 4.22217
12490 2 21.8085 109.987 4.22217
5427 1 19.9901 109.991 2.92117
11572 2 19.0799 111.557 4.23126
6063 1 0.892061 114.701 2.94528
12370 2 2.71045 114.699 4.2463
12375 2 4.53118 114.706 1.67863
6080 1 3.62053 113.131 2.93829
12369 2 5.43891 113.128 4.23931
5937 1 9.07677 113.131 2.93829
5938 1 6.3483 114.701 2.94528
12163 2 8.16668 114.699 4.2463
12194 2 9.98741 114.706 1.67863
5702 1 11.8045 114.701 2.94528
12192 2 10.8952 113.128 4.23931
11903 2 15.4437 114.706 1.67863
5727 1 14.533 113.131 2.93829
11898 2 13.6229 114.699 4.2463
5409 1 17.2608 114.701 2.94528
11897 2 16.3514 113.128 4.23931
11574 2 20.8999 114.706 1.67863
12491 2 21.8076 113.128 4.23931
5408 1 19.9892 113.131 2.93829
11557 2 19.0792 114.699 4.2463
12493 2 1.80279 116.275 1.68455
6062 1 0.891559 117.841 2.9561
12347 2 2.70994 117.84 4.25714
12374 2 4.5307 117.844 1.68944
6061 1 3.6199 116.271 2.95122
12372 2 5.43828 116.269 4.25224
12373 2 7.25903 116.275 1.68455
5912 1 6.3478 117.841 2.9561
5940 1 9.07614 116.271 2.95122
12162 2 8.16618 117.84 4.25714
12167 2 9.98694 117.844 1.68944
5701 1 11.804 117.841 2.9561
12161 2 10.8945 116.269 4.25224
11902 2 15.4432 117.844 1.68944
12196 2 12.7153 116.275 1.68455
5700 1 14.5324 116.271 2.95122
11869 2 13.6224 117.84 4.25714
11901 2 18.1715 116.275 1.68455
5386 1 17.2603 117.841 2.9561
11900 2 16.3508 116.269 4.25224
11559 2 20.8994 117.844 1.68944
12478 2 21.807 116.269 4.25224
5411 1 19.9886 116.271 2.95122
11556 2 19.0787 117.84 4.25714
12480 2 1.80243 119.413 1.69327
6047 1 0.891314 120.981 2.96275
12346 2 2.7097 120.981 4.26379
12351 2 4.53047 120.982 1.69607
6064 1 3.61952 119.411 2.95995
12345 2 5.43791 119.411 4.26099
12376 2 7.25867 119.413 1.69327
5910 1 9.07576 119.411 2.95995
5911 1 6.34755 120.981 2.96275
12128 2 8.16594 120.981 4.26379
12166 2 9.98671 120.982 1.69607
5670 1 11.8038 120.981 2.96275
12164 2 10.8941 119.411 4.26099
11873 2 15.4429 120.982 1.69607
12165 2 12.7149 119.413 1.69327
5703 1 14.532 119.411 2.95995
11868 2 13.6222 120.981 4.26379
11904 2 18.1711 119.413 1.69327
5385 1 17.26 120.981 2.96275
11867 2 16.3504 119.411 4.26099
11558 2 20.8992 120.982 1.69607
12479 2 21.8066 119.411 4.26099
5384 1 19.9882 119.411 2.95995
11533 2 19.0784 120.981 4.26379
12481 2 1.80233 122.551 1.69782
12323 2 2.70971 124.122 4.26626
6046 1 0.891326 124.12 2.96522
12350 2 4.53049 124.12 1.69853
6045 1 3.61941 122.55 2.96451
12348 2 5.43779 122.552 4.26555
12349 2 7.25857 122.551 1.69782
5913 1 9.07565 122.55 2.96451
12127 2 8.16595 124.122 4.26626
5884 1 6.34756 124.12 2.96522
12132 2 9.98673 124.12 1.69853
12126 2 10.894 122.552 4.26555
5669 1 11.8038 124.12 2.96522
12168 2 12.7148 122.551 1.69782
11872 2 15.443 124.12 1.69853
5668 1 14.5319 122.55 2.96451
11831 2 13.6222 124.122 4.26626
11871 2 18.171 122.551 1.69782
11870 2 16.3503 122.552 4.26555
5354 1 17.26 124.12 2.96522
11535 2 20.8992 124.12 1.69853
12466 2 21.8065 122.552 4.26555
5387 1 19.9881 122.55 2.96451
11532 2 19.0784 124.122 4.26626
12468 2 1.80248 125.689 1.69819
6031 1 0.891591 127.259 2.9635
12322 2 2.70998 127.263 4.26455
6048 1 3.61955 125.69 2.96488
12321 2 5.43793 125.693 4.26593
12327 2 4.53076 127.257 1.6968
12352 2 7.25872 125.689 1.69819
5882 1 9.07578 125.69 2.96488
5883 1 6.34783 127.259 2.9635
12092 2 8.16622 127.263 4.26455
12129 2 10.8942 125.693 4.26593
12131 2 9.987 127.257 1.6968
5631 1 11.8041 127.259 2.9635
12130 2 12.715 125.689 1.69819
5671 1 14.532 125.69 2.96488
11835 2 15.4432 127.257 1.6968
11830 2 13.6225 127.263 4.26455
11874 2 18.1712 125.689 1.69819
11829 2 16.3504 125.693 4.26593
5353 1 17.2603 127.259 2.9635
12467 2 21.8066 125.693 4.26593
5352 1 19.9883 125.69 2.96488
11534 2 20.8995 127.257 1.6968
11501 2 19.0787 127.263 4.26455
12469 2 1.80287 128.826 1.69437
6029 1 3.61994 128.829 2.96106
12324 2 5.43832 128.834 4.26211
12325 2 7.25911 128.826 1.69437
5885 1 9.07618 128.829 2.96106
12090 2 10.8946 128.834 4.26211
12133 2 12.7153 128.826 1.69437
5629 1 14.5324 128.829 2.96106
11833 2 18.1716 128.826 1.69437
11832 2 16.3508 128.834 4.26211
12454 2 21.807 128.834 4.26211
5355 1 19.9887 128.829 2.96106
12456 2 1.80351 131.964 1.68635
6030 1 0.892111 130.399 2.95758
12299 2 2.7105 130.404 4.25863
12326 2 4.53128 130.395 1.69089
6032 1 3.62059 131.969 2.95304
12297 2 5.43897 131.975 4.25409
12328 2 7.25975 131.964 1.68635
5854 1 9.07682 131.969 2.95304
5856 1 6.34835 130.399 2.95758
12091 2 8.16673 130.404 4.25863
12096 2 9.98752 130.395 1.69089
5630 1 11.8046 130.399 2.95758
12093 2 10.8952 131.975 4.25409
11834 2 15.4438 130.395 1.69089
12094 2 12.716 131.964 1.68635
5632 1 14.5331 131.969 2.95304
11786 2 13.623 130.404 4.25863
11836 2 18.1722 131.964 1.68635
5314 1 17.2608 130.399 2.95758
11784 2 16.3514 131.975 4.25409
11503 2 20.9 130.395 1.69089
12455 2 21.8077 131.975 4.25409
5312 1 19.9893 131.969 2.95304
11500 2 19.0792 130.404 4.25863
12457 2 1.8044 135.102 1.67412
6015 1 0.892886 133.538 2.94745
12298 2 2.71127 133.545 4.2485
12303 2 4.53205 133.533 1.68076
6013 1 3.62149 135.108 2.94081
12300 2 5.43987 135.116 4.24185
12301 2 7.26064 135.102 1.67412
5855 1 6.34912 133.538 2.94745
5857 1 9.07773 135.108 2.94081
12056 2 8.16751 133.545 4.2485
12095 2 9.98828 133.533 1.68076
5591 1 11.8054 133.538 2.94745
12054 2 10.8961 135.116 4.24185
11790 2 15.4445 133.533 1.68076
12097 2 12.7169 135.102 1.67412
5589 1 14.534 135.108 2.94081
11785 2 13.6237 133.545 4.2485
11788 2 18.1731 135.102 1.67412
5313 1 17.2616 133.538 2.94745
11787 2 16.3524 135.116 4.24185
11502 2 20.9008 133.533 1.68076
12442 2 21.8086 135.116 4.24185
5315 1 19.9902 135.108 2.94081
11461 2 19.08 133.545 4.2485
12444 2 1.80553 138.24 1.65766
6014 1 0.893917 136.678 2.9331
12276 2 2.7123 136.687 4.23414
12302 2 4.53306 136.671 1.66642
6016 1 3.62265 138.248 2.92433
12274 2 5.44103 138.257 4.22536
12304 2 7.26177 138.24 1.65766
5826 1 9.07889 138.248 2.92433
5828 1 6.35016 136.678 2.9331
12055 2 8.16854 136.687 4.23414
12060 2 9.98929 136.671 1.66642
5590 1 11.8064 136.678 2.9331
12057 2 10.8973 138.257 4.22536
11789 2 15.4455 136.671 1.66642
12058 2 12.718 138.24 1.65766
5592 1 14.5351 138.248 2.92433
11740 2 13.6248 136.687 4.23414
11791 2 18.1742 138.24 1.65766
5267 1 17.2626 136.678 2.9331
11738 2 16.3535 138.257 4.22536
11463 2 20.9018 136.671 1.66642
12443 2 21.8097 138.257 4.22536
5265 1 19.9914 138.248 2.92433
11460 2 19.081 136.687 4.23414
12445 2 1.8069 141.378 1.63696
6000 1 0.895203 139.817 2.9145
12275 2 2.71359 139.828 4.21552
12280 2 4.53431 139.809 1.64784
5998 1 3.62406 141.387 2.90359
12277 2 5.44245 141.398 4.20461
12278 2 7.26314 141.378 1.63696
5827 1 6.35144 139.817 2.9145
5829 1 9.0803 141.387 2.90359
12024 2 8.16983 139.828 4.21552
12059 2 9.99055 139.809 1.64784
5552 1 11.8077 139.817 2.9145
12022 2 10.8987 141.398 4.20461
11744 2 15.4468 139.809 1.64784
12061 2 12.7194 141.378 1.63696
5550 1 14.5365 141.387 2.90359
11739 2 13.6261 139.828 4.21552
11742 2 18.1756 141.378 1.63696
5266 1 17.2639 139.817 2.9145
11741 2 16.3549 141.398 4.20461
11462 2 20.903 139.809 1.64784
12434 2 21.8112 141.398 4.20461
5268 1 19.9928 141.387 2.90359
11414 2 19.0823 139.828 4.21552
12436 2 1.80849 144.516 1.61198
5999 1 0.896735 142.957 2.89162
12260 2 2.71513 142.969 4.19263
12279 2 4.53579 142.947 1.625
6001 1 3.62571 144.527 2.87856
12258 2 5.44411 144.54 4.17958
12281 2 7.26473 144.516 1.61198
5802 1 9.08195 144.527 2.87856
5804 1 6.35297 142.957 2.89162
12023 2 8.17137 142.969 4.19263
12028 2 9.99203 142.947 1.625
5551 1 11.8092 142.957 2.89162
12025 2 10.9003 144.54 4.17958
11743 2 15.4483 142.947 1.625
12026 2 12.721 144.516 1.61198
5553 1 14.5382 144.527 2.87856
11700 2 13.6276 142.969 4.19263
11745 2 18.1772 144.516 1.61198
5220 1 17.2655 142.957 2.89162
11698 2 16.3566 144.54 4.17958
11416 2 20.9045 142.947 1.625
12435 2 21.8128 144.54 4.17958
5218 1 19.9944 144.527 2.87856
11413 2 19.0838 142.969 4.19263
12437 2 1.81027 147.655 1.58277
5992 1 0.898504 146.098 2.86445
12259 2 2.71691 146.11 4.16547
12264 2 4.53747 146.086 1.5979
5990 1 3.62759 147.668 2.84927
12261 2 5.446 147.681 4.15031
12262 2 7.26651 147.655 1.58277
5803 1 6.35474 146.098 2.86445
5805 1 9.08383 147.668 2.84927
12000 2 8.17314 146.11 4.16547
12027 2 9.99371 146.086 1.5979
5520 1 11.811 146.098 2.86445
11998 2 10.9022 147.681 4.15031
11704 2 15.45 146.086 1.5979
12029 2 12.7227 147.655 1.58277
5518 1 14.5401 147.668 2.84927
11699 2 13.6294 146.11 4.16547
11702 2 18.179 147.655 1.58277
5219 1 17.2672 146.098 2.86445
11701 2 16.3585 147.681 4.15031
11415 2 20.9062 146.086 1.5979
12433 2 21.8147 147.681 4.15031
5221 1 19.9963 147.668 2.84927
11367 2 19.0856 146.11 4.16547
5991 1 0.900496 149.238 2.83306
12249 2 2.71891 149.252 4.1341
8163 2 1.81224 150.795 1.54943
12263 2 4.53935 149.225 1.56661
2008 1 3.62969 150.809 2.81582
8057 2 5.44812 150.823 4.11687
5785 1 6.35673 149.238 2.83306
11999 2 8.17515 149.252 4.1341
8072 2 7.26848 150.795 1.54943
1874 1 9.08593 150.809 2.81582
12001 2 9.99559 149.225 1.56661
5519 1 11.813 149.238 2.83306
7873 2 10.9044 150.823 4.11687
11703 2 15.4518 149.225 1.56661
11665 2 13.6314 149.252 4.1341
7874 2 12.7247 150.795 1.54943
1656 1 14.5422 150.809 2.81582
5177 1 17.2692 149.238 2.83306
7595 2 18.181 150.795 1.54943
7582 2 16.3606 150.823 4.11687
11368 2 20.9081 149.225 1.56661
11366 2 19.0876 149.252 4.1341
8162 2 21.8168 150.823 4.11687
1337 1 19.9984 150.809 2.81582
12390 2 0.894757 102.114 6.73286
5955 1 4.53283 102.122 5.44218
12207 2 6.351 102.114 6.73286
5738 1 9.98906 102.122 5.44218
11917 2 11.8072 102.114 6.73286
5422 1 15.4453 102.122 5.44218
11578 2 17.2635 102.114 6.73286
5056 1 20.9015 102.122 5.44218
6091 1 1.80387 103.694 5.45653
12389 2 0.893159 105.259 6.76043
5954 1 4.53123 105.266 5.46983
12388 2 3.62204 103.686 6.74716
5953 1 7.26011 103.694 5.45653
12187 2 6.3494 105.259 6.76043
12208 2 9.07828 103.686 6.74716
5722 1 9.98747 105.266 5.46983
11916 2 11.8056 105.259 6.76043
5421 1 15.4437 105.266 5.46983
5739 1 12.7163 103.694 5.45653
11915 2 14.5345 103.686 6.74716
5420 1 18.1726 103.694 5.45653
11570 2 17.2619 105.259 6.76043
5055 1 20.8999 105.266 5.46983
11579 2 19.9908 103.686 6.74716
6075 1 1.80241 106.838 5.4821
12367 2 0.891843 108.404 6.78384
5935 1 4.52991 108.409 5.49331
12391 2 3.62059 106.831 6.77266
5956 1 7.25865 106.838 5.4821
12185 2 9.07682 106.831 6.77266
12186 2 6.34808 108.404 6.78384
5721 1 9.98615 108.409 5.49331
11895 2 11.8043 108.404 6.78384
5406 1 15.4424 108.409 5.49331
5720 1 12.7149 106.838 5.4821
11918 2 14.5331 106.831 6.77266
5423 1 18.1711 106.838 5.4821
11569 2 17.2606 108.404 6.78384
5054 1 20.8986 108.409 5.49331
11568 2 19.9893 106.831 6.77266
6076 1 1.80123 109.981 5.50347
12366 2 0.890802 111.548 6.80306
5934 1 4.52886 111.552 5.51258
12365 2 3.61941 109.976 6.79398
5933 1 7.25747 109.981 5.50347
12159 2 6.34704 111.548 6.80306
12188 2 9.07565 109.976 6.79398
5698 1 9.9851 111.552 5.51258
11894 2 11.8033 111.548 6.80306
5405 1 15.4413 111.552 5.51258
5723 1 12.7137 109.981 5.50347
11893 2 14.5319 109.976 6.79398
5404 1 18.1699 109.981 5.50347
11554 2 17.2595 111.548 6.80306
5047 1 20.8976 111.552 5.51258
11571 2 19.9881 109.976 6.79398
6059 1 1.80031 113.124 5.52063
12343 2 0.890029 114.693 6.81809
5908 1 4.52808 114.696 5.52763
12368 2 3.6185 113.12 6.8111
5936 1 7.25655 113.124 5.52063
12157 2 9.07474 113.12 6.8111
12158 2 6.34627 114.693 6.81809
5697 1 9.98431 114.696 5.52763
11865 2 11.8025 114.693 6.81809
5382 1 15.4406 114.696 5.52763
5696 1 12.7128 113.124 5.52063
11896 2 14.531 113.12 6.8111
5407 1 18.169 113.124 5.52063
11553 2 17.2587 114.693 6.81809
5046 1 20.8968 114.696 5.52763
11552 2 19.9872 113.12 6.8111
6060 1 1.79967 116.267 5.53358
12342 2 0.889519 117.837 6.82893
5907 1 4.52756 117.838 5.53848
12341 2 3.61786 116.265 6.82404
5906 1 7.2559 116.267 5.53358
12124 2 6.34576 117.837 6.82893
12160 2 9.0741 116.265 6.82404
5666 1 9.9838 117.838 5.53848
11864 2 11.802 117.837 6.82893
5381 1 15.44 117.838 5.53848
5699 1 12.7121 116.267 5.53358
11863 2 14.5303 116.265 6.82404
5380 1 18.1684 116.267 5.53358
11530 2 17.2582 117.837 6.82893
5031 1 20.8963 117.838 5.53848
11555 2 19.9866 116.265 6.82404
6043 1 1.79928 119.41 5.54234
12319 2 0.889267 120.982 6.83559
5880 1 4.52731 120.981 5.54515
12344 2 3.61748 119.409 6.83279
5909 1 7.25552 119.41 5.54234
12122 2 9.07372 119.409 6.83279
12123 2 6.34551 120.982 6.83559
5665 1 9.98354 120.981 5.54515
11827 2 11.8017 120.982 6.83559
5350 1 15.4398 120.981 5.54515
5664 1 12.7118 119.41 5.54234
11866 2 14.53 119.409 6.83279
5383 1 18.168 119.41 5.54234
11529 2 17.258 120.982 6.83559
5030 1 20.896 120.981 5.54515
11528 2 19.9862 119.409 6.83279
6044 1 1.79916 122.553 5.54691
12318 2 0.889271 124.126 6.83807
5879 1 4.52731 124.124 5.54763
12317 2 3.61736 122.554 6.83735
5878 1 7.2554 122.553 5.54691
12088 2 6.34551 124.126 6.83807
12125 2 9.0736 122.554 6.83735
5627 1 9.98355 124.124 5.54763
11826 2 11.8017 124.126 6.83807
5349 1 15.4398 124.124 5.54763
5667 1 12.7116 122.553 5.54691
11825 2 14.5298 122.554 6.83735
5348 1 18.1679 122.553 5.54691
11498 2 17.258 124.126 6.83807
5007 1 20.896 124.124 5.54763
11531 2 19.9861 122.554 6.83735
6027 1 1.79929 125.695 5.5473
12295 2 0.889529 127.27 6.83636
12320 2 3.61749 125.698 6.83774
5852 1 4.52757 127.267 5.54592
5881 1 7.25553 125.695 5.5473
12086 2 9.07373 125.698 6.83774
12087 2 6.34577 127.27 6.83636
5626 1 9.98381 127.267 5.54592
11782 2 11.802 127.27 6.83636
5625 1 12.7118 125.695 5.5473
11828 2 14.53 125.698 6.83774
5310 1 15.44 127.267 5.54592
5351 1 18.168 125.695 5.5473
11497 2 17.2582 127.27 6.83636
11496 2 19.9862 125.698 6.83774
5006 1 20.8963 127.267 5.54592
6028 1 1.79968 128.838 5.54349
12293 2 3.61787 128.842 6.83394
5850 1 7.25592 128.838 5.54349
12089 2 9.07411 128.842 6.83394
5628 1 12.7122 128.838 5.54349
11780 2 14.5303 128.842 6.83394
5308 1 18.1684 128.838 5.54349
11499 2 19.9866 128.842 6.83394
6011 1 1.80033 131.981 5.53547
12294 2 0.890042 130.414 6.83046
5851 1 4.52809 130.409 5.54
12296 2 3.61851 131.987 6.82594
5853 1 7.25657 131.981 5.53547
12050 2 9.07475 131.987 6.82594
12052 2 6.34628 130.414 6.83046
5587 1 9.98433 130.409 5.54
11781 2 11.8025 130.414 6.83046
5309 1 15.4406 130.409 5.54
5585 1 12.7128 131.981 5.53547
11783 2 14.531 131.987 6.82594
5311 1 18.169 131.981 5.53547
11458 2 17.2588 130.414 6.83046
4975 1 20.8968 130.409 5.54
11456 2 19.9872 131.987 6.82594
6012 1 1.80124 135.123 5.52322
12272 2 0.890811 133.559 6.82035
5824 1 4.52887 133.552 5.52988
12270 2 3.61941 135.131 6.81371
5822 1 7.25748 135.123 5.52322
12051 2 6.34705 133.559 6.82035
12053 2 9.07565 135.131 6.81371
5586 1 9.98511 133.552 5.52988
11736 2 11.8033 133.559 6.82035
5263 1 15.4413 133.552 5.52988
5588 1 12.7137 135.123 5.52322
11734 2 14.5319 135.131 6.81371
5261 1 18.17 135.123 5.52322
11457 2 17.2595 133.559 6.82035
4974 1 20.8976 133.552 5.52988
11459 2 19.9881 135.131 6.81371
5996 1 1.80242 138.266 5.50673
12271 2 0.891842 136.703 6.80601
5823 1 4.52992 136.695 5.51551
12273 2 3.62058 138.275 6.79725
5825 1 7.25866 138.266 5.50673
12018 2 9.07681 138.275 6.79725
12020 2 6.34808 136.703 6.80601
5548 1 9.98615 136.695 5.51551
11735 2 11.8043 136.703 6.80601
5262 1 15.4424 136.695 5.51551
5546 1 12.7149 138.266 5.50673
11737 2 14.5331 138.275 6.79725
5264 1 18.1711 138.266 5.50673
11411 2 17.2606 136.703 6.80601
4935 1 20.8986 136.695 5.51551
11409 2 19.9893 138.275 6.79725
5997 1 1.80386 141.409 5.48596
12256 2 0.893136 139.847 6.78742
5800 1 4.53122 139.837 5.49688
12254 2 3.622 141.419 6.77652
5798 1 7.2601 141.409 5.48596
12019 2 6.34937 139.847 6.78742
12021 2 9.07824 141.419 6.77652
5547 1 9.98746 139.837 5.49688
11696 2 11.8056 139.847 6.78742
5216 1 15.4437 139.837 5.49688
5549 1 12.7163 141.409 5.48596
11694 2 14.5345 141.419 6.77652
5214 1 18.1726 141.409 5.48596
11410 2 17.2619 139.847 6.78742
4934 1 20.8999 139.837 5.49688
11412 2 19.9907 141.419 6.77652
5988 1 1.80556 144.552 5.46089
12255 2 0.894695 142.991 6.76456
5799 1 4.53279 142.98 5.47396
12257 2 3.62369 144.563 6.75153
5801 1 7.2618 144.552 5.46089
11994 2 9.07993 144.563 6.75153
11996 2 6.35093 142.991 6.76456
5516 1 9.98903 142.98 5.47396
11695 2 11.8072 142.991 6.76456
5215 1 15.4453 142.98 5.47396
5514 1 12.718 144.552 5.46089
11697 2 14.5362 144.563 6.75153
5217 1 18.1743 144.552 5.46089
11364 2 17.2634 142.991 6.76456
4889 1 20.9015 142.98 5.47396
11362 2 19.9924 144.563 6.75153
5989 1 1.80752 147.695 5.43156
12248 2 0.896517 146.136 6.73743
5784 1 4.53462 146.123 5.44676
12246 2 3.62565 147.708 6.72229
5782 1 7.26375 147.695 5.43156
11995 2 6.35276 146.136 6.73743
11997 2 9.08188 147.708 6.72229
5515 1 9.99086 146.123 5.44676
11664 2 11.809 146.136 6.73743
5176 1 15.4471 146.123 5.44676
5517 1 12.72 147.695 5.43156
11662 2 14.5381 147.708 6.72229
5174 1 18.1762 147.695 5.43156
11363 2 17.2652 146.136 6.73743
4888 1 20.9033 146.123 5.44676
11365 2 19.9944 147.708 6.72229
12247 2 0.8986 149.28 6.7061
1994 1 1.80972 150.838 5.39803
5783 1 4.53671 149.266 5.41531
8056 2 3.62786 150.852 6.68888
11977 2 6.35484 149.28 6.7061
1873 1 7.26596 150.838 5.39803
7854 2 9.08409 150.852 6.68888
5489 1 9.99294 149.266 5.41531
11663 2 11.8111 149.28 6.7061
5175 1 15.4492 149.266 5.41531
1641 1 12.7222 150.838 5.39803
7581 2 14.5403 150.852 6.68888
11321 2 17.2673 149.28 6.7061
1336 1 18.1784 150.838 5.39803
4843 1 20.9054 149.266 5.41531
7225 2 19.9966 150.852 6.68888
5951 1 2.71265 102.105 8.01892
12387 2 1.80187 103.67 9.32026
12183 2 4.53082 102.097 9.30603
5718 1 8.16889 102.105 8.01892
12181 2 7.25811 103.67 9.32026
11913 2 9.98706 102.097 9.30603
5418 1 13.6251 102.105 8.01892
11566 2 15.4433 102.097 9.30603
11914 2 12.7143 103.67 9.32026
11564 2 18.1706 103.67 9.32026
5053 1 19.0814 102.105 8.01892
11200 2 20.8995 102.097 9.30603
5931 1 2.71103 105.251 8.04651
5952 1 5.43992 103.678 8.03323
12182 2 4.52923 105.244 9.33346
5717 1 8.16726 105.251 8.04651
5716 1 10.8962 103.678 8.03323
11891 2 9.98547 105.244 9.33346
5402 1 13.6235 105.251 8.04651
11565 2 15.4417 105.244 9.33346
5419 1 16.3524 103.678 8.03323
6073 1 21.8086 103.678 8.03323
5052 1 19.0797 105.251 8.04651
11199 2 20.8979 105.244 9.33346
5930 1 2.70969 108.397 8.06992
12363 2 1.80042 106.818 9.34563
5929 1 5.43844 106.824 8.05874
12155 2 4.52793 108.392 9.35676
5694 1 8.16593 108.397 8.06992
12184 2 7.25666 106.818 9.34563
5719 1 10.8947 106.824 8.05874
11890 2 9.98417 108.392 9.35676
5401 1 13.6222 108.397 8.06992
11550 2 15.4404 108.392 9.35676
11889 2 12.7129 106.818 9.34563
5400 1 16.3509 106.824 8.05874
11567 2 18.1691 106.818 9.34563
6074 1 21.8072 106.824 8.05874
5045 1 19.0784 108.397 8.06992
11198 2 20.8966 108.392 9.35676
5904 1 2.70864 111.544 8.08915
12364 2 1.79926 109.965 9.36685
5932 1 5.43725 109.971 8.08006
12154 2 4.5269 111.539 9.3759
5693 1 8.16488 111.544 8.08915
12153 2 7.2555 109.965 9.36685
5692 1 10.8935 109.971 8.08006
11861 2 9.98314 111.539 9.3759
5378 1 13.6211 111.544 8.08915
11549 2 15.4394 111.539 9.3759
11892 2 12.7117 109.965 9.36685
5403 1 16.3497 109.971 8.08006
11548 2 18.168 109.965 9.36685
6057 1 21.806 109.971 8.08006
5044 1 19.0774 111.544 8.08915
11191 2 20.8956 111.539 9.3759
5903 1 2.70786 114.69 8.10418
12339 2 1.79837 113.113 9.38391
5902 1 5.43633 113.117 8.09719
12120 2 4.52614 114.687 9.39087
5662 1 8.16409 114.69 8.10418
12156 2 7.25461 113.113 9.38391
5695 1 10.8926 113.117 8.09719
11860 2 9.98238 114.687 9.39087
5377 1 13.6203 114.69 8.10418
11526 2 15.4386 114.687 9.39087
11859 2 12.7108 113.113 9.38391
5376 1 16.3488 113.117 8.09719
11551 2 18.1671 113.113 9.38391
6058 1 21.805 113.117 8.09719
5029 1 19.0766 114.69 8.10418
11190 2 20.8949 114.687 9.39087
5876 1 2.70734 117.836 8.11502
12340 2 1.79774 116.261 9.39679
5905 1 5.43569 116.263 8.11012
12119 2 4.52565 117.834 9.40167
5661 1 8.16358 117.836 8.11502
12118 2 7.25398 116.261 9.39679
5660 1 10.8919 116.263 8.11012
11823 2 9.98188 117.834 9.40167
5346 1 13.6198 117.836 8.11502
11525 2 15.4381 117.834 9.40167
11862 2 12.7102 116.261 9.39679
5379 1 16.3482 116.263 8.11012
11524 2 18.1665 116.261 9.39679
6041 1 21.8044 116.263 8.11012
5028 1 19.0761 117.836 8.11502
11175 2 20.8944 117.834 9.40167
5875 1 2.70709 120.982 8.12168
12315 2 1.79737 119.408 9.40552
5874 1 5.4353 119.409 8.11887
12084 2 4.5254 120.982 9.40832
5623 1 8.16332 120.982 8.12168
12121 2 7.25361 119.408 9.40552
5663 1 10.8915 119.409 8.11887
11822 2 9.98164 120.982 9.40832
5345 1 13.6196 120.982 8.12168
11494 2 15.4379 120.982 9.40832
11821 2 12.7098 119.408 9.40552
5344 1 16.3478 119.409 8.11887
11527 2 18.1661 119.408 9.40552
6042 1 21.804 119.409 8.11887
5005 1 19.0758 120.982 8.12168
11174 2 20.8941 120.982 9.40832
5848 1 2.70709 124.128 8.12417
12316 2 1.79725 122.556 9.41008
5877 1 5.43517 122.555 8.12345
12083 2 4.5254 124.13 9.41079
5622 1 8.16333 124.128 8.12417
12082 2 7.25349 122.556 9.41008
5621 1 10.8914 122.555 8.12345
11778 2 9.98164 124.13 9.41079
5306 1 13.6196 124.128 8.12417
11493 2 15.4379 124.13 9.41079
11824 2 12.7097 122.556 9.41008
5347 1 16.3477 122.555 8.12345
11492 2 18.166 122.556 9.41008
6025 1 21.8039 122.555 8.12345
5004 1 19.0758 124.128 8.12417
11151 2 20.8941 124.13 9.41079
12291 2 1.79737 125.703 9.41047
5847 1 2.70734 127.274 8.12247
5846 1 5.4353 125.701 8.12384
12048 2 4.52565 127.277 9.4091
12085 2 7.25361 125.703 9.41047
5583 1 8.16358 127.274 8.12247
5624 1 10.8915 125.701 8.12384
11777 2 9.98189 127.277 9.4091
11776 2 12.7099 125.703 9.41047
5305 1 13.6198 127.274 8.12247
11454 2 15.4381 127.277 9.4091
5304 1 16.3478 125.701 8.12384
11495 2 18.1661 125.703 9.41047
6026 1 21.804 125.701 8.12384
4973 1 19.0761 127.274 8.12247
11150 2 20.8944 127.277 9.4091
12292 2 1.79775 128.851 9.40669
5849 1 5.43568 128.847 8.12005
12046 2 7.25398 128.851 9.40669
5581 1 10.8919 128.847 8.12005
11779 2 12.7102 128.851 9.40669
5307 1 16.3482 128.847 8.12005
11452 2 18.1665 128.851 9.40669
6009 1 21.8044 128.847 8.12005
5820 1 2.70785 130.42 8.11658
12268 2 1.79836 131.998 9.39873
5818 1 5.43632 131.992 8.11206
12047 2 4.52614 130.424 9.40324
5582 1 8.16409 130.42 8.11658
12049 2 7.2546 131.998 9.39873
5584 1 10.8926 131.992 8.11206
11732 2 9.98238 130.424 9.40324
5259 1 13.6203 130.42 8.11658
11453 2 15.4386 130.424 9.40324
11730 2 12.7108 131.998 9.39873
5257 1 16.3488 131.992 8.11206
11455 2 18.1671 131.998 9.39873
6010 1 21.805 131.992 8.11206
4972 1 19.0766 130.42 8.11658
11119 2 20.8949 130.424 9.40324
5819 1 2.70862 133.565 8.10648
12269 2 1.79924 135.146 9.38657
5821 1 5.43722 135.138 8.09985
12016 2 4.52689 133.572 9.39318
5544 1 8.16485 133.565 8.10648
12014 2 7.25548 135.146 9.38657
5542 1 10.8935 135.138 8.09985
11731 2 9.98313 133.572 9.39318
5258 1 13.6211 133.565 8.10648
11407 2 15.4394 133.572 9.39318
11733 2 12.7117 135.146 9.38657
5260 1 16.3497 135.138 8.09985
11405 2 18.168 135.146 9.38657
5994 1 21.8059 135.138 8.09985
4933 1 19.0773 133.565 8.10648
11118 2 20.8956 133.572 9.39318
5796 1 2.70965 136.711 8.09216
12252 2 1.80037 138.293 9.37019
5794 1 5.43838 138.284 8.0834
12015 2 4.52789 136.719 9.37891
5543 1 8.16588 136.711 8.09216
12017 2 7.25661 138.293 9.37019
5545 1 10.8946 138.284 8.0834
11692 2 9.98413 136.719 9.37891
5212 1 13.6221 136.711 8.09216
11406 2 15.4404 136.719 9.37891
11690 2 12.7128 138.293 9.37019
5210 1 16.3509 138.284 8.0834
11408 2 18.1691 138.293 9.37019
5995 1 21.8071 138.284 8.0834
4932 1 19.0784 136.711 8.09216
11080 2 20.8966 136.719 9.37891
5795 1 2.71094 139.857 8.07358
12253 2 1.80177 141.44 9.34957
5797 1 5.43981 141.43 8.06268
11992 2 4.52915 139.866 9.36041
5512 1 8.16718 139.857 8.07358
11990 2 7.258 141.44 9.34957
5510 1 10.8961 141.43 8.06268
11691 2 9.98539 139.866 9.36041
5211 1 13.6234 139.857 8.07358
11360 2 15.4416 139.866 9.36041
11693 2 12.7142 141.44 9.34957
5213 1 16.3523 141.43 8.06268
11358 2 18.1705 141.44 9.34957
5986 1 21.8085 141.43 8.06268
4887 1 19.0797 139.857 8.07358
11079 2 20.8979 139.866 9.36041
5780 1 2.71251 143.003 8.05072
12244 2 1.80344 144.587 9.3247
5778 1 5.44152 144.575 8.03769
11991 2 4.53069 143.013 9.33766
5511 1 8.16875 143.003 8.05072
11993 2 7.25967 144.587 9.3247
5513 1 10.8978 144.575 8.03769
11660 2 9.98692 143.013 9.33766
5172 1 13.625 143.003 8.05072
11359 2 15.4432 143.013 9.33766
11658 2 12.7159 144.587 9.3247
5170 1 16.354 144.575 8.03769
11361 2 18.1722 144.587 9.3247
5987 1 21.8102 144.575 8.03769
4886 1 19.0812 143.003 8.05072
11040 2 20.8994 143.013 9.33766
5779 1 2.71436 146.148 8.0236
12245 2 1.80539 147.734 9.29562
5781 1 5.44351 147.721 8.00844
11976 2 4.53249 146.16 9.31069
5488 1 8.1706 146.148 8.0236
11974 2 7.26162 147.734 9.29562
5486 1 10.8997 147.721 8.00844
11659 2 9.98873 146.16 9.31069
5171 1 13.6268 146.148 8.0236
11320 2 15.445 146.16 9.31069
11661 2 12.7179 147.734 9.29562
5173 1 16.356 147.721 8.00844
11318 2 18.1741 147.734 9.29562
5985 1 21.8122 147.721 8.00844
4842 1 19.0831 146.148 8.0236
11039 2 20.9012 146.16 9.31069
5769 1 2.71649 149.294 7.99224
8034 2 1.80762 150.881 9.26238
11975 2 4.53458 149.307 9.27952
1854 1 5.44577 150.867 7.97499
5487 1 8.17272 149.294 7.99224
7853 2 7.26385 150.881 9.26238
11633 2 9.99082 149.307 9.27952
1640 1 10.902 150.867 7.97499
5137 1 13.629 149.294 7.99224
11319 2 15.4471 149.307 9.27952
7560 2 12.7201 150.881 9.26238
1321 1 16.3582 150.867 7.97499
7224 2 18.1763 150.881 9.26238
4841 1 19.0852 149.294 7.99224
11000 2 20.9033 149.307 9.27952
1993 1 21.8145 150.867 7.97499
5927 1 0.892523 102.088 10.5936
12179 2 2.71074 102.079 11.8794
5925 1 3.61981 103.662 10.6078
12180 2 5.43806 103.655 11.8935
5714 1 6.34876 102.088 10.5936
11887 2 8.16698 102.079 11.8794
5715 1 9.07605 103.662 10.6078
5398 1 11.805 102.088 10.5936
11885 2 10.8943 103.655 11.8935
11562 2 13.6232 102.079 11.8794
5396 1 14.5323 103.662 10.6078
5050 1 17.2612 102.088 10.5936
11563 2 16.3505 103.655 11.8935
11197 2 19.0795 102.079 11.8794
12361 2 21.8068 103.655 11.8935
5051 1 19.9885 103.662 10.6078
5926 1 0.890935 105.237 10.621
12151 2 2.70922 105.23 11.9066
5690 1 6.34717 105.237 10.621
11886 2 8.16546 105.23 11.9066
5397 1 11.8034 105.237 10.621
11546 2 13.6217 105.23 11.9066
5042 1 17.2596 105.237 10.621
11196 2 19.0779 105.23 11.9066
5900 1 0.88964 108.386 10.6443
12150 2 2.70798 108.38 11.9297
5928 1 3.61837 106.811 10.6332
12149 2 5.43669 106.805 11.9187
5688 1 9.07461 106.811 10.6332
5689 1 6.34588 108.386 10.6443
11857 2 8.16422 108.38 11.9297
5374 1 11.8021 108.386 10.6443
11888 2 10.8929 106.805 11.9187
5399 1 14.5308 106.811 10.6332
11545 2 13.6205 108.38 11.9297
5041 1 17.2584 108.386 10.6443
11544 2 16.3492 106.805 11.9187
12362 2 21.8054 106.805 11.9187
5040 1 19.9871 106.811 10.6332
11189 2 19.0767 108.38 11.9297
5899 1 0.888624 111.535 10.6634
12116 2 2.70702 111.531 11.9487
5898 1 3.61722 109.96 10.6543
12152 2 5.43559 109.955 11.9397
5658 1 6.34486 111.535 10.6634
5691 1 9.07346 109.96 10.6543
11856 2 8.16326 111.531 11.9487
5373 1 11.8011 111.535 10.6634
11855 2 10.8918 109.955 11.9397
5372 1 14.5297 109.96 10.6543
11522 2 13.6195 111.531 11.9487
5026 1 17.2573 111.535 10.6634
11547 2 16.3481 109.955 11.9397
12337 2 21.8043 109.955 11.9397
5043 1 19.9859 109.96 10.6543
11188 2 19.0757 111.531 11.9487
5872 1 0.887876 114.684 10.6783
12115 2 2.70631 114.681 11.9635
5901 1 3.61634 113.109 10.6714
12114 2 5.43475 113.106 11.9566
5656 1 9.07258 113.109 10.6714
5657 1 6.34411 114.684 10.6783
11819 2 8.16255 114.681 11.9635
5342 1 11.8004 114.684 10.6783
11858 2 10.891 113.106 11.9566
5375 1 14.5288 113.109 10.6714
11521 2 13.6188 114.681 11.9635
5025 1 17.2566 114.684 10.6783
11520 2 16.3472 113.106 11.9566
5024 1 19.9851 113.109 10.6714
12338 2 21.8035 113.106 11.9566
11173 2 19.075 114.681 11.9635
5871 1 0.887385 117.833 10.6891
12080 2 2.70584 117.832 11.9743
5870 1 3.61572 116.259 10.6842
12117 2 5.43417 116.257 11.9694
5619 1 6.34362 117.833 10.6891
5659 1 9.07196 116.259 10.6842
11818 2 8.16208 117.832 11.9743
5341 1 11.7999 117.833 10.6891
11817 2 10.8904 116.257 11.9694
5340 1 14.5282 116.259 10.6842
11490 2 13.6183 117.832 11.9743
5002 1 17.2561 117.833 10.6891
11523 2 16.3466 116.257 11.9694
5027 1 19.9844 116.259 10.6842
12313 2 21.8029 116.257 11.9694
11172 2 19.0746 117.832 11.9743
5844 1 0.887142 120.982 10.6957
12079 2 2.70562 120.983 11.9809
5873 1 3.61535 119.408 10.6929
12078 2 5.43382 119.407 11.9781
5617 1 9.07159 119.408 10.6929
5618 1 6.34338 120.982 10.6957
11774 2 8.16186 120.983 11.9809
5302 1 11.7996 120.982 10.6957
11820 2 10.8901 119.407 11.9781
5343 1 14.5278 119.408 10.6929
11489 2 13.6181 120.983 11.9809
5001 1 17.2559 120.982 10.6957
11488 2 16.3463 119.407 11.9781
5000 1 19.9841 119.408 10.6929
12314 2 21.8025 119.407 11.9781
11149 2 19.0743 120.983 11.9809
5843 1 0.887142 124.131 10.6982
12044 2 2.70562 124.133 11.9833
5842 1 3.61523 122.557 10.6975
12081 2 5.43371 122.558 11.9826
5579 1 6.34338 124.131 10.6982
5620 1 9.07147 122.557 10.6975
11773 2 8.16186 124.133 11.9833
5301 1 11.7996 124.131 10.6982
11772 2 10.8899 122.558 11.9826
5300 1 14.5277 122.557 10.6975
11450 2 13.6181 124.133 11.9833
4970 1 17.2559 124.131 10.6982
11491 2 16.3462 122.558 11.9826
5003 1 19.9839 122.557 10.6975
12289 2 21.8024 122.558 11.9826
11148 2 19.0743 124.133 11.9833
5816 1 0.887384 127.281 10.6965
12043 2 2.70585 127.284 11.9817
5845 1 3.61535 125.706 10.6979
12042 2 5.43383 125.709 11.983
5577 1 9.07159 125.706 10.6979
5578 1 6.34362 127.281 10.6965
11728 2 8.16209 127.284 11.9817
11775 2 10.8901 125.709 11.983
5255 1 11.7999 127.281 10.6965
5303 1 14.5278 125.706 10.6979
11449 2 13.6183 127.284 11.9817
11448 2 16.3463 125.709 11.983
4969 1 17.2561 127.281 10.6965
4968 1 19.9841 125.706 10.6979
12290 2 21.8025 125.709 11.983
11117 2 19.0746 127.284 11.9817
5814 1 3.61571 128.855 10.6941
12045 2 5.43418 128.859 11.9793
5580 1 9.07195 128.855 10.6941
11726 2 10.8904 128.859 11.9793
5253 1 14.5282 128.855 10.6941
11451 2 16.3467 128.859 11.9793
4971 1 19.9844 128.855 10.6941
12266 2 21.8029 128.859 11.9793
5815 1 0.887868 130.43 10.6907
12012 2 2.70632 130.434 11.9759
5817 1 3.61632 132.004 10.6862
12010 2 5.43476 132.01 11.9714
5538 1 9.07256 132.004 10.6862
5540 1 6.34411 130.43 10.6907
11727 2 8.16256 130.434 11.9759
5254 1 11.8003 130.43 10.6907
11729 2 10.891 132.01 11.9714
5256 1 14.5288 132.004 10.6862
11403 2 13.6188 130.434 11.9759
4930 1 17.2566 130.43 10.6907
11401 2 16.3472 132.01 11.9714
4928 1 19.985 132.004 10.6862
12267 2 21.8035 132.01 11.9714
11116 2 19.075 130.434 11.9759
5792 1 0.8886 133.578 10.6807
12011 2 2.70702 133.585 11.9659
5790 1 3.61718 135.153 10.6741
12013 2 5.43558 135.16 11.9593
5539 1 6.34484 133.578 10.6807
5541 1 9.07342 135.153 10.6741
11688 2 8.16326 133.585 11.9659
5208 1 11.8011 133.578 10.6807
11686 2 10.8918 135.16 11.9593
5206 1 14.5297 135.153 10.6741
11402 2 13.6195 133.585 11.9659
4929 1 17.2573 133.578 10.6807
11404 2 16.3481 135.16 11.9593
4931 1 19.9859 135.153 10.6741
12250 2 21.8043 135.16 11.9593
11078 2 19.0757 133.585 11.9659
5791 1 0.889585 136.727 10.6664
11988 2 2.70796 136.735 11.9517
5793 1 3.6183 138.302 10.6577
11986 2 5.43664 138.31 11.9431
5506 1 9.07453 138.302 10.6577
5508 1 6.34582 136.727 10.6664
11687 2 8.1642 136.735 11.9517
5207 1 11.8021 136.727 10.6664
11689 2 10.8929 138.31 11.9431
5209 1 14.5308 138.302 10.6577
11356 2 13.6204 136.735 11.9517
4884 1 17.2583 136.727 10.6664
11354 2 16.3491 138.31 11.9431
4882 1 19.987 138.302 10.6577
12251 2 21.8054 138.31 11.9431
11077 2 19.0767 136.735 11.9517
5776 1 0.890833 139.876 10.648
11987 2 2.70915 139.885 11.9334
5774 1 3.61968 141.45 10.6372
11989 2 5.43796 141.46 11.9226
5507 1 6.34707 139.876 10.648
5509 1 9.07592 141.45 10.6372
11656 2 8.16539 139.885 11.9334
5168 1 11.8033 139.876 10.648
11654 2 10.8942 141.46 11.9226
5166 1 14.5322 141.45 10.6372
11355 2 13.6216 139.885 11.9334
4883 1 17.2595 139.876 10.648
11357 2 16.3504 141.46 11.9226
4885 1 19.9884 141.45 10.6372
12242 2 21.8067 141.46 11.9226
11038 2 19.0779 139.885 11.9334
5775 1 0.892353 143.025 10.6253
11972 2 2.71061 143.035 11.9109
5777 1 3.62134 144.599 10.6124
11970 2 5.43956 144.61 11.898
5482 1 9.07758 144.599 10.6124
5484 1 6.34859 143.025 10.6253
11655 2 8.16685 143.035 11.9109
5167 1 11.8048 143.025 10.6253
11657 2 10.8958 144.61 11.898
5169 1 14.5338 144.599 10.6124
11316 2 13.6231 143.035 11.9109
4839 1 17.2611 143.025 10.6253
11314 2 16.352 144.61 11.898
4837 1 19.9901 144.599 10.6124
12243 2 21.8083 144.61 11.898
11037 2 19.0793 143.035 11.9109
5768 1 0.894155 146.173 10.5984
11971 2 2.71234 146.185 11.8841
5766 1 3.62328 147.747 10.5833
11973 2 5.44143 147.76 11.8692
5483 1 6.35039 146.173 10.5984
5485 1 9.07952 147.747 10.5833
11632 2 8.16858 146.185 11.8841
5136 1 11.8066 146.173 10.5984
11630 2 10.8977 147.76 11.8692
5134 1 14.5358 147.747 10.5833
11315 2 13.6248 146.185 11.8841
4838 1 17.2629 146.173 10.5984
11317 2 16.3539 147.76 11.8692
4840 1 19.992 147.747 10.5833
12241 2 21.8101 147.76 11.8692
10999 2 19.0811 146.185 11.8841
5767 1 0.896249 149.321 10.5672
11961 2 2.71436 149.334 11.8533
1853 1 3.62553 150.895 10.5501
7826 2 5.4436 150.909 11.8363
5465 1 6.35249 149.321 10.5672
11631 2 8.1706 149.334 11.8533
1617 1 9.08177 150.895 10.5501
5135 1 11.8087 149.321 10.5672
7559 2 10.8998 150.909 11.8363
11281 2 13.6268 149.334 11.8533
1320 1 14.538 150.895 10.5501
4798 1 17.265 149.321 10.5672
7209 2 16.3561 150.909 11.8363
10998 2 19.0831 149.334 11.8533
953 1 19.9942 150.895 10.5501
8033 2 21.8123 150.909 11.8363
5924 1 1.79981 103.647 13.1814
12147 2 0.89076 102.063 14.4527
5682 1 2.70877 102.054 15.7406
5686 1 4.52871 102.071 13.1674
12145 2 3.61815 103.639 14.4665
5683 1 5.4362 103.631 15.7544
5684 1 7.25605 103.647 13.1814
11883 2 6.347 102.063 14.4527
5366 1 8.165 102.054 15.7406
11884 2 9.07439 103.639 14.4665
5394 1 9.98495 102.071 13.1674
11542 2 11.8032 102.063 14.4527
5364 1 10.8924 103.631 15.7544
5038 1 15.4412 102.071 13.1674
5395 1 12.7123 103.647 13.1814
5034 1 13.6212 102.054 15.7406
11540 2 14.5306 103.639 14.4665
5036 1 18.1685 103.647 13.1814
11194 2 17.2595 102.063 14.4527
5035 1 16.3487 103.631 15.7544
4688 1 20.8974 102.071 13.1674
4685 1 19.0775 102.054 15.7406
5894 1 21.8049 103.631 15.7544
11195 2 19.9869 103.639 14.4665
12146 2 0.889374 105.215 14.4794
5650 1 2.70745 105.208 15.7672
5685 1 4.52723 105.222 13.1945
11853 2 6.34561 105.215 14.4794
5365 1 8.16369 105.208 15.7672
5370 1 9.98347 105.222 13.1945
11541 2 11.8019 105.215 14.4794
5037 1 15.4397 105.222 13.1945
5018 1 13.6199 105.208 15.7672
11186 2 17.2581 105.215 14.4794
4687 1 20.8959 105.222 13.1945
4684 1 19.0762 105.208 15.7672
5896 1 1.79848 106.798 13.2065
12112 2 0.88826 108.369 14.5022
5649 1 2.70641 108.363 15.7899
5654 1 4.52603 108.374 13.2175
12148 2 3.6169 106.792 14.4913
5648 1 5.43502 106.785 15.7791
5687 1 7.25471 106.798 13.2065
11851 2 9.07314 106.792 14.4913
11852 2 6.3445 108.369 14.5022
5334 1 8.16264 108.363 15.7899
5369 1 9.98227 108.374 13.2175
11518 2 11.8007 108.369 14.5022
5367 1 10.8913 106.785 15.7791
5022 1 15.4385 108.374 13.2175
5368 1 12.711 106.798 13.2065
11543 2 14.5294 106.792 14.4913
5017 1 13.6189 108.363 15.7899
5039 1 18.1672 106.798 13.2065
11185 2 17.257 108.369 14.5022
5016 1 16.3475 106.785 15.7791
4686 1 20.8947 108.374 13.2175
5895 1 21.8037 106.785 15.7791
11184 2 19.9856 106.792 14.4913
4677 1 19.0751 108.363 15.7899
5897 1 1.79741 109.95 13.2274
12111 2 0.887395 111.522 14.521
5611 1 2.7056 111.518 15.8085
5653 1 4.5251 111.526 13.2364
12110 2 3.61592 109.945 14.5121
5651 1 5.43409 109.94 15.7997
5652 1 7.25365 109.95 13.2274
11815 2 6.34363 111.522 14.521
11854 2 9.07215 109.945 14.5121
5333 1 8.16183 111.518 15.8085
5338 1 9.98134 111.526 13.2364
11517 2 11.7999 111.522 14.521
5332 1 10.8903 109.94 15.7997
5371 1 12.7099 109.95 13.2274
5021 1 15.4376 111.526 13.2364
11516 2 14.5284 109.945 14.5121
4994 1 13.6181 111.518 15.8085
5020 1 18.1661 109.95 13.2274
11170 2 17.2561 111.522 14.521
5019 1 16.3466 109.94 15.7997
4679 1 20.8938 111.526 13.2364
5866 1 21.8028 109.94 15.7997
11187 2 19.9846 109.945 14.5121
4676 1 19.0743 111.518 15.8085
5868 1 1.79661 113.102 13.2443
12076 2 0.886765 114.676 14.5357
5610 1 2.70501 114.673 15.8231
5615 1 4.52441 114.678 13.2512
12113 2 3.61517 113.099 14.5288
5609 1 5.43339 113.095 15.8163
5655 1 7.25285 113.102 13.2443
11813 2 9.07141 113.099 14.5288
11814 2 6.343 114.676 14.5357
5294 1 8.16125 114.673 15.8231
5337 1 9.98065 114.678 13.2512
11486 2 11.7992 114.676 14.5357
5335 1 10.8896 113.095 15.8163
4998 1 15.4369 114.678 13.2512
5336 1 12.7091 113.102 13.2443
11519 2 14.5276 113.099 14.5288
4993 1 13.6175 114.673 15.8231
5023 1 18.1653 113.102 13.2443
11169 2 17.2555 114.676 14.5357
4992 1 16.3459 113.095 15.8163
4678 1 20.8931 114.678 13.2512
11168 2 19.9839 113.099 14.5288
5867 1 21.8021 113.095 15.8163
4661 1 19.0737 114.673 15.8231
5869 1 1.79604 116.254 13.257
12075 2 0.886355 117.829 14.5463
5571 1 2.70463 117.828 15.8337
5614 1 4.52397 117.831 13.2619
12074 2 3.61465 116.252 14.5415
5612 1 5.43291 116.25 15.8289
5613 1 7.25228 116.254 13.257
11770 2 6.34259 117.829 14.5463
11816 2 9.07089 116.252 14.5415
5293 1 8.16087 117.828 15.8337
5298 1 9.98021 117.831 13.2619
11485 2 11.7988 117.829 14.5463
5292 1 10.8892 116.25 15.8289
4997 1 15.4364 117.831 13.2619
5339 1 12.7085 116.254 13.257
11484 2 14.5271 116.252 14.5415
4962 1 13.6171 117.828 15.8337
4996 1 18.1648 116.254 13.257
11146 2 17.2551 117.829 14.5463
4995 1 16.3454 116.25 15.8289
4663 1 20.8927 117.831 13.2619
11171 2 19.9834 116.252 14.5415
5838 1 21.8016 116.25 15.8289
4660 1 19.0733 117.828 15.8337
5840 1 1.79571 119.407 13.2657
12040 2 0.886158 120.983 14.5529
5570 1 2.70445 120.983 15.8402
5575 1 4.52375 120.983 13.2685
12077 2 3.61435 119.406 14.5501
5569 1 5.43263 119.406 15.8375
5616 1 7.25195 119.407 13.2657
11768 2 9.07059 119.406 14.5501
11769 2 6.3424 120.983 14.5529
5247 1 8.16069 120.983 15.8402
5297 1 9.97999 120.983 13.2685
11446 2 11.7986 120.983 14.5529
5295 1 10.8889 119.406 15.8375
5296 1 12.7082 119.407 13.2657
4966 1 15.4362 120.983 13.2685
11487 2 14.5268 119.406 14.5501
4961 1 13.6169 120.983 15.8402
4999 1 18.1644 119.407 13.2657
11145 2 17.2549 120.983 14.5529
4960 1 16.3451 119.406 15.8375
4662 1 20.8925 120.983 13.2685
11144 2 19.9831 119.406 14.5501
5839 1 21.8013 119.406 15.8375
4637 1 19.0732 120.983 15.8402
5841 1 1.79561 122.559 13.2702
12039 2 0.886168 124.137 14.5553
5532 1 2.70446 124.139 15.8427
5574 1 4.52376 124.135 13.2709
12038 2 3.61426 122.56 14.5546
5572 1 5.43255 122.561 15.842
5573 1 7.25184 122.559 13.2702
11724 2 6.34241 124.137 14.5553
11771 2 9.0705 122.56 14.5546
5246 1 8.1607 124.139 15.8427
5251 1 9.97999 124.135 13.2709
11445 2 11.7986 124.137 14.5553
5245 1 10.8888 122.561 15.842
4965 1 15.4362 124.135 13.2709
5299 1 12.7081 122.559 13.2702
11444 2 14.5267 122.56 14.5546
4922 1 13.6169 124.139 15.8427
4964 1 18.1643 122.559 13.2702
11114 2 17.2549 124.137 14.5553
4963 1 16.345 122.561 15.842
4639 1 20.8925 124.135 13.2709
11147 2 19.983 122.56 14.5546
5810 1 21.8013 122.561 15.842
4636 1 19.0732 124.139 15.8427
5812 1 1.79572 125.711 13.2706
12008 2 0.886384 127.291 14.5537
5531 1 2.70467 127.294 15.8411
12041 2 3.61437 125.714 14.555
5530 1 5.43266 125.717 15.8424
5536 1 4.52398 127.287 13.2693
5576 1 7.25196 125.711 13.2706
11722 2 9.07061 125.714 14.555
11723 2 6.34262 127.291 14.5537
5200 1 8.16091 127.294 15.8411
5248 1 10.8889 125.717 15.8424
5250 1 9.98022 127.287 13.2693
11399 2 11.7989 127.291 14.5537
5249 1 12.7082 125.711 13.2706
11447 2 14.5268 125.714 14.555
4926 1 15.4365 127.287 13.2693
4921 1 13.6171 127.294 15.8411
4967 1 18.1644 125.711 13.2706
4920 1 16.3451 125.717 15.8424
11113 2 17.2551 127.291 14.5537
11112 2 19.9831 125.714 14.555
5811 1 21.8014 125.717 15.8424
4638 1 20.8927 127.287 13.2693
4605 1 19.0734 127.294 15.8411
5813 1 1.79606 128.863 13.2669
12006 2 3.61469 128.868 14.5513
5533 1 5.43296 128.872 15.8387
5534 1 7.2523 128.863 13.2669
11725 2 9.07093 128.868 14.5513
5198 1 10.8892 128.872 15.8387
5252 1 12.7085 128.863 13.2669
11397 2 14.5272 128.868 14.5513
4924 1 18.1648 128.863 13.2669
4923 1 16.3454 128.872 15.8387
11115 2 19.9834 128.868 14.5513
5786 1 21.8017 128.872 15.8387
5788 1 1.79662 132.016 13.259
12007 2 0.886805 130.444 14.5479
5500 1 2.70507 130.449 15.8354
5535 1 4.52443 130.44 13.2635
12009 2 3.61521 132.021 14.5435
5498 1 5.43346 132.027 15.831
5537 1 7.25286 132.016 13.259
11682 2 9.07145 132.021 14.5435
11684 2 6.34304 130.444 14.5479
5199 1 8.16131 130.449 15.8354
5204 1 9.98067 130.44 13.2635
11398 2 11.7993 130.444 14.5479
5201 1 10.8897 132.027 15.831
4925 1 15.4369 130.44 13.2635
5202 1 12.7091 132.016 13.259
11400 2 14.5277 132.021 14.5435
4876 1 13.6175 130.449 15.8354
4927 1 18.1653 132.016 13.259
11075 2 17.2555 130.444 14.5479
4874 1 16.3459 132.027 15.831
4607 1 20.8931 130.44 13.2635
11073 2 19.9839 132.021 14.5435
5787 1 21.8022 132.027 15.831
4604 1 19.0738 130.449 15.8354
5789 1 1.79741 135.167 13.247
11984 2 0.887438 133.598 14.5381
5499 1 2.70567 133.605 15.8256
5504 1 4.5251 133.592 13.2536
11982 2 3.61596 135.175 14.5316
5501 1 5.43416 135.182 15.8191
5502 1 7.25365 135.167 13.247
11683 2 6.34368 133.598 14.5381
11685 2 9.07219 135.175 14.5316
5160 1 8.1619 133.605 15.8256
5203 1 9.98134 133.592 13.2536
11352 2 11.7999 133.598 14.5381
5158 1 10.8904 135.182 15.8191
4880 1 15.4376 133.592 13.2536
5205 1 12.7099 135.167 13.247
11350 2 14.5284 135.175 14.5316
4875 1 13.6181 133.605 15.8256
4878 1 18.1661 135.167 13.247
11074 2 17.2562 133.598 14.5381
4877 1 16.3466 135.182 15.8191
4606 1 20.8938 133.592 13.2536
11076 2 19.9847 135.175 14.5316
5770 1 21.8029 135.182 15.8191
4569 1 19.0744 133.605 15.8256
5772 1 1.79844 138.319 13.2309
11983 2 0.88829 136.751 14.5241
5476 1 2.70647 136.759 15.8117
5503 1 4.52601 136.743 13.2395
11985 2 3.61692 138.328 14.5156
5474 1 5.43507 138.337 15.8032
5505 1 7.25468 138.319 13.2309
11650 2 9.07316 138.328 14.5156
11652 2 6.34453 136.751 14.5241
5159 1 8.16271 136.759 15.8117
5164 1 9.98225 136.743 13.2395
11351 2 11.8008 136.751 14.5241
5161 1 10.8913 138.337 15.8032
4879 1 15.4385 136.743 13.2395
5162 1 12.7109 138.319 13.2309
11353 2 14.5294 138.328 14.5156
4831 1 13.6189 136.759 15.8117
4881 1 18.1672 138.319 13.2309
11035 2 17.257 136.751 14.5241
4829 1 16.3475 138.337 15.8032
4571 1 20.8947 136.743 13.2395
11033 2 19.9856 138.328 14.5156
5771 1 21.8038 138.337 15.8032
4568 1 19.0752 136.759 15.8117
5773 1 1.79972 141.471 13.2105
11968 2 0.889372 139.904 14.506
5475 1 2.70749 139.914 15.7937
5480 1 4.52717 139.895 13.2212
11966 2 3.61812 141.481 14.4954
5477 1 5.43621 141.491 15.7832
5478 1 7.25596 141.471 13.2105
11651 2 6.34561 139.904 14.506
11653 2 9.07436 141.481 14.4954
5128 1 8.16373 139.914 15.7937
5163 1 9.98341 139.895 13.2212
11312 2 11.8018 139.904 14.506
5126 1 10.8924 141.491 15.7832
4835 1 15.4396 139.895 13.2212
5165 1 12.7122 141.471 13.2105
11310 2 14.5306 141.481 14.4954
4830 1 13.62 139.914 15.7937
4833 1 18.1684 141.471 13.2105
11034 2 17.2581 139.904 14.506
4832 1 16.3487 141.491 15.7832
4570 1 20.8959 139.895 13.2212
11036 2 19.9868 141.481 14.4954
5762 1 21.8049 141.491 15.7832
4533 1 19.0762 139.914 15.7937
5764 1 1.80127 144.622 13.186
11967 2 0.890699 143.057 14.4838
5460 1 2.70875 143.068 15.7716
5479 1 4.52858 143.046 13.1988
11969 2 3.61958 144.633 14.4711
5458 1 5.43759 144.645 15.759
5481 1 7.25751 144.622 13.186
11626 2 9.07582 144.633 14.4711
11628 2 6.34694 143.057 14.4838
5127 1 8.16499 143.068 15.7716
5132 1 9.98482 143.046 13.1988
11311 2 11.8032 143.057 14.4838
5129 1 10.8938 144.645 15.759
4834 1 15.4411 143.046 13.1988
5130 1 12.7138 144.622 13.186
11313 2 14.5321 144.633 14.4711
4793 1 13.6212 143.068 15.7716
4836 1 18.17 144.622 13.186
10996 2 17.2594 143.057 14.4838
4791 1 16.3501 144.645 15.759
4535 1 20.8973 143.046 13.1988
10994 2 19.9883 144.633 14.4711
5763 1 21.8063 144.645 15.759
4532 1 19.0775 143.068 15.7716
5765 1 1.80311 147.773 13.1573
11960 2 0.89229 146.21 14.4574
5459 1 2.71027 146.222 15.7454
5464 1 4.53027 146.197 13.1722
11958 2 3.62131 147.786 14.4427
5461 1 5.43925 147.799 15.7308
5462 1 7.25935 147.773 13.1573
11627 2 6.34853 146.21 14.4574
11629 2 9.07755 147.786 14.4427
5104 1 8.1665 146.222 15.7454
5131 1 9.98651 146.197 13.1722
11280 2 11.8048 146.21 14.4574
5102 1 10.8955 147.799 15.7308
4797 1 15.4428 146.197 13.1722
5133 1 12.7156 147.773 13.1573
11278 2 14.5338 147.786 14.4427
4792 1 13.6227 146.222 15.7454
4795 1 18.1718 147.773 13.1573
10995 2 17.261 146.21 14.4574
4794 1 16.3517 147.799 15.7308
4534 1 20.899 146.197 13.1722
10997 2 19.99 147.786 14.4427
5761 1 21.808 147.799 15.7308
4498 1 19.079 146.222 15.7454
11959 2 0.894167 149.361 14.427
5449 1 2.71207 149.375 15.7152
1827 1 1.80525 150.923 13.1245
5463 1 4.53226 149.348 13.1414
7825 2 3.62334 150.937 14.4102
1585 1 5.4412 150.951 15.6986
11609 2 6.35041 149.361 14.427
5103 1 8.1683 149.375 15.7152
1616 1 7.26149 150.923 13.1245
7530 2 9.07958 150.937 14.4102
5105 1 9.9885 149.348 13.1414
11279 2 11.8066 149.361 14.427
1296 1 10.8974 150.951 15.6986
4796 1 15.4447 149.348 13.1414
4760 1 13.6245 149.375 15.7152
1297 1 12.7177 150.923 13.1245
7208 2 14.5358 150.937 14.4102
10961 2 17.2629 149.361 14.427
952 1 18.174 150.923 13.1245
937 1 16.3537 150.951 15.6986
4499 1 20.901 149.348 13.1414
4497 1 19.0808 149.375 15.7152
6841 2 19.9921 150.937 14.4102
1826 1 21.8099 150.951 15.6986
5646 1 0.888973 102.037 18.3133
12144 2 1.7984 103.623 17.0392
11849 2 4.52715 102.046 17.0255
5644 1 3.61652 103.615 18.3268
5362 1 6.34521 102.037 18.3133
11847 2 7.25464 103.623 17.0392
5363 1 9.07276 103.615 18.3268
11538 2 9.98339 102.046 17.0255
5014 1 11.8014 102.037 18.3133
11182 2 15.4396 102.046 17.0255
11539 2 12.7109 103.623 17.0392
5012 1 14.529 103.615 18.3268
4682 1 17.2577 102.037 18.3133
11180 2 18.1671 103.623 17.0392
10880 2 20.8959 102.046 17.0255
4683 1 19.9852 103.615 18.3268
5645 1 0.887888 105.194 18.3394
11848 2 4.52596 105.201 17.0518
5330 1 6.34413 105.194 18.3394
11514 2 9.9822 105.201 17.0518
5013 1 11.8004 105.194 18.3394
11181 2 15.4384 105.201 17.0518
4674 1 17.2566 105.194 18.3394
10879 2 20.8947 105.201 17.0518
12108 2 1.79734 106.779 17.0635
5607 1 0.887032 108.351 18.3616
11811 2 4.52501 108.357 17.0743
5647 1 3.61555 106.773 18.351
11850 2 7.25357 106.779 17.0635
5328 1 9.07179 106.773 18.351
5329 1 6.34327 108.351 18.3616
11513 2 9.98125 108.357 17.0743
4990 1 11.7995 108.351 18.3616
11166 2 15.4375 108.357 17.0743
11512 2 12.7098 106.779 17.0635
5015 1 14.528 106.773 18.351
11183 2 18.1661 106.779 17.0635
4673 1 17.2557 108.351 18.3616
10878 2 20.8937 108.357 17.0743
4672 1 19.9843 106.773 18.351
12109 2 1.7965 109.935 17.084
5606 1 0.88638 111.509 18.38
11810 2 4.52428 111.514 17.0927
5605 1 3.6148 109.93 18.3713
11809 2 7.25274 109.935 17.084
5290 1 6.34262 111.509 18.38
5331 1 9.07104 109.93 18.3713
11482 2 9.98052 111.514 17.0927
4989 1 11.7989 111.509 18.38
11165 2 15.4368 111.514 17.0927
11515 2 12.709 109.935 17.084
4988 1 14.5273 109.93 18.3713
11164 2 18.1652 109.935 17.084
4658 1 17.2551 111.509 18.38
10871 2 20.893 111.514 17.0927
4675 1 19.9835 109.93 18.3713
12072 2 1.79588 113.092 17.1005
5567 1 0.885912 114.667 18.3944
11766 2 4.52376 114.67 17.1072
5608 1 3.61424 113.088 18.3877
11812 2 7.25212 113.092 17.1005
5288 1 9.07048 113.088 18.3877
5289 1 6.34215 114.667 18.3944
11481 2 9.98 114.67 17.1072
4958 1 11.7984 114.667 18.3944
11142 2 15.4362 114.67 17.1072
11480 2 12.7084 113.092 17.1005
4991 1 14.5267 113.088 18.3877
11167 2 18.1646 113.092 17.1005
4657 1 17.2546 114.667 18.3944
10870 2 20.8925 114.67 17.1072
4656 1 19.983 113.088 18.3877
12073 2 1.79545 116.249 17.113
5566 1 0.885617 117.826 18.4048
11765 2 4.52343 117.827 17.1177
5565 1 3.61386 116.247 18.4001
11764 2 7.25169 116.249 17.113
5243 1 6.34186 117.826 18.4048
5291 1 9.0701 116.247 18.4001
11442 2 9.97966 117.827 17.1177
4957 1 11.7981 117.826 18.4048
11141 2 15.4359 117.827 17.1177
11483 2 12.7079 116.249 17.113
4956 1 14.5263 116.247 18.4001
11140 2 18.1642 116.249 17.113
4634 1 17.2543 117.826 18.4048
10855 2 20.8921 117.827 17.1177
4659 1 19.9826 116.247 18.4001
12036 2 1.79521 119.405 17.1214
5528 1 0.885484 120.984 18.4112
11720 2 4.52327 120.984 17.1242
5568 1 3.61365 119.405 18.4085
11767 2 7.25144 119.405 17.1214
5241 1 9.06989 119.405 18.4085
5242 1 6.34172 120.984 18.4112
11441 2 9.97951 120.984 17.1242
4918 1 11.798 120.984 18.4112
11110 2 15.4357 120.984 17.1242
11440 2 12.7077 119.405 17.1214
4959 1 14.5261 119.405 18.4085
11143 2 18.1639 119.405 17.1214
4633 1 17.2542 120.984 18.4112
10854 2 20.892 120.984 17.1242
4632 1 19.9824 119.405 18.4085
12037 2 1.79514 122.562 17.1259
5527 1 0.885511 124.143 18.4136
11719 2 4.52329 124.141 17.1266
5526 1 3.6136 122.563 18.4129
11718 2 7.25138 122.562 17.1259
5196 1 6.34175 124.143 18.4136
5244 1 9.06984 122.563 18.4129
11395 2 9.97953 124.141 17.1266
4917 1 11.798 124.143 18.4136
11109 2 15.4358 124.141 17.1266
11443 2 12.7076 122.562 17.1259
4916 1 14.5261 122.563 18.4129
11108 2 18.1639 122.562 17.1259
4602 1 17.2542 124.143 18.4136
10831 2 20.892 124.141 17.1266
4635 1 19.9823 122.563 18.4129
12004 2 1.79525 125.719 17.1263
5496 1 0.885694 127.301 18.4121
5529 1 3.6137 125.722 18.4134
11680 2 4.52349 127.298 17.125
11721 2 7.25149 125.719 17.1263
5194 1 9.06994 125.722 18.4134
5195 1 6.34193 127.301 18.4121
11394 2 9.97972 127.298 17.125
4872 1 11.7982 127.301 18.4121
11393 2 12.7077 125.719 17.1263
4919 1 14.5262 125.722 18.4134
11071 2 15.436 127.298 17.125
11111 2 18.164 125.719 17.1263
4601 1 17.2544 127.301 18.4121
4600 1 19.9824 125.722 18.4134
10830 2 20.8922 127.298 17.125
12005 2 1.79553 128.876 17.1227
5494 1 3.61396 128.88 18.4098
11678 2 7.25177 128.876 17.1227
5197 1 9.0702 128.88 18.4098
11396 2 12.708 128.876 17.1227
4870 1 14.5264 128.88 18.4098
11069 2 18.1642 128.876 17.1227
4603 1 19.9827 128.88 18.4098
11980 2 1.79599 132.033 17.115
5495 1 0.886035 130.459 18.4065
11679 2 4.52385 130.454 17.1193
5497 1 3.61439 132.038 18.4021
11681 2 7.25222 132.033 17.115
5154 1 9.07062 132.038 18.4021
5156 1 6.34227 130.459 18.4065
11348 2 9.98009 130.454 17.1193
4871 1 11.7985 130.459 18.4065
11070 2 15.4363 130.454 17.1193
11346 2 12.7085 132.033 17.115
4873 1 14.5269 132.038 18.4021
11072 2 18.1647 132.033 17.115
4566 1 17.2548 130.459 18.4065
10803 2 20.8926 130.454 17.1193
4564 1 19.9831 132.038 18.4021
11981 2 1.79663 135.189 17.1033
5472 1 0.886539 133.617 18.3968
11648 2 4.5244 133.611 17.1096
5470 1 3.61497 135.196 18.3905
11646 2 7.25287 135.189 17.1033
5155 1 6.34278 133.617 18.3968
5157 1 9.07121 135.196 18.3905
11347 2 9.98064 133.611 17.1096
4827 1 11.799 133.617 18.3968
11031 2 15.4369 133.611 17.1096
11349 2 12.7091 135.189 17.1033
4825 1 14.5274 135.196 18.3905
11029 2 18.1653 135.189 17.1033
4565 1 17.2553 133.617 18.3968
10802 2 20.8931 133.611 17.1096
4567 1 19.9837 135.196 18.3905
11964 2 1.79746 138.345 17.0875
5471 1 0.887213 136.775 18.3832
11647 2 4.52514 136.767 17.0959
5473 1 3.61574 138.354 18.3748
11649 2 7.2537 138.345 17.0875
5122 1 9.07197 138.354 18.3748
5124 1 6.34345 136.775 18.3832
11308 2 9.98138 136.767 17.0959
4826 1 11.7997 136.775 18.3832
11030 2 15.4376 136.767 17.0959
11306 2 12.7099 138.345 17.0875
4828 1 14.5282 138.354 18.3748
11032 2 18.1662 138.345 17.0875
4530 1 17.2559 136.775 18.3832
10775 2 20.8939 136.767 17.0959
4528 1 19.9845 138.354 18.3748
11965 2 1.7985 141.501 17.0676
5456 1 0.888069 139.933 18.3655
11624 2 4.52607 139.923 17.078
5454 1 3.61669 141.512 18.3551
11622 2 7.25474 141.501 17.0676
5123 1 6.34431 139.933 18.3655
5125 1 9.07293 141.512 18.3551
11307 2 9.98231 139.923 17.078
4789 1 11.8005 139.933 18.3655
10992 2 15.4385 139.923 17.078
11309 2 12.711 141.501 17.0676
4787 1 14.5292 141.512 18.3551
10990 2 18.1672 141.501 17.0676
4529 1 17.2568 139.933 18.3655
10774 2 20.8948 139.923 17.078
4531 1 19.9854 141.512 18.3551
11956 2 1.79977 144.657 17.0437
5455 1 0.889126 143.09 18.3438
11623 2 4.52722 143.079 17.0562
5457 1 3.61786 144.668 18.3314
11625 2 7.25601 144.657 17.0437
5098 1 9.07409 144.668 18.3314
5100 1 6.34536 143.09 18.3438
11276 2 9.98346 143.079 17.0562
4788 1 11.8016 143.09 18.3438
10991 2 15.4397 143.079 17.0562
11274 2 12.7122 144.657 17.0437
4790 1 14.5303 144.668 18.3314
10993 2 18.1685 144.657 17.0437
4495 1 17.2578 143.09 18.3438
10747 2 20.8959 143.079 17.0562
4493 1 19.9866 144.668 18.3314
11957 2 1.80129 147.811 17.0158
5448 1 0.890407 146.247 18.3181
11608 2 4.52861 146.234 17.0303
5446 1 3.61926 147.824 18.3038
11606 2 7.25752 147.811 17.0158
5099 1 6.34665 146.247 18.3181
5101 1 9.0755 147.824 18.3038
11275 2 9.98485 146.234 17.0303
4759 1 11.8029 146.247 18.3181
10960 2 15.4411 146.234 17.0303
11277 2 12.7138 147.811 17.0158
4757 1 14.5317 147.824 18.3038
10958 2 18.17 147.811 17.0158
4494 1 17.2591 146.247 18.3181
10746 2 20.8973 146.234 17.0303
4496 1 19.988 147.824 18.3038
5447 1 0.891946 149.402 18.2885
7791 2 1.80309 150.965 16.984
11607 2 4.53027 149.388 17.0004
1584 1 3.62094 150.98 18.2722
5081 1 6.34818 149.402 18.2885
7529 2 7.25933 150.965 16.984
1265 1 9.07718 150.98 18.2722
11249 2 9.98651 149.388 17.0004
4758 1 11.8044 149.402 18.2885
10959 2 15.4427 149.388 17.0004
7185 2 12.7156 150.965 16.984
936 1 14.5334 150.98 18.2722
4464 1 17.2607 149.402 18.2885
6840 2 18.1718 150.965 16.984
10719 2 20.899 149.388 17.0004
585 1 19.9897 150.98 18.2722
11845 2 2.70748 102.029 19.5978
5643 1 1.79708 103.6 20.8986
5326 1 4.52563 102.02 20.8853
11846 2 5.4351 103.608 19.6112
11510 2 8.16372 102.029 19.5978
5324 1 7.25332 103.6 20.8986
5010 1 9.98187 102.02 20.8853
11508 2 10.8913 103.608 19.6112
4670 1 15.4381 102.02 20.8853
11178 2 13.62 102.029 19.5978
5011 1 12.7096 103.6 20.8986
4668 1 18.1658 103.6 20.8986
11179 2 16.3476 103.608 19.6112
4400 1 20.8943 102.02 20.8853
10877 2 19.0762 102.029 19.5978
12106 2 21.8038 103.608 19.6112
11807 2 2.70653 105.187 19.6237
5325 1 4.52482 105.18 20.9109
11509 2 8.16277 105.187 19.6237
4986 1 9.98105 105.18 20.9109
4669 1 15.4373 105.18 20.9109
11162 2 13.619 105.187 19.6237
4399 1 20.8935 105.18 20.9109
10876 2 19.0752 105.187 19.6237
5603 1 1.79636 106.76 20.9223
11806 2 2.7058 108.346 19.6457
5286 1 4.52419 108.34 20.9327
11805 2 5.43426 106.766 19.6351
5327 1 7.2526 106.76 20.9223
11478 2 8.16203 108.346 19.6457
4985 1 9.98043 108.34 20.9327
11511 2 10.8905 106.766 19.6351
4654 1 15.4367 108.34 20.9327
4984 1 12.7088 106.76 20.9223
11161 2 13.6183 108.346 19.6457
4671 1 18.1651 106.76 20.9223
11160 2 16.3467 106.766 19.6351
12107 2 21.803 106.766 19.6351
4398 1 20.8929 108.34 20.9327
10869 2 19.0745 108.346 19.6457
5604 1 1.79582 109.921 20.9422
11762 2 2.70524 111.505 19.6638
5285 1 4.52372 111.501 20.9507
11808 2 5.43361 109.925 19.6552
5284 1 7.25206 109.921 20.9422
11477 2 8.16148 111.505 19.6638
4954 1 9.97996 111.501 20.9507
11476 2 10.8899 109.925 19.6552
4653 1 15.4362 111.501 20.9507
4987 1 12.7083 109.921 20.9422
11138 2 13.6177 111.505 19.6638
4652 1 18.1645 109.921 20.9422
11163 2 16.3461 109.925 19.6552
12070 2 21.8023 109.925 19.6552
4391 1 20.8924 111.501 20.9507
10868 2 19.074 111.505 19.6638
5563 1 1.79542 113.082 20.9583
11761 2 2.70484 114.665 19.6781
5239 1 4.52339 114.662 20.9648
11760 2 5.43314 113.085 19.6714
5287 1 7.25166 113.082 20.9583
11438 2 8.16108 114.665 19.6781
4953 1 9.97963 114.662 20.9648
11479 2 10.8894 113.085 19.6714
4630 1 15.4359 114.662 20.9648
4952 1 12.7079 113.082 20.9583
11137 2 13.6173 114.665 19.6781
4655 1 18.1641 113.082 20.9583
11136 2 16.3456 113.085 19.6714
12071 2 21.8019 113.085 19.6714
4390 1 20.8921 114.662 20.9648
10853 2 19.0736 114.665 19.6781
5564 1 1.79516 116.243 20.9705
11716 2 2.7046 117.825 19.6884
5238 1 4.52319 117.823 20.9751
11763 2 5.43282 116.245 19.6837
5237 1 7.2514 116.243 20.9705
11437 2 8.16083 117.825 19.6884
4914 1 9.97943 117.823 20.9751
11436 2 10.8891 116.245 19.6837
4629 1 15.4357 117.823 20.9751
4955 1 12.7076 116.243 20.9705
11106 2 13.6171 117.825 19.6884
4628 1 18.1639 116.243 20.9705
11139 2 16.3453 116.245 19.6837
12034 2 21.8015 116.245 19.6837
4375 1 20.8919 117.823 20.9751
10852 2 19.0733 117.825 19.6884
5524 1 1.79502 119.404 20.9788
11715 2 2.70449 120.985 19.6948
5192 1 4.52312 120.985 20.9814
11714 2 5.43265 119.405 19.6921
5240 1 7.25126 119.404 20.9788
11391 2 8.16073 120.985 19.6948
4913 1 9.97935 120.985 20.9814
11439 2 10.8889 119.405 19.6921
4598 1 15.4356 120.985 20.9814
4912 1 12.7075 119.404 20.9788
11105 2 13.617 120.985 19.6948
4631 1 18.1637 119.404 20.9788
11104 2 16.3451 119.405 19.6921
12035 2 21.8014 119.405 19.6921
4374 1 20.8918 120.985 20.9814
10829 2 19.0732 120.985 19.6948
5525 1 1.795 122.566 20.9831
11676 2 2.70453 124.144 19.6972
5191 1 4.52316 124.146 20.9838
11717 2 5.43261 122.564 19.6965
5190 1 7.25124 122.566 20.9831
11390 2 8.16076 124.144 19.6972
4868 1 9.9794 124.146 20.9838
11389 2 10.8888 122.564 19.6965
4597 1 15.4356 124.146 20.9838
4915 1 12.7075 122.566 20.9831
11067 2 13.617 124.144 19.6972
4596 1 18.1637 122.566 20.9831
11107 2 16.3451 122.564 19.6965
12002 2 21.8013 122.564 19.6965
4352 1 20.8919 124.146 20.9838
10828 2 19.0732 124.144 19.6972
5492 1 1.7951 125.727 20.9836
11675 2 2.7047 127.304 19.6956
11674 2 5.43271 125.724 19.6969
5152 1 4.52332 127.308 20.9823
5193 1 7.25134 125.727 20.9836
11344 2 8.16093 127.304 19.6956
11392 2 10.889 125.724 19.6969
4867 1 9.97955 127.308 20.9823
4866 1 12.7076 125.727 20.9836
4562 1 15.4358 127.308 20.9823
11066 2 13.6172 127.304 19.6956
4599 1 18.1638 125.727 20.9836
11065 2 16.3452 125.724 19.6969
12003 2 21.8014 125.724 19.6969
4351 1 20.892 127.308 20.9823
10801 2 19.0734 127.304 19.6956
5493 1 1.79532 128.889 20.98
11677 2 5.43295 128.884 19.6933
5150 1 7.25156 128.889 20.98
11342 2 10.8892 128.884 19.6933
4869 1 12.7078 128.889 20.98
4560 1 18.164 128.889 20.98
11068 2 16.3454 128.884 19.6933
11978 2 21.8017 128.884 19.6933
5468 1 1.79565 132.05 20.9725
11644 2 2.705 130.464 19.69
5151 1 4.52359 130.469 20.9768
11642 2 5.43333 132.044 19.6858
5153 1 7.25189 132.05 20.9725
11343 2 8.16124 130.464 19.69
4823 1 9.97983 130.469 20.9768
11345 2 10.8896 132.044 19.6858
4561 1 15.4361 130.469 20.9768
4821 1 12.7081 132.05 20.9725
11027 2 13.6175 130.464 19.69
4563 1 18.1644 132.05 20.9725
11025 2 16.3458 132.044 19.6858
11979 2 21.802 132.044 19.6858
4328 1 20.8923 130.469 20.9768
10800 2 19.0737 130.464 19.69
5469 1 1.79611 135.211 20.9611
11643 2 2.70545 133.624 19.6805
5120 1 4.52399 133.63 20.9673
11645 2 5.43385 135.204 19.6742
5118 1 7.25235 135.211 20.9611
11304 2 8.16169 133.624 19.6805
4822 1 9.98023 133.63 20.9673
11302 2 10.8901 135.204 19.6742
4526 1 15.4365 133.63 20.9673
4824 1 12.7086 135.211 20.9611
11026 2 13.6179 133.624 19.6805
4524 1 18.1648 135.211 20.9611
11028 2 16.3463 135.204 19.6742
11962 2 21.8026 135.204 19.6742
4327 1 20.8927 133.63 20.9673
10773 2 19.0742 133.624 19.6805
5452 1 1.79671 138.372 20.9457
11620 2 2.70605 136.783 19.667
5119 1 4.52451 136.791 20.9539
11618 2 5.43453 138.363 19.6587
5121 1 7.25294 138.372 20.9457
11303 2 8.16229 136.783 19.667
4785 1 9.98075 136.791 20.9539
11305 2 10.8908 138.363 19.6587
4525 1 15.437 136.791 20.9539
4783 1 12.7092 138.372 20.9457
10988 2 13.6185 136.783 19.667
4527 1 18.1654 138.372 20.9457
10986 2 16.347 138.363 19.6587
11963 2 21.8032 138.363 19.6587
4304 1 20.8932 136.791 20.9539
10772 2 19.0748 136.783 19.667
5453 1 1.79744 141.532 20.9264
11619 2 2.70681 139.942 19.6495
5096 1 4.52518 139.952 20.9366
11621 2 5.43537 141.522 19.6392
5094 1 7.25368 141.532 20.9264
11272 2 8.16305 139.942 19.6495
4784 1 9.98141 139.952 20.9366
11270 2 10.8916 141.522 19.6392
4491 1 15.4377 139.952 20.9366
4786 1 12.7099 141.532 20.9264
10987 2 13.6193 139.942 19.6495
4489 1 18.1662 141.532 20.9264
10989 2 16.3478 141.522 19.6392
11954 2 21.8041 141.522 19.6392
4303 1 20.8939 139.952 20.9366
10745 2 19.0755 139.942 19.6495
5444 1 1.79835 144.692 20.9033
11604 2 2.70774 143.101 19.628
5095 1 4.52599 143.112 20.9153
11602 2 5.4364 144.68 19.6158
5097 1 7.25459 144.692 20.9033
11271 2 8.16398 143.101 19.628
4755 1 9.98223 143.112 20.9153
11273 2 10.8926 144.68 19.6158
4490 1 15.4385 143.112 20.9153
4753 1 12.7108 144.692 20.9033
10956 2 13.6202 143.101 19.628
4492 1 18.1671 144.692 20.9033
10954 2 16.3489 144.68 19.6158
11955 2 21.8051 144.68 19.6158
4280 1 20.8947 143.112 20.9153
10744 2 19.0765 143.101 19.628
5445 1 1.79945 147.851 20.8762
11603 2 2.70888 146.259 19.6027
5080 1 4.52699 146.271 20.8902
11605 2 5.43765 147.837 19.5885
5078 1 7.25569 147.851 20.8762
11248 2 8.16512 146.259 19.6027
4754 1 9.98323 146.271 20.8902
11246 2 10.8939 147.837 19.5885
4463 1 15.4395 146.271 20.8902
4756 1 12.7119 147.851 20.8762
10955 2 13.6214 146.259 19.6027
4461 1 18.1682 147.851 20.8762
10957 2 16.3501 147.837 19.5885
11953 2 21.8064 147.837 19.5885
4279 1 20.8957 146.271 20.8902
10718 2 19.0776 146.259 19.6027
11593 2 2.71025 149.416 19.5734
1546 1 1.80079 151.009 20.8454
5079 1 4.52821 149.43 20.8613
7492 2 5.43915 150.994 19.5573
11247 2 8.16649 149.416 19.5734
1264 1 7.25703 151.009 20.8454
4730 1 9.98445 149.43 20.8613
7184 2 10.8954 150.994 19.5573
4462 1 15.4407 149.43 20.8613
10929 2 13.6227 149.416 19.5734
913 1 12.7133 151.009 20.8454
584 1 18.1695 151.009 20.8454
6825 2 16.3516 150.994 19.5573
4256 1 20.8969 149.43 20.8613
10717 2 19.079 149.416 19.5734
7790 2 21.8079 150.994 19.5573
5322 1 2.70633 102.003 23.4567
11803 2 0.888062 102.012 22.1696
5323 1 5.43418 103.584 23.4697
11801 2 3.61583 103.592 22.1827
4982 1 8.16257 102.003 23.4567
11506 2 6.3443 102.012 22.1696
11507 2 9.07207 103.592 22.1827
11158 2 11.8005 102.012 22.1696
4980 1 10.8904 103.584 23.4697
4666 1 13.6188 102.003 23.4567
11156 2 14.5283 103.592 22.1827
10874 2 17.2568 102.012 22.1696
4667 1 16.3467 103.584 23.4697
4397 1 19.075 102.003 23.4567
5601 1 21.8029 103.584 23.4697
10875 2 19.9845 103.592 22.1827
5282 1 2.70583 105.166 23.4817
11802 2 0.887401 105.173 22.1948
4981 1 8.16207 105.166 23.4817
11474 2 6.34364 105.173 22.1948
11157 2 11.7999 105.173 22.1948
4650 1 13.6183 105.166 23.4817
10866 2 17.2561 105.173 22.1948
4396 1 19.0745 105.166 23.4817
5281 1 2.70545 108.329 23.503
11758 2 0.886898 108.335 22.2164
5280 1 5.43374 106.747 23.4928
11804 2 3.61525 106.754 22.2061
4950 1 8.16169 108.329 23.503
11472 2 9.07149 106.754 22.2061
11473 2 6.34314 108.335 22.2164
4983 1 10.89 106.747 23.4928
11134 2 11.7994 108.335 22.2164
4649 1 13.6179 108.329 23.503
11159 2 14.5277 106.754 22.2061
4648 1 16.3462 106.747 23.4928
10865 2 17.2556 108.335 22.2164
5602 1 21.8025 106.747 23.4928
4389 1 19.0742 108.329 23.503
10864 2 19.984 106.754 22.2061
5235 1 2.70518 111.493 23.5207
11757 2 0.886529 111.497 22.2342
5283 1 5.43342 109.911 23.5123
11756 2 3.61482 109.916 22.2258
4949 1 8.16142 111.493 23.5207
11434 2 6.34277 111.497 22.2342
11475 2 9.07106 109.916 22.2258
4948 1 10.8897 109.911 23.5123
11133 2 11.799 111.497 22.2342
4626 1 13.6177 111.493 23.5207
11132 2 14.5273 109.916 22.2258
4651 1 16.3459 109.911 23.5123
10850 2 17.2552 111.497 22.2342
5561 1 21.8021 109.911 23.5123
4388 1 19.0739 111.493 23.5207
10867 2 19.9835 109.916 22.2258
5234 1 2.705 114.657 23.5346
11712 2 0.886276 114.659 22.2482
5233 1 5.4332 113.075 23.5281
11759 2 3.61451 113.078 22.2417
4910 1 8.16124 114.657 23.5346
11432 2 9.07075 113.078 22.2417
11433 2 6.34251 114.659 22.2482
4951 1 10.8894 113.075 23.5281
11102 2 11.7988 114.659 22.2482
4625 1 13.6175 114.657 23.5346
11135 2 14.527 113.078 22.2417
4624 1 16.3457 113.075 23.5281
10849 2 17.255 114.659 22.2482
5562 1 21.8019 113.075 23.5281
4373 1 19.0737 114.657 23.5346
10848 2 19.9832 113.078 22.2417
5188 1 2.70491 117.821 23.5447
11711 2 0.88613 117.822 22.2583
5236 1 5.43306 116.239 23.5401
11710 2 3.61431 116.241 22.2537
4909 1 8.16115 117.821 23.5447
11387 2 6.34237 117.822 22.2583
11435 2 9.07055 116.241 22.2537
4908 1 10.8893 116.239 23.5401
11101 2 11.7986 117.822 22.2583
4594 1 13.6174 117.821 23.5447
11100 2 14.5268 116.241 22.2537
4627 1 16.3455 116.239 23.5401
10826 2 17.2548 117.822 22.2583
5522 1 21.8018 116.239 23.5401
4372 1 19.0736 117.821 23.5447
10851 2 19.983 116.241 22.2537
5187 1 2.70489 120.986 23.5509
11672 2 0.886083 120.985 22.2646
5186 1 5.43301 119.403 23.5483
11713 2 3.61421 119.404 22.262
4864 1 8.16113 120.986 23.5509
11385 2 9.07045 119.404 22.262
11386 2 6.34232 120.985 22.2646
4911 1 10.8892 119.403 23.5483
11063 2 11.7986 120.985 22.2646
4593 1 13.6174 120.986 23.5509
11103 2 14.5267 119.404 22.262
4592 1 16.3455 119.403 23.5483
10825 2 17.2548 120.985 22.2646
5523 1 21.8017 119.403 23.5483
4350 1 19.0736 120.986 23.5509
10824 2 19.9829 119.404 22.262
5148 1 2.70495 124.15 23.5533
11671 2 0.886132 124.148 22.267
5189 1 5.43303 122.568 23.5526
11670 2 3.61421 122.567 22.2663
4863 1 8.16119 124.15 23.5533
11340 2 6.34237 124.148 22.267
11388 2 9.07045 122.567 22.2663
4862 1 10.8893 122.568 23.5526
11062 2 11.7986 124.148 22.267
4558 1 13.6174 124.15 23.5533
11061 2 14.5267 122.567 22.2663
4595 1 16.3455 122.568 23.5526
10798 2 17.2548 124.148 22.267
5490 1 21.8017 122.568 23.5526
4349 1 19.0737 124.15 23.5533
10827 2 19.9829 122.567 22.2663
5147 1 2.70508 127.315 23.5518
11640 2 0.886277 127.311 22.2655
5146 1 5.43312 125.732 23.553
11673 2 3.61431 125.73 22.2667
11338 2 9.07055 125.73 22.2667
4819 1 8.16132 127.315 23.5518
11339 2 6.34252 127.311 22.2655
4865 1 10.8894 125.732 23.553
11023 2 11.7988 127.311 22.2655
11064 2 14.5268 125.73 22.2667
4557 1 13.6176 127.315 23.5518
4556 1 16.3456 125.732 23.553
10797 2 17.255 127.311 22.2655
5491 1 21.8018 125.732 23.553
10796 2 19.983 125.73 22.2667
4326 1 19.0738 127.315 23.5518
5149 1 5.43329 128.897 23.5495
11638 2 3.6145 128.893 22.2632
11341 2 9.07074 128.893 22.2632
4817 1 10.8895 128.897 23.5495
11021 2 14.527 128.893 22.2632
4559 1 16.3458 128.897 23.5495
5466 1 21.802 128.897 23.5495
10799 2 19.9832 128.893 22.2632
5116 1 2.70529 130.479 23.5464
11639 2 0.886518 130.474 22.26
5114 1 5.43354 132.061 23.5422
11641 2 3.61479 132.055 22.2558
4818 1 8.16152 130.479 23.5464
11298 2 9.07103 132.055 22.2558
11300 2 6.34276 130.474 22.26
4820 1 10.8898 132.061 23.5422
11022 2 11.799 130.474 22.26
4522 1 13.6178 130.479 23.5464
11024 2 14.5273 132.055 22.2558
4520 1 16.346 132.061 23.5422
10770 2 17.2552 130.474 22.26
5467 1 21.8023 132.061 23.5422
4325 1 19.074 130.479 23.5464
10768 2 19.9835 132.055 22.2558
5115 1 2.70557 133.643 23.5371
11616 2 0.886857 133.637 22.2506
5117 1 5.43386 135.225 23.531
11614 2 3.61518 135.218 22.2445
4781 1 8.16181 133.643 23.5371
11299 2 6.3431 133.637 22.2506
11301 2 9.07142 135.218 22.2445
4779 1 10.8901 135.225 23.531
10984 2 11.7993 133.637 22.2506
4521 1 13.618 133.643 23.5371
10982 2 14.5277 135.218 22.2445
4523 1 16.3463 135.225 23.531
10769 2 17.2556 133.637 22.2506
5450 1 21.8026 135.225 23.531
4302 1 19.0743 133.643 23.5371
10771 2 19.9839 135.218 22.2445
5092 1 2.70593 136.807 23.5239
11615 2 0.8873 136.799 22.2374
5090 1 5.43426 138.389 23.5159
11617 2 3.61568 138.38 22.2293
4780 1 8.16217 136.807 23.5239
11266 2 9.07192 138.38 22.2293
11268 2 6.34354 136.799 22.2374
4782 1 10.8905 138.389 23.5159
10983 2 11.7998 136.799 22.2374
4487 1 13.6184 136.807 23.5239
10985 2 14.5282 138.38 22.2293
4485 1 16.3467 138.389 23.5159
10742 2 17.256 136.799 22.2374
5451 1 21.803 138.389 23.5159
4301 1 19.0746 136.807 23.5239
10740 2 19.9844 138.38 22.2293
5091 1 2.70638 139.971 23.507
11600 2 0.887858 139.961 22.2202
5093 1 5.43477 141.552 23.497
11598 2 3.6163 141.542 22.2102
4751 1 8.16262 139.971 23.507
11267 2 6.3441 139.961 22.2202
11269 2 9.07254 141.542 22.2102
4749 1 10.891 141.552 23.497
10952 2 11.8003 139.961 22.2202
4486 1 13.6189 139.971 23.507
10950 2 14.5288 141.542 22.2102
4488 1 16.3472 141.552 23.497
10741 2 17.2566 139.961 22.2202
5442 1 21.8035 141.552 23.497
4278 1 19.0751 139.971 23.507
10743 2 19.985 141.542 22.2102
5076 1 2.70694 143.134 23.4862
11599 2 0.888546 143.123 22.1992
5074 1 5.43538 144.715 23.4744
11601 2 3.61706 144.703 22.1873
4750 1 8.16318 143.134 23.4862
11242 2 9.0733 144.703 22.1873
11244 2 6.34478 143.123 22.1992
4752 1 10.8916 144.715 23.4744
10951 2 11.801 143.123 22.1992
4459 1 13.6194 143.134 23.4862
10953 2 14.5295 144.703 22.1873
4457 1 16.3479 144.715 23.4744
10715 2 17.2573 143.123 22.1992
5443 1 21.8041 144.715 23.4744
4277 1 19.0757 143.134 23.4862
10713 2 19.9858 144.703 22.1873
5075 1 2.70762 146.296 23.4617
11592 2 0.889387 146.284 22.1744
5077 1 5.43614 147.877 23.448
11590 2 3.618 147.864 22.1606
4729 1 8.16386 146.296 23.4617
11243 2 6.34563 146.284 22.1744
11245 2 9.07423 147.864 22.1606
4727 1 10.8924 147.877 23.448
10928 2 11.8019 146.284 22.1744
4458 1 13.6201 146.296 23.4617
10926 2 14.5305 147.864 22.1606
4460 1 16.3486 147.877 23.448
10714 2 17.2581 146.284 22.1744
5441 1 21.8049 147.877 23.448
4255 1 19.0763 146.296 23.4617
10716 2 19.9867 147.864 22.1606
5065 1 2.70847 149.458 23.4334
11591 2 0.890417 149.443 22.1459
1225 1 5.43709 151.038 23.418
7491 2 3.61914 151.023 22.1302
4728 1 8.16471 149.458 23.4334
11225 2 6.34666 149.443 22.1459
7153 2 9.07538 151.023 22.1302
10927 2 11.8029 149.443 22.1459
912 1 10.8933 151.038 23.418
4436 1 13.6209 149.458 23.4334
6824 2 14.5316 151.023 22.1302
10692 2 17.2591 149.443 22.1459
569 1 16.3496 151.038 23.418
4254 1 19.0772 149.458 23.4334
1545 1 21.8058 151.038 23.418
6521 2 19.9879 151.023 22.1302
11800 2 1.7969 103.576 24.7533
5278 1 0.887414 101.986 26.0273
11466 2 2.70655 101.977 27.3107
11470 2 4.52521 101.994 24.7406
11467 2 5.43464 103.56 27.3232
5276 1 3.61543 103.568 26.0399
11468 2 7.25314 103.576 24.7533
4978 1 6.34365 101.986 26.0273
11126 2 8.16278 101.977 27.3107
4979 1 9.07167 103.568 26.0399
11154 2 9.98145 101.994 24.7406
4646 1 11.7999 101.986 26.0273
11124 2 10.8909 103.56 27.3232
10862 2 15.4377 101.994 24.7406
11155 2 12.7094 103.576 24.7533
10858 2 13.619 101.977 27.3107
4644 1 14.5279 103.568 26.0399
10860 2 18.1656 103.576 24.7533
4394 1 17.2561 101.986 26.0273
10859 2 16.3471 103.56 27.3232
10656 2 20.8939 101.994 24.7406
10653 2 19.0753 101.977 27.3107
11752 2 21.8034 103.56 27.3232
4395 1 19.9841 103.568 26.0399
5277 1 0.887225 105.151 26.0517
11426 2 2.70651 105.144 27.3348
11469 2 4.52486 105.158 24.7652
4946 1 6.34346 105.151 26.0517
11125 2 8.16274 105.144 27.3348
11130 2 9.9811 105.158 24.7652
4645 1 11.7997 105.151 26.0517
10861 2 15.4373 105.158 24.7652
10842 2 13.619 105.144 27.3348
4386 1 17.2559 105.151 26.0517
10655 2 20.8936 105.158 24.7652
10652 2 19.0752 105.144 27.3348
11754 2 1.7966 106.741 24.7762
5231 1 0.887108 108.318 26.0726
11425 2 2.70651 108.312 27.3555
5279 1 3.61528 106.734 26.0626
11430 2 4.52461 108.323 24.7863
11424 2 5.43462 106.728 27.3456
11471 2 7.25284 106.741 24.7762
4944 1 9.07152 106.734 26.0626
4945 1 6.34335 108.318 26.0726
11094 2 8.16275 108.312 27.3555
4622 1 11.7996 108.318 26.0726
11129 2 9.98085 108.323 24.7863
11127 2 10.8909 106.728 27.3456
11128 2 12.7091 106.741 24.7762
4647 1 14.5278 106.734 26.0626
10846 2 15.4371 108.323 24.7863
10841 2 13.619 108.312 27.3555
10863 2 18.1653 106.741 24.7762
4385 1 17.2558 108.318 26.0726
10840 2 16.3471 106.728 27.3456
4384 1 19.984 106.734 26.0626
10654 2 20.8933 108.323 24.7863
11753 2 21.8033 106.728 27.3456
10645 2 19.0752 108.312 27.3555
5230 1 0.887044 111.484 26.0899
11755 2 1.7964 109.906 24.7955
11379 2 2.70654 111.48 27.3726
5229 1 3.61519 109.901 26.0817
11429 2 4.52444 111.489 24.8038
11427 2 5.43464 109.896 27.3645
4906 1 6.34328 111.484 26.0899
4947 1 9.07143 109.901 26.0817
11428 2 7.25263 109.906 24.7955
11093 2 8.16278 111.48 27.3726
4621 1 11.7995 111.484 26.0899
11098 2 9.98068 111.489 24.8038
11092 2 10.8909 109.896 27.3645
4620 1 14.5277 109.901 26.0817
10845 2 15.4369 111.489 24.8038
11131 2 12.7089 109.906 24.7955
10818 2 13.619 111.48 27.3726
4370 1 17.2558 111.484 26.0899
10844 2 18.1651 109.906 24.7955
10843 2 16.3471 109.896 27.3645
4387 1 19.9839 109.901 26.0817
10647 2 20.8932 111.489 24.8038
11706 2 21.8034 109.896 27.3645
10644 2 19.0753 111.48 27.3726
5184 1 0.88702 114.652 26.1035
11708 2 1.79626 113.071 24.8111
11378 2 2.70659 114.649 27.3861
5232 1 3.61515 113.068 26.0972
11383 2 4.52434 114.654 24.8176
11377 2 5.43468 113.065 27.3798
4904 1 9.07139 113.068 26.0972
4905 1 6.34326 114.652 26.1035
11431 2 7.2525 113.071 24.8111
11055 2 8.16282 114.649 27.3861
4590 1 11.7995 114.652 26.1035
11097 2 9.98058 114.654 24.8176
11095 2 10.8909 113.065 27.3798
4623 1 14.5276 113.068 26.0972
10822 2 15.4368 114.654 24.8176
11096 2 12.7087 113.071 24.8111
10817 2 13.6191 114.649 27.3861
4369 1 17.2557 114.652 26.1035
10847 2 18.165 113.071 24.8111
10816 2 16.3472 113.065 27.3798
4368 1 19.9839 113.068 26.0972
10646 2 20.8931 114.654 24.8176
11707 2 21.8034 113.065 27.3798
10630 2 19.0753 114.649 27.3861
5183 1 0.887032 117.819 26.1134
11709 2 1.79619 116.237 24.823
5182 1 3.61514 116.235 26.109
11382 2 4.52429 117.82 24.8275
4860 1 6.34327 117.819 26.1134
4907 1 9.07138 116.235 26.109
11381 2 7.25243 116.237 24.823
4589 1 11.7995 117.819 26.1134
11059 2 9.98053 117.82 24.8275
4588 1 14.5276 116.235 26.109
10821 2 15.4368 117.82 24.8275
11099 2 12.7087 116.237 24.823
4347 1 17.2557 117.819 26.1134
10820 2 18.1649 116.237 24.823
4371 1 19.9839 116.235 26.109
10632 2 20.893 117.82 24.8275
5144 1 0.887075 120.986 26.1196
11668 2 1.79618 119.403 24.8311
5185 1 3.61517 119.403 26.117
11336 2 4.52431 120.986 24.8337
4858 1 9.07141 119.403 26.117
4859 1 6.34331 120.986 26.1196
11384 2 7.25241 119.403 24.8311
4554 1 11.7996 120.986 26.1196
11058 2 9.98055 120.986 24.8337
4591 1 14.5276 119.403 26.117
10794 2 15.4368 120.986 24.8337
11057 2 12.7087 119.403 24.8311
4346 1 17.2558 120.986 26.1196
10823 2 18.1649 119.403 24.8311
4345 1 19.9839 119.403 26.117
10631 2 20.893 120.986 24.8337
5143 1 0.887149 124.154 26.1219
11669 2 1.79621 122.569 24.8354
5142 1 3.61523 122.57 26.1212
11335 2 4.52437 124.152 24.8361
4815 1 6.34339 124.154 26.1219
4861 1 9.07147 122.57 26.1212
11334 2 7.25245 122.569 24.8354
4553 1 11.7996 124.154 26.1219
11019 2 9.98061 124.152 24.8361
4552 1 14.5277 122.57 26.1212
10793 2 15.4369 124.152 24.8361
11060 2 12.7087 122.569 24.8354
4323 1 17.2559 124.154 26.1219
10792 2 18.1649 122.569 24.8354
4348 1 19.9839 122.57 26.1212
10616 2 20.8931 124.152 24.8361
11636 2 1.79631 125.735 24.8358
5112 1 0.887253 127.322 26.1204
5145 1 3.61532 125.738 26.1217
11296 2 4.52449 127.318 24.8346
4813 1 9.07156 125.738 26.1217
11337 2 7.25255 125.735 24.8358
4814 1 6.34349 127.322 26.1204
4518 1 11.7997 127.322 26.1204
11018 2 9.98073 127.318 24.8346
4555 1 14.5278 125.738 26.1217
11017 2 12.7088 125.735 24.8358
10766 2 15.437 127.318 24.8346
10795 2 18.165 125.735 24.8358
4322 1 17.256 127.322 26.1204
4321 1 19.984 125.738 26.1217
10615 2 20.8932 127.318 24.8346
11637 2 1.79645 128.901 24.8324
5110 1 3.61544 128.905 26.1183
4816 1 9.07167 128.905 26.1183
11294 2 7.25269 128.901 24.8324
4516 1 14.5279 128.905 26.1183
11020 2 12.7089 128.901 24.8324
10764 2 18.1652 128.901 24.8324
4324 1 19.9842 128.905 26.1183
5111 1 0.887388 130.489 26.1152
11612 2 1.79665 132.067 24.8251
5113 1 3.61559 132.073 26.1111
11295 2 4.52466 130.484 24.8292
4775 1 9.07182 132.073 26.1111
4777 1 6.34363 130.489 26.1152
11297 2 7.25289 132.067 24.8251
4517 1 11.7999 130.489 26.1152
10980 2 9.9809 130.484 24.8292
4519 1 14.5281 132.073 26.1111
10765 2 15.4371 130.484 24.8292
10978 2 12.7091 132.067 24.8251
4299 1 17.2561 130.489 26.1152
10767 2 18.1654 132.067 24.8251
4297 1 19.9843 132.073 26.1111
10600 2 20.8934 130.484 24.8292
5088 1 0.887553 133.656 26.1061
11613 2 1.7969 135.233 24.814
5086 1 3.61577 135.24 26.1001
11264 2 4.52489 133.65 24.82
4776 1 6.34379 133.656 26.1061
4778 1 9.07201 135.24 26.1001
11262 2 7.25314 135.233 24.814
4483 1 11.8 133.656 26.1061
10979 2 9.98112 133.65 24.82
4481 1 14.5282 135.24 26.1001
10738 2 15.4374 133.65 24.82
10981 2 12.7094 135.233 24.814
4298 1 17.2563 133.656 26.1061
10736 2 18.1656 135.233 24.814
4300 1 19.9845 135.24 26.1001
10599 2 20.8936 133.65 24.82
5087 1 0.887751 136.823 26.0932
11596 2 1.79721 138.398 24.7991
5089 1 3.61598 138.407 26.0853
11263 2 4.52517 136.815 24.807
4745 1 9.07222 138.407 26.0853
4747 1 6.34399 136.823 26.0932
11265 2 7.25345 138.398 24.7991
4482 1 11.8002 136.823 26.0932
10948 2 9.98141 136.815 24.807
4484 1 14.5285 138.407 26.0853
10737 2 15.4376 136.815 24.807
10946 2 12.7097 138.398 24.7991
4275 1 17.2565 136.823 26.0932
10739 2 18.1659 138.398 24.7991
4273 1 19.9847 138.407 26.0853
10584 2 20.8939 136.815 24.807
5072 1 0.887987 139.99 26.0765
11597 2 1.7976 141.563 24.7804
5070 1 3.61624 141.573 26.0668
11240 2 4.52552 139.98 24.7902
4746 1 6.34423 139.99 26.0765
4748 1 9.07248 141.573 26.0668
11238 2 7.25384 141.563 24.7804
4455 1 11.8005 139.99 26.0765
10947 2 9.98175 139.98 24.7902
4453 1 14.5287 141.573 26.0668
10711 2 15.438 139.98 24.7902
10949 2 12.7101 141.563 24.7804
4274 1 17.2567 139.99 26.0765
10709 2 18.1663 141.563 24.7804
4276 1 19.985 141.573 26.0668
10583 2 20.8942 139.98 24.7902
5071 1 0.888272 143.156 26.0562
11588 2 1.79807 144.727 24.758
5073 1 3.61656 144.739 26.0447
11239 2 4.52594 143.145 24.7697
4723 1 9.07279 144.739 26.0447
4725 1 6.34451 143.156 26.0562
11241 2 7.25431 144.727 24.758
4454 1 11.8007 143.156 26.0562
10924 2 9.98218 143.145 24.7697
4456 1 14.529 144.739 26.0447
10710 2 15.4384 143.145 24.7697
10922 2 12.7105 144.727 24.758
4252 1 17.257 143.156 26.0562
10712 2 18.1668 144.727 24.758
4250 1 19.9853 144.739 26.0447
10568 2 20.8947 143.145 24.7697
5064 1 0.888622 146.321 26.0323
11589 2 1.79865 147.89 24.732
5062 1 3.61695 147.904 26.019
11224 2 4.52646 146.309 24.7455
4724 1 6.34486 146.321 26.0323
4726 1 9.07319 147.904 26.019
11222 2 7.25489 147.89 24.732
4435 1 11.8011 146.321 26.0323
10923 2 9.9827 146.309 24.7455
4433 1 14.5294 147.904 26.019
10691 2 15.4389 146.309 24.7455
10925 2 12.7111 147.89 24.732
4251 1 17.2573 146.321 26.0323
10689 2 18.1674 147.89 24.732
4253 1 19.9857 147.904 26.019
10567 2 20.8952 146.309 24.7455
5063 1 0.889069 149.486 26.0048
7447 2 1.79938 151.053 24.7023
11223 2 4.52711 149.471 24.7176
1224 1 3.61746 151.068 25.9897
7113 2 5.43625 151.083 27.2736
4708 1 6.34531 149.486 26.0048
881 1 9.0737 151.068 25.9897
7152 2 7.25562 151.053 24.7023
4434 1 11.8015 149.486 26.0048
10905 2 9.98335 149.471 24.7176
6800 2 10.8925 151.083 27.2736
10690 2 15.4396 149.471 24.7176
568 1 14.5299 151.068 25.9897
6801 2 12.7119 151.053 24.7023
4233 1 17.2578 149.486 26.0048
6520 2 18.1681 151.053 24.7023
6505 2 16.3487 151.083 27.2736
10552 2 20.8958 149.471 24.7176
297 1 19.9862 151.068 25.9897
7446 2 21.805 151.083 27.2736
11422 2 0.888383 101.959 29.8798
5275 1 1.79714 103.552 28.6093
4942 1 4.52519 101.968 28.5969
11420 2 3.61663 103.544 29.892
11122 2 6.34462 101.959 29.8798
4940 1 7.25338 103.552 28.6093
11123 2 9.07287 103.544 29.892
4642 1 9.98143 101.968 28.5969
10838 2 11.8009 101.959 29.8798
4382 1 15.4377 101.968 28.5969
4643 1 12.7096 103.552 28.6093
10836 2 14.5291 103.544 29.892
10650 2 17.2571 101.959 29.8798
4380 1 18.1659 103.552 28.6093
4208 1 20.8939 101.968 28.5969
10651 2 19.9853 103.544 29.892
11421 2 0.888645 105.13 29.9035
4941 1 4.52532 105.137 28.6208
11090 2 6.34488 105.13 29.9035
4618 1 9.98156 105.137 28.6208
10837 2 11.8011 105.13 29.9035
4381 1 15.4378 105.137 28.6208
10642 2 17.2574 105.13 29.9035
4207 1 20.894 105.137 28.6208
5227 1 1.79727 106.721 28.6315
11375 2 0.888891 108.3 29.9238
4902 1 4.52546 108.306 28.6413
11423 2 3.61689 106.715 29.914
4943 1 7.25351 106.721 28.6315
11088 2 9.07313 106.715 29.914
11089 2 6.34513 108.3 29.9238
4617 1 9.9817 108.306 28.6413
10814 2 11.8014 108.3 29.9238
4366 1 15.4379 108.306 28.6413
4616 1 12.7097 106.721 28.6315
10839 2 14.5294 106.715 29.914
4383 1 18.166 106.721 28.6315
10641 2 17.2576 108.3 29.9238
4206 1 20.8942 108.306 28.6413
10640 2 19.9856 106.715 29.914
5228 1 1.79741 109.891 28.6502
11374 2 0.889111 111.472 29.9406
4901 1 4.5256 111.476 28.6583
11373 2 3.61712 109.886 29.9326
4900 1 7.25365 109.891 28.6502
11051 2 6.34535 111.472 29.9406
11091 2 9.07336 109.886 29.9326
4586 1 9.98183 111.476 28.6583
10813 2 11.8016 111.472 29.9406
4365 1 15.4381 111.476 28.6583
4619 1 12.7099 109.891 28.6502
10812 2 14.5296 109.886 29.9326
4364 1 18.1661 109.891 28.6502
10627 2 17.2578 111.472 29.9406
4199 1 20.8943 111.476 28.6583
10643 2 19.9858 109.886 29.9326
5180 1 1.79754 113.061 28.6654
11328 2 0.8893 114.644 29.9539
4856 1 4.52572 114.646 28.6717
11376 2 3.61733 113.058 29.9477
4903 1 7.25378 113.061 28.6654
11049 2 9.07357 113.058 29.9477
11050 2 6.34554 114.644 29.9539
4585 1 9.98196 114.646 28.6717
10786 2 11.8018 114.644 29.9539
4343 1 15.4382 114.646 28.6717
4584 1 12.71 113.061 28.6654
10815 2 14.5298 113.058 29.9477
4367 1 18.1663 113.061 28.6654
10626 2 17.258 114.644 29.9539
4198 1 20.8944 114.646 28.6717
10625 2 19.986 113.058 29.9477
11332 2 2.70665 117.818 27.3959
5181 1 1.79766 116.231 28.677
11327 2 0.889458 117.816 29.9635
11380 2 5.43473 116.233 27.3915
4855 1 4.52583 117.817 28.6814
11326 2 3.6175 116.23 29.9592
11054 2 8.16289 117.818 27.3959
4854 1 7.2539 116.231 28.677
11011 2 6.3457 117.816 29.9635
11052 2 9.07374 116.23 29.9592
11053 2 10.891 116.233 27.3915
4550 1 9.98207 117.817 28.6814
10785 2 11.8019 117.816 29.9635
10790 2 13.6191 117.818 27.3959
4342 1 15.4383 117.817 28.6814
4587 1 12.7101 116.231 28.677
10784 2 14.53 116.23 29.9592
10819 2 16.3472 116.233 27.3915
4341 1 18.1664 116.231 28.677
10611 2 17.2582 117.816 29.9635
11666 2 21.8034 116.233 27.3915
10629 2 19.0754 117.818 27.3959
4187 1 20.8946 117.817 28.6814
10628 2 19.9862 116.23 29.9592
11331 2 2.70672 120.987 27.402
5140 1 1.79777 119.402 28.6849
11288 2 0.889585 120.988 29.9695
11330 2 5.4348 119.402 27.3995
4811 1 4.52594 120.987 28.6875
11329 2 3.61764 119.402 29.967
11015 2 8.16296 120.987 27.402
4857 1 7.25401 119.402 28.6849
11009 2 9.07388 119.402 29.967
11010 2 6.34582 120.988 29.9695
11056 2 10.891 119.402 27.3995
4549 1 9.98218 120.987 28.6875
10758 2 11.8021 120.988 29.9695
10789 2 13.6192 120.987 27.402
4319 1 15.4384 120.987 28.6875
4548 1 12.7102 119.402 28.6849
10787 2 14.5301 119.402 29.967
10788 2 16.3473 119.402 27.3995
4344 1 18.1665 119.402 28.6849
10610 2 17.2583 120.988 29.9695
11667 2 21.8035 119.402 27.3995
10614 2 19.0754 120.987 27.402
4186 1 20.8947 120.987 28.6875
10609 2 19.9864 119.402 29.967
11292 2 2.7068 124.156 27.4043
5141 1 1.79786 122.573 28.6891
11287 2 0.889681 124.16 29.9718
11333 2 5.43488 122.571 27.4037
4810 1 4.52603 124.158 28.6898
11286 2 3.61776 122.574 29.9711
11014 2 8.16304 124.156 27.4043
4809 1 7.2541 122.573 28.6891
10972 2 6.34592 124.16 29.9718
11012 2 9.07399 122.574 29.9711
11013 2 10.8911 122.571 27.4037
4514 1 9.98227 124.158 28.6898
10757 2 11.8022 124.16 29.9718
10762 2 13.6193 124.156 27.4043
4318 1 15.4385 124.158 28.6898
4551 1 12.7103 122.573 28.6891
10756 2 14.5302 122.574 29.9711
10791 2 16.3474 122.571 27.4037
4317 1 18.1666 122.573 28.6891
10595 2 17.2584 124.16 29.9718
11634 2 21.8036 122.571 27.4037
10613 2 19.0755 124.156 27.4043
4175 1 20.8947 124.158 28.6898
10612 2 19.9865 122.574 29.9711
11291 2 2.70689 127.325 27.4029
5108 1 1.79795 125.743 28.6895
11256 2 0.889747 127.332 29.9704
11290 2 5.43496 125.74 27.4041
11289 2 3.61784 125.746 29.9716
4773 1 4.5261 127.329 28.6883
10976 2 8.16313 127.325 27.4029
4812 1 7.25419 125.743 28.6895
10970 2 9.07408 125.746 29.9716
10971 2 6.34599 127.332 29.9704
11016 2 10.8912 125.74 27.4041
4513 1 9.98234 127.329 28.6883
10730 2 11.8022 127.332 29.9704
10761 2 13.6194 127.325 27.4029
4512 1 12.7104 125.743 28.6895
10759 2 14.5303 125.746 29.9716
4295 1 15.4386 127.329 28.6883
10760 2 16.3474 125.74 27.4041
4320 1 18.1667 125.743 28.6895
10594 2 17.2585 127.332 29.9704
11635 2 21.8037 125.74 27.4041
10598 2 19.0756 127.325 27.4029
10593 2 19.9866 125.746 29.9716
4174 1 20.8948 127.329 28.6883
5109 1 1.79802 128.914 28.6862
11293 2 5.43506 128.91 27.4007
11254 2 3.61789 128.918 29.9683
4771 1 7.25426 128.914 28.6862
10973 2 9.07413 128.918 29.9683
10974 2 10.8913 128.91 27.4007
4515 1 12.7105 128.914 28.6862
10728 2 14.5304 128.918 29.9683
10763 2 16.3475 128.91 27.4007
4293 1 18.1667 128.914 28.6862
11610 2 21.8038 128.91 27.4007
10596 2 19.9866 128.918 29.9683
11260 2 2.70699 130.494 27.3976
5084 1 1.79808 132.084 28.6792
11255 2 0.889782 130.504 29.9652
11258 2 5.43517 132.078 27.3936
4772 1 4.52617 130.499 28.6832
11257 2 3.61791 132.09 29.9613
10975 2 8.16323 130.494 27.3976
4774 1 7.25432 132.084 28.6792
10938 2 9.07414 132.09 29.9613
10940 2 6.34602 130.504 29.9652
10977 2 10.8914 132.078 27.3936
4479 1 9.98241 130.499 28.6832
10729 2 11.8023 130.504 29.9652
10734 2 13.6195 130.494 27.3976
4294 1 15.4386 130.499 28.6832
4477 1 12.7106 132.084 28.6792
10731 2 14.5304 132.09 29.9613
10732 2 16.3476 132.078 27.3936
4296 1 18.1668 132.084 28.6792
10579 2 17.2585 130.504 29.9652
11611 2 21.8039 132.078 27.3936
10597 2 19.0757 130.494 27.3976
4163 1 20.8949 130.499 28.6832
10577 2 19.9866 132.09 29.9613
11259 2 2.7071 133.663 27.3886
5085 1 1.79812 135.254 28.6684
11232 2 0.889783 133.676 29.9564
4743 1 4.52622 133.669 28.6742
11230 2 3.61789 135.262 29.9506
11261 2 5.43528 135.247 27.3827
10944 2 8.16334 133.663 27.3886
4741 1 7.25436 135.254 28.6684
10939 2 6.34602 133.676 29.9564
10941 2 9.07413 135.262 29.9506
4478 1 9.98246 133.669 28.6742
10703 2 11.8023 133.676 29.9564
10942 2 10.8915 135.247 27.3827
10733 2 13.6196 133.663 27.3886
4271 1 15.4387 133.669 28.6742
4480 1 12.7106 135.254 28.6684
10701 2 14.5304 135.262 29.9506
4269 1 18.1668 135.254 28.6684
10578 2 17.2585 133.676 29.9564
10735 2 16.3478 135.247 27.3827
10582 2 19.0758 133.663 27.3886
11594 2 21.804 135.247 27.3827
4162 1 20.8949 133.669 28.6742
10580 2 19.9866 135.262 29.9506
5068 1 1.79815 138.424 28.6539
11231 2 0.88975 136.847 29.9439
11236 2 2.70722 136.831 27.3759
4742 1 4.52626 136.839 28.6616
11233 2 3.61784 138.433 29.9362
11234 2 5.43541 138.415 27.3681
4744 1 7.25439 138.424 28.6539
10914 2 9.07408 138.433 29.9362
10916 2 6.34599 136.847 29.9439
10943 2 8.16346 136.831 27.3759
4451 1 9.9825 136.839 28.6616
10702 2 11.8022 136.847 29.9439
10945 2 10.8916 138.415 27.3681
4270 1 15.4387 136.839 28.6616
4449 1 12.7106 138.424 28.6539
10704 2 14.5303 138.433 29.9362
10707 2 13.6197 136.831 27.3759
4272 1 18.1669 138.424 28.6539
10563 2 17.2585 136.847 29.9439
10705 2 16.3479 138.415 27.3681
11595 2 21.8041 138.415 27.3681
4151 1 20.895 136.839 28.6616
10561 2 19.9866 138.433 29.9362
10581 2 19.0759 136.831 27.3759
5069 1 1.79817 141.594 28.6358
11216 2 0.889683 140.019 29.9277
11235 2 2.70736 139.999 27.3594
4721 1 4.52628 140.009 28.6453
11214 2 3.61776 141.604 29.9183
11237 2 5.43555 141.583 27.3498
4719 1 7.25441 141.594 28.6358
10915 2 6.34592 140.019 29.9277
10917 2 9.07399 141.604 29.9183
10920 2 8.1636 139.999 27.3594
4450 1 9.98252 140.009 28.6453
10683 2 11.8022 140.019 29.9277
10918 2 10.8918 141.583 27.3498
4248 1 15.4388 140.009 28.6453
4452 1 12.7106 141.594 28.6358
10681 2 14.5302 141.604 29.9183
10706 2 13.6198 139.999 27.3594
4246 1 18.1669 141.594 28.6358
10562 2 17.2584 140.019 29.9277
10708 2 16.348 141.583 27.3498
11586 2 21.8043 141.583 27.3498
4150 1 20.895 140.009 28.6453
10564 2 19.9865 141.604 29.9183
10566 2 19.0761 139.999 27.3594
5060 1 1.79819 144.763 28.6141
11215 2 0.889584 143.189 29.908
11220 2 2.70752 143.167 27.3393
4720 1 4.5263 143.178 28.6254
11217 2 3.61764 144.775 29.8968
11218 2 5.43573 144.751 27.3279
4722 1 7.25443 144.763 28.6141
10898 2 9.07388 144.775 29.8968
10900 2 6.34582 143.189 29.908
10919 2 8.16375 143.167 27.3393
4431 1 9.98254 143.178 28.6254
10682 2 11.8021 143.189 29.908
10921 2 10.892 144.751 27.3279
4247 1 15.4388 143.178 28.6254
4429 1 12.7107 144.763 28.6141
10684 2 14.5301 144.775 29.8968
10687 2 13.62 143.167 27.3393
4249 1 18.1669 144.763 28.6141
10548 2 17.2583 143.189 29.908
10685 2 16.3482 144.751 27.3279
11587 2 21.8044 144.751 27.3279
4139 1 20.895 143.178 28.6254
10546 2 19.9864 144.775 29.8968
10565 2 19.0762 143.167 27.3393
5061 1 1.79822 147.931 28.589
11208 2 0.889462 146.36 29.8848
11219 2 2.70771 146.334 27.3156
4707 1 4.52632 146.347 28.602
11206 2 3.61752 147.944 29.872
11221 2 5.43595 147.917 27.3025
4705 1 7.25445 147.931 28.589
10899 2 6.3457 146.36 29.8848
10901 2 9.07375 147.944 29.872
10904 2 8.16395 146.334 27.3156
4430 1 9.98256 146.347 28.602
10671 2 11.8019 146.36 29.8848
10902 2 10.8922 147.917 27.3025
4232 1 15.4388 146.347 28.602
4432 1 12.7107 147.931 28.589
10669 2 14.53 147.944 29.872
10686 2 13.6202 146.334 27.3156
4230 1 18.1669 147.931 28.589
10547 2 17.2582 146.36 29.8848
10688 2 16.3484 147.917 27.3025
11585 2 21.8047 147.917 27.3025
4138 1 20.895 146.347 28.602
10549 2 19.9862 147.944 29.872
10551 2 19.0764 146.334 27.3156
11207 2 0.889334 149.529 29.8583
11209 2 2.70797 149.5 27.2885
1178 1 1.79829 151.098 28.5605
4706 1 4.52636 149.515 28.5752
7112 2 3.6174 151.113 29.8438
10889 2 6.34557 149.529 29.8583
10903 2 8.16421 149.5 27.2885
880 1 7.25452 151.098 28.5605
6769 2 9.07364 151.113 29.8438
4416 1 9.9826 149.515 28.5752
10670 2 11.8018 149.529 29.8583
4231 1 15.4388 149.515 28.5752
10672 2 13.6204 149.5 27.2885
545 1 12.7108 151.098 28.5605
6504 2 14.5299 151.113 29.8438
10537 2 17.258 149.529 29.8583
296 1 18.167 151.098 28.5605
4127 1 20.8951 149.515 28.5752
10550 2 19.0767 149.5 27.2885
6297 2 19.9861 151.113 29.8438
4938 1 2.70729 101.95 31.1656
11419 2 1.7992 103.528 32.4599
11086 2 4.52705 101.941 32.4478
4939 1 5.43562 103.536 31.1777
4614 1 8.16352 101.95 31.1656
11084 2 7.25544 103.528 32.4599
10834 2 9.98329 101.941 32.4478
4612 1 10.8919 103.536 31.1777
4378 1 13.6198 101.95 31.1656
10638 2 15.4395 101.941 32.4478
10835 2 12.7117 103.528 32.4599
4379 1 16.3481 103.536 31.1777
10636 2 18.1679 103.528 32.4599
4205 1 19.076 101.95 31.1656
10528 2 20.8958 101.941 32.4478
5225 1 21.8043 103.536 31.1777
4898 1 2.70771 105.122 31.189
11371 2 1.7997 106.702 32.4815
11085 2 4.52758 105.115 32.4711
4613 1 8.16395 105.122 31.189
11087 2 7.25594 106.702 32.4815
10810 2 9.98382 105.115 32.4711
4362 1 13.6202 105.122 31.189
10637 2 15.4401 105.115 32.4711
10808 2 12.7122 106.702 32.4815
10639 2 18.1684 106.702 32.4815
4204 1 19.0764 105.122 31.189
10527 2 20.8963 105.115 32.4711
4897 1 2.70808 108.295 31.2091
4896 1 5.43602 106.708 31.1995
11047 2 4.52805 108.289 32.4911
4582 1 8.16432 108.295 31.2091
4615 1 10.8923 106.708 31.1995
10809 2 9.98429 108.289 32.4911
4361 1 13.6206 108.295 31.2091
10623 2 15.4405 108.289 32.4911
4360 1 16.3485 106.708 31.1995
5226 1 21.8047 106.708 31.1995
4197 1 19.0768 108.295 31.2091
10526 2 20.8968 108.289 32.4911
4852 1 2.7084 111.468 31.2258
11372 2 1.80013 109.876 32.4998
4899 1 5.43637 109.881 31.2179
11046 2 4.52844 111.464 32.5077
4581 1 8.16464 111.468 31.2258
11045 2 7.25637 109.876 32.4998
4580 1 10.8926 109.881 31.2179
10782 2 9.98468 111.464 32.5077
4339 1 13.6209 111.468 31.2258
10622 2 15.4409 111.464 32.5077
10811 2 12.7126 109.876 32.4998
4363 1 16.3488 109.881 31.2179
10621 2 18.1688 109.876 32.4998
5178 1 21.8051 109.881 31.2179
4196 1 19.0771 111.468 31.2258
10523 2 20.8972 111.464 32.5077
4851 1 2.70867 114.641 31.239
11324 2 1.80048 113.051 32.5146
4850 1 5.43666 113.054 31.2328
11007 2 4.52875 114.638 32.5208
4546 1 8.1649 114.641 31.239
11048 2 7.25672 113.051 32.5146
4583 1 10.8929 113.054 31.2328
10781 2 9.98499 114.638 32.5208
4338 1 13.6211 114.641 31.239
10607 2 15.4412 114.638 32.5208
10780 2 12.713 113.051 32.5146
4337 1 16.3491 113.054 31.2328
10624 2 18.1692 113.051 32.5146
5179 1 21.8054 113.054 31.2328
4185 1 19.0774 114.641 31.239
10522 2 20.8975 114.638 32.5208
4807 1 2.70887 117.814 31.2486
11325 2 1.80076 116.226 32.526
4853 1 5.4369 116.228 31.2443
11006 2 4.529 117.813 32.5303
4545 1 8.16511 117.814 31.2486
11005 2 7.257 116.226 32.526
4544 1 10.8931 116.228 31.2443
10754 2 9.98524 117.813 32.5303
4315 1 13.6214 117.814 31.2486
10606 2 15.4415 117.813 32.5303
10783 2 12.7132 116.226 32.526
4340 1 16.3494 116.228 31.2443
10605 2 18.1695 116.226 32.526
5138 1 21.8056 116.228 31.2443
4184 1 19.0776 117.814 31.2486
10519 2 20.8977 117.813 32.5303
4806 1 2.70903 120.988 31.2546
11284 2 1.80098 119.401 32.5337
4805 1 5.43708 119.401 31.252
10968 2 4.52917 120.988 32.5362
4510 1 8.16527 120.988 31.2546
11008 2 7.25721 119.401 32.5337
4547 1 10.8933 119.401 31.252
10753 2 9.98541 120.988 32.5362
4314 1 13.6215 120.988 31.2546
10591 2 15.4417 120.988 32.5362
10752 2 12.7135 119.401 32.5337
4313 1 16.3496 119.401 31.252
10608 2 18.1697 119.401 32.5337
5139 1 21.8058 119.401 31.252
4173 1 19.0777 120.988 31.2546
10518 2 20.8979 120.988 32.5362
4769 1 2.70913 124.162 31.2568
11285 2 1.80112 122.576 32.5378
4808 1 5.43721 122.575 31.2562
10967 2 4.52928 124.164 32.5385
4509 1 8.16537 124.162 31.2568
10966 2 7.25736 122.576 32.5378
4508 1 10.8934 122.575 31.2562
10726 2 9.98552 124.164 32.5385
4291 1 13.6216 124.162 31.2568
10590 2 15.4418 124.164 32.5385
10755 2 12.7136 122.576 32.5378
4316 1 16.3497 122.575 31.2562
10589 2 18.1698 122.576 32.5378
5106 1 21.8059 122.575 31.2562
4172 1 19.0778 124.162 31.2568
10515 2 20.898 124.164 32.5385
11252 2 1.80119 125.751 32.5382
4768 1 2.70919 127.335 31.2554
4767 1 5.43729 125.749 31.2566
10936 2 4.52933 127.339 32.5371
10969 2 7.25743 125.751 32.5382
4475 1 8.16542 127.335 31.2554
4511 1 10.8935 125.749 31.2566
10725 2 9.98556 127.339 32.5371
10724 2 12.7137 125.751 32.5382
4290 1 13.6217 127.335 31.2554
10575 2 15.4418 127.339 32.5371
4289 1 16.3498 125.749 31.2566
10592 2 18.1699 125.751 32.5382
5107 1 21.806 125.749 31.2566
4161 1 19.0779 127.335 31.2554
10514 2 20.898 127.339 32.5371
11253 2 1.8012 128.926 32.535
4770 1 5.43731 128.922 31.2533
10934 2 7.25744 128.926 32.535
4473 1 10.8936 128.922 31.2533
10727 2 12.7137 128.926 32.535
4292 1 16.3498 128.922 31.2533
10573 2 18.1699 128.926 32.535
5082 1 21.806 128.922 31.2533
4739 1 2.70919 130.509 31.2503
11228 2 1.80114 132.101 32.5281
4737 1 5.43729 132.096 31.2464
10935 2 4.5293 130.514 32.532
4474 1 8.16543 130.509 31.2503
10937 2 7.25738 132.101 32.5281
4476 1 10.8935 132.096 31.2464
10699 2 9.98554 130.514 32.532
4267 1 13.6217 130.509 31.2503
10574 2 15.4418 130.514 32.532
10697 2 12.7136 132.101 32.5281
4265 1 16.3498 132.096 31.2464
10576 2 18.1699 132.101 32.5281
5083 1 21.806 132.096 31.2464
4160 1 19.0779 130.509 31.2503
10511 2 20.898 130.514 32.532
4738 1 2.70913 133.682 31.2415
11229 2 1.80101 135.276 32.5176
4740 1 5.4372 135.269 31.2358
10912 2 4.5292 133.689 32.5233
4447 1 8.16537 133.682 31.2415
10910 2 7.25725 135.276 32.5176
4445 1 10.8934 135.269 31.2358
10698 2 9.98544 133.689 32.5233
4266 1 13.6216 133.682 31.2415
10559 2 15.4417 133.689 32.5233
10700 2 12.7135 135.276 32.5176
4268 1 16.3497 135.269 31.2358
10557 2 18.1697 135.276 32.5176
5066 1 21.8059 135.269 31.2358
4149 1 19.0778 133.682 31.2415
10510 2 20.8979 133.689 32.5233
4717 1 2.70902 136.856 31.2291
11212 2 1.8008 138.451 32.5034
4715 1 5.43706 138.442 31.2216
10911 2 4.52903 136.864 32.511
4446 1 8.16526 136.856 31.2291
10913 2 7.25703 138.451 32.5034
4448 1 10.8933 138.442 31.2216
10679 2 9.98527 136.864 32.511
4244 1 13.6215 136.856 31.2291
10558 2 15.4415 136.864 32.511
10677 2 12.7133 138.451 32.5034
4242 1 16.3495 138.442 31.2216
10560 2 18.1695 138.451 32.5034
5067 1 21.8058 138.442 31.2216
4148 1 19.0777 136.856 31.2291
10507 2 20.8977 136.864 32.511
4716 1 2.70885 140.028 31.2131
11213 2 1.8005 141.625 32.4858
4718 1 5.43686 141.615 31.2038
10896 2 4.52878 140.038 32.4951
4427 1 8.16508 140.028 31.2131
10894 2 7.25674 141.625 32.4858
4425 1 10.8931 141.615 31.2038
10678 2 9.98502 140.038 32.4951
4243 1 13.6213 140.028 31.2131
10544 2 15.4413 140.038 32.4951
10680 2 12.713 141.625 32.4858
4245 1 16.3493 141.615 31.2038
10542 2 18.1692 141.625 32.4858
5058 1 21.8056 141.615 31.2038
4137 1 19.0776 140.028 31.2131
10506 2 20.8975 140.038 32.4951
4703 1 2.70861 143.201 31.1936
11204 2 1.80013 144.799 32.4647
4701 1 5.43659 144.787 31.1825
10895 2 4.52845 143.212 32.4757
4426 1 8.16485 143.201 31.1936
10897 2 7.25637 144.799 32.4647
4428 1 10.8928 144.787 31.1825
10667 2 9.98469 143.212 32.4757
4228 1 13.6211 143.201 31.1936
10543 2 15.4409 143.212 32.4757
10665 2 12.7126 144.799 32.4647
4226 1 16.3491 144.787 31.1825
10545 2 18.1688 144.799 32.4647
5059 1 21.8053 144.787 31.1825
4136 1 19.0773 143.201 31.1936
10503 2 20.8972 143.212 32.4757
4702 1 2.70832 146.373 31.1706
11205 2 1.79968 147.972 32.4403
4704 1 5.43627 147.958 31.1579
10888 2 4.52804 146.385 32.4529
4415 1 8.16456 146.373 31.1706
10886 2 7.25592 147.972 32.4403
4413 1 10.8925 147.958 31.1579
10666 2 9.98427 146.385 32.4529
4227 1 13.6208 146.373 31.1706
10536 2 15.4405 146.385 32.4529
10668 2 12.7122 147.972 32.4403
4229 1 16.3488 147.958 31.1579
10534 2 18.1684 147.972 32.4403
5057 1 21.805 147.958 31.1579
4126 1 19.077 146.373 31.1706
10502 2 20.8968 146.385 32.4529
4694 1 2.70798 149.544 31.1444
7066 2 1.79917 151.144 32.4127
10887 2 4.52755 149.558 32.4269
841 1 5.43592 151.129 31.1301
4414 1 8.16422 149.544 31.1444
6768 2 7.25541 151.144 32.4127
10660 2 9.98379 149.558 32.4269
544 1 10.8922 151.129 31.1301
4217 1 13.6205 149.544 31.1444
10535 2 15.44 149.558 32.4269
6481 2 12.7116 151.144 32.4127
281 1 16.3484 151.129 31.1301
6296 2 18.1679 151.144 32.4127
4125 1 19.0767 149.544 31.1444
10499 2 20.8963 149.558 32.4269
1177 1 21.8046 151.129 31.1301
4894 1 0.890006 101.932 33.733
11082 2 2.71013 101.923 35.0147
4892 1 3.61848 103.52 33.745
11083 2 5.43865 103.511 35.0266
4610 1 6.34624 101.932 33.733
10806 2 8.16637 101.923 35.0147
4611 1 9.07472 103.52 33.745
4358 1 11.8025 101.932 33.733
10804 2 10.8949 103.511 35.0266
10634 2 13.6226 101.923 35.0147
4356 1 14.531 103.52 33.745
4202 1 17.2587 101.932 33.733
10635 2 16.3511 103.511 35.0266
10525 2 19.0788 101.923 35.0147
11369 2 21.8074 103.511 35.0266
4203 1 19.9872 103.52 33.745
4893 1 0.890688 105.107 33.7561
11043 2 2.7109 105.1 35.0377
11041 2 5.43936 106.689 35.048
4895 1 3.61911 106.695 33.7664
4578 1 6.34693 105.107 33.7561
10805 2 8.16714 105.1 35.0377
4576 1 9.07535 106.695 33.7664
4357 1 11.8032 105.107 33.7561
10807 2 10.8956 106.689 35.048
10619 2 13.6234 105.1 35.0377
4359 1 14.5316 106.695 33.7664
4194 1 17.2594 105.107 33.7561
10617 2 16.3518 106.689 35.048
10524 2 19.0796 105.1 35.0377
11370 2 21.8081 106.689 35.048
4192 1 19.9878 106.695 33.7664
4848 1 0.891269 108.283 33.7759
11042 2 2.71155 108.277 35.0574
4577 1 6.34751 108.283 33.7759
10778 2 8.16778 108.277 35.0574
4335 1 11.8037 108.283 33.7759
10618 2 13.624 108.277 35.0574
4193 1 17.26 108.283 33.7759
10521 2 19.0803 108.277 35.0574
4847 1 0.891748 111.459 33.7924
11003 2 2.71208 111.455 35.0738
4846 1 3.61964 109.871 33.7846
11044 2 5.43995 109.866 35.066
4542 1 6.34799 111.459 33.7924
4579 1 9.07588 109.871 33.7846
10777 2 8.16832 111.455 35.0738
4334 1 11.8042 111.459 33.7924
10776 2 10.8962 109.866 35.066
4333 1 14.5321 109.871 33.7846
10603 2 13.6246 111.455 35.0738
4182 1 17.2605 111.459 33.7924
10620 2 16.3524 109.866 35.066
11322 2 21.8087 109.866 35.066
4195 1 19.9884 109.871 33.7846
10520 2 19.0808 111.455 35.0738
4803 1 0.89213 114.636 33.8054
11002 2 2.7125 114.633 35.0867
4849 1 3.62007 113.047 33.7994
11001 2 5.44042 113.044 35.0807
4540 1 9.07631 113.047 33.7994
4541 1 6.34837 114.636 33.8054
10750 2 8.16874 114.633 35.0867
4311 1 11.8046 114.636 33.8054
10779 2 10.8967 113.044 35.0807
4336 1 14.5325 113.047 33.7994
10602 2 13.625 114.633 35.0867
4181 1 17.2608 114.636 33.8054
10601 2 16.3529 113.044 35.0807
11323 2 21.8091 113.044 35.0807
4180 1 19.9888 113.047 33.7994
10517 2 19.0812 114.633 35.0867
4802 1 0.892419 117.812 33.8149
10964 2 2.71282 117.811 35.0962
4801 1 3.62041 116.224 33.8106
11004 2 5.44079 116.222 35.0919
4506 1 6.34866 117.812 33.8149
4543 1 9.07664 116.224 33.8106
10749 2 8.16906 117.811 35.0962
4310 1 11.8049 117.812 33.8149
10748 2 10.897 116.222 35.0919
4309 1 14.5329 116.224 33.8106
10587 2 13.6253 117.811 35.0962
4170 1 17.2611 117.812 33.8149
10604 2 16.3533 116.222 35.0919
11282 2 21.8095 116.222 35.0919
4183 1 19.9891 116.224 33.8106
10516 2 19.0815 117.811 35.0962
4765 1 0.892621 120.989 33.8208
10963 2 2.71304 120.989 35.102
4804 1 3.62065 119.401 33.8183
10962 2 5.44106 119.4 35.0996
4504 1 9.07689 119.401 33.8183
4505 1 6.34886 120.989 33.8208
10722 2 8.16928 120.989 35.102
4287 1 11.8051 120.989 33.8208
10751 2 10.8973 119.4 35.0996
4312 1 14.5331 119.401 33.8183
10586 2 13.6255 120.989 35.102
4169 1 17.2613 120.989 33.8208
10585 2 16.3535 119.4 35.0996
11283 2 21.8098 119.4 35.0996
4168 1 19.9894 119.401 33.8183
10513 2 19.0818 120.989 35.102
4764 1 0.892736 124.166 33.8231
10932 2 2.71316 124.168 35.1043
4763 1 3.62081 122.577 33.8224
10965 2 5.44123 122.578 35.1036
4471 1 6.34897 124.166 33.8231
4507 1 9.07705 122.577 33.8224
10721 2 8.16939 124.168 35.1043
4286 1 11.8052 124.166 33.8231
10720 2 10.8975 122.578 35.1036
4285 1 14.5333 122.577 33.8224
10571 2 13.6256 124.168 35.1043
4158 1 17.2615 124.166 33.8231
10588 2 16.3537 122.578 35.1036
11250 2 21.8099 122.578 35.1036
4171 1 19.9895 122.577 33.8224
10512 2 19.0819 124.168 35.1043
4735 1 0.892767 127.342 33.8217
10931 2 2.71318 127.346 35.1029
4766 1 3.62088 125.754 33.8228
10930 2 5.4413 125.757 35.1041
4469 1 9.07712 125.754 33.8228
4470 1 6.349 127.342 33.8217
10695 2 8.16942 127.346 35.1029
10723 2 10.8975 125.757 35.1041
4263 1 11.8052 127.342 33.8217
4288 1 14.5334 125.754 33.8228
10570 2 13.6257 127.346 35.1029
10569 2 16.3538 125.757 35.1041
4157 1 17.2615 127.342 33.8217
11251 2 21.81 125.757 35.1041
4156 1 19.9896 125.754 33.8228
10509 2 19.0819 127.346 35.1029
4733 1 3.62087 128.931 33.8196
10933 2 5.44127 128.935 35.1009
4472 1 9.07711 128.931 33.8196
10693 2 10.8975 128.935 35.1009
4261 1 14.5333 128.931 33.8196
10572 2 16.3537 128.935 35.1009
11226 2 21.81 128.935 35.1009
4159 1 19.9896 128.931 33.8196
4734 1 0.89271 130.519 33.8167
10908 2 2.7131 130.524 35.0979
4736 1 3.62077 132.107 33.8128
10906 2 5.44114 132.113 35.094
4441 1 9.07701 132.107 33.8128
4443 1 6.34895 130.519 33.8167
10694 2 8.16934 130.524 35.0979
4262 1 11.8052 130.519 33.8167
10696 2 10.8974 132.113 35.094
4264 1 14.5332 132.107 33.8128
10555 2 13.6256 130.524 35.0979
4146 1 17.2614 130.519 33.8167
10553 2 16.3536 132.113 35.094
11227 2 21.8099 132.113 35.094
4144 1 19.9895 132.107 33.8128
10508 2 19.0818 130.524 35.0979
4713 1 0.892562 133.696 33.808
10907 2 2.71292 133.702 35.0893
4711 1 3.62057 135.284 33.8023
10909 2 5.4409 135.291 35.0836
4442 1 6.3488 133.696 33.808
4444 1 9.07681 135.284 33.8023
10675 2 8.16916 133.702 35.0893
4240 1 11.805 133.696 33.808
10673 2 10.8971 135.291 35.0836
4238 1 14.533 135.284 33.8023
10554 2 13.6254 133.702 35.0893
4145 1 17.2613 133.696 33.808
10556 2 16.3534 135.291 35.0836
11210 2 21.8096 135.291 35.0836
4147 1 19.9893 135.284 33.8023
10505 2 19.0816 133.702 35.0893
4712 1 0.892317 136.872 33.7957
10892 2 2.71263 136.88 35.0771
4714 1 3.62028 138.46 33.7883
10890 2 5.44056 138.469 35.0697
4421 1 9.07651 138.46 33.7883
4423 1 6.34856 136.872 33.7957
10674 2 8.16886 136.88 35.0771
10676 2 10.8968 138.469 35.0697
4239 1 11.8048 136.872 33.7957
10540 2 13.6251 136.88 35.0771
4241 1 14.5328 138.46 33.7883
10538 2 16.353 138.469 35.0697
4134 1 17.261 136.872 33.7957
10504 2 19.0813 136.88 35.0771
4132 1 19.989 138.46 33.7883
11211 2 21.8093 138.469 35.0697
10891 2 2.71222 140.058 35.0614
4699 1 0.89197 140.048 33.78
10893 2 5.44009 141.646 35.0523
4697 1 3.61988 141.636 33.7708
10663 2 8.16846 140.058 35.0614
4424 1 9.07611 141.636 33.7708
4422 1 6.34821 140.048 33.78
10661 2 10.8963 141.646 35.0523
4224 1 11.8044 140.048 33.78
10539 2 13.6247 140.058 35.0614
4222 1 14.5324 141.636 33.7708
10541 2 16.3526 141.646 35.0523
4133 1 17.2607 140.048 33.78
10501 2 19.0809 140.058 35.0614
4135 1 19.9886 141.636 33.7708
11202 2 21.8088 141.646 35.0523
4698 1 0.891515 143.223 33.7607
10884 2 2.71169 143.235 35.0423
4700 1 3.61936 144.811 33.7499
10882 2 5.43949 144.823 35.0315
4409 1 9.0756 144.811 33.7499
4411 1 6.34775 143.223 33.7607
10662 2 8.16792 143.235 35.0423
4223 1 11.804 143.223 33.7607
10664 2 10.8957 144.823 35.0315
4225 1 14.5318 144.811 33.7499
10532 2 13.6242 143.235 35.0423
4123 1 17.2602 143.223 33.7607
10530 2 16.352 144.823 35.0315
11203 2 21.8082 144.823 35.0315
4121 1 19.9881 144.811 33.7499
10500 2 19.0804 143.235 35.0423
4693 1 0.890948 146.399 33.7382
10883 2 2.71103 146.412 35.0198
4691 1 3.61874 147.986 33.7257
10885 2 5.43877 148 35.0074
4410 1 6.34719 146.399 33.7382
4412 1 9.07498 147.986 33.7257
10659 2 8.16727 146.412 35.0198
4216 1 11.8034 146.399 33.7382
10657 2 10.895 148 35.0074
4214 1 14.5312 147.986 33.7257
10531 2 13.6235 146.412 35.0198
10533 2 16.3512 148 35.0074
4122 1 17.2597 146.399 33.7382
10498 2 19.0797 146.412 35.0198
4124 1 19.9875 147.986 33.7257
11201 2 21.8075 148 35.0074
10881 2 2.71024 149.588 34.9942
4692 1 0.890273 149.573 33.7124
6729 2 5.43792 151.176 34.9802
840 1 3.61802 151.16 33.6983
513 1 9.07426 151.16 33.6983
10658 2 8.16648 149.588 34.9942
4404 1 6.34651 149.573 33.7124
6480 2 10.8942 151.176 34.9802
4215 1 11.8028 149.573 33.7124
280 1 14.5305 151.16 33.6983
10529 2 13.6227 149.588 34.9942
6281 2 16.3504 151.176 34.9802
4116 1 17.259 149.573 33.7124
105 1 19.9867 151.16 33.6983
7065 2 21.8066 151.176 34.9802
10497 2 19.079 149.588 34.9942
12670 2 0.893929 101.905 37.5804
4891 1 1.802 103.503 36.3111
4574 1 4.52966 101.914 36.2993
12668 2 3.62254 103.495 37.5921
12639 2 6.35017 101.905 37.5804
12640 2 9.07878 103.495 37.5921
4572 1 7.25824 103.503 36.3111
12606 2 11.8064 101.905 37.5804
4354 1 9.9859 101.914 36.2993
4190 1 15.4421 101.914 36.2993
12604 2 14.535 103.495 37.5921
4355 1 12.7145 103.503 36.3111
12575 2 17.2626 101.905 37.5804
4188 1 18.1707 103.503 36.3111
4112 1 20.8984 101.914 36.2993
12576 2 19.9913 103.495 37.5921
12669 2 0.894873 105.085 37.6031
4844 1 1.80282 106.682 36.3324
4573 1 4.53055 105.093 36.3221
12671 2 3.62341 106.675 37.6133
12636 2 6.35111 105.085 37.6031
12634 2 9.07964 106.675 37.6133
4575 1 7.25906 106.682 36.3324
12605 2 11.8073 105.085 37.6031
4331 1 9.98679 105.093 36.3221
4189 1 15.443 105.093 36.3221
12607 2 14.5359 106.675 37.6133
4329 1 12.7153 106.682 36.3324
12572 2 17.2636 105.085 37.6031
4191 1 18.1715 106.682 36.3324
4111 1 20.8993 105.093 36.3221
12570 2 19.9921 106.675 37.6133
12666 2 0.895663 108.266 37.6227
4538 1 4.53129 108.272 36.3418
12635 2 6.3519 108.266 37.6227
12602 2 11.8081 108.266 37.6227
4330 1 9.98753 108.272 36.3418
4178 1 15.4438 108.272 36.3418
12571 2 17.2644 108.266 37.6227
4110 1 20.9 108.272 36.3418
12665 2 0.896308 111.447 37.639
4845 1 1.8035 109.861 36.3503
12664 2 3.62412 109.856 37.6313
4537 1 4.5319 111.451 36.3581
12632 2 6.35255 111.447 37.639
12637 2 9.08036 109.856 37.6313
4536 1 7.25973 109.861 36.3503
12601 2 11.8088 111.447 37.639
4307 1 9.98814 111.451 36.3581
12600 2 14.5366 109.856 37.6313
4177 1 15.4444 111.451 36.3581
4332 1 12.716 109.861 36.3503
12568 2 17.265 111.447 37.639
4176 1 18.1722 109.861 36.3503
12573 2 19.9928 109.856 37.6313
4109 1 20.9006 111.451 36.3581
12662 2 0.896814 114.628 37.6518
4799 1 1.80404 113.041 36.365
12667 2 3.6247 113.037 37.6458
4502 1 4.53238 114.63 36.371
12630 2 9.08094 113.037 37.6458
12631 2 6.35305 114.628 37.6518
4539 1 7.26028 113.041 36.365
12598 2 11.8093 114.628 37.6518
4306 1 9.98862 114.63 36.371
12603 2 14.5372 113.037 37.6458
4166 1 15.4449 114.63 36.371
4305 1 12.7165 113.041 36.365
12567 2 17.2655 114.628 37.6518
4179 1 18.1728 113.041 36.365
12566 2 19.9934 113.037 37.6458
4108 1 20.9011 114.63 36.371
12661 2 0.897189 117.809 37.6612
4800 1 1.80446 116.22 36.3761
12660 2 3.62514 116.218 37.6569
4501 1 4.53274 117.81 36.3804
12628 2 6.35343 117.809 37.6612
12633 2 9.08138 116.218 37.6569
4500 1 7.26069 116.22 36.3761
12597 2 11.8097 117.809 37.6612
4283 1 9.98898 117.81 36.3804
12596 2 14.5376 116.218 37.6569
4165 1 15.4452 117.81 36.3804
4308 1 12.7169 116.22 36.3761
12564 2 17.2659 117.809 37.6612
4164 1 18.1732 116.22 36.3761
12569 2 19.9939 116.218 37.6569
4107 1 20.9015 117.81 36.3804
12658 2 0.897439 120.99 37.667
4761 1 1.80475 119.4 36.3837
12663 2 3.62545 119.399 37.6645
4467 1 4.53298 120.99 36.3862
12626 2 9.08169 119.399 37.6645
12627 2 6.35368 120.99 37.667
4503 1 7.26099 119.4 36.3837
12594 2 11.8099 120.99 37.667
4282 1 9.98921 120.99 36.3862
12599 2 14.5379 119.399 37.6645
4154 1 15.4455 120.99 36.3862
4281 1 12.7172 119.4 36.3837
12563 2 17.2662 120.99 37.667
4167 1 18.1735 119.4 36.3837
12562 2 19.9942 119.399 37.6645
4106 1 20.9017 120.99 36.3862
12657 2 0.897565 124.172 37.6692
4762 1 1.80493 122.58 36.3878
12656 2 3.62564 122.581 37.6686
4466 1 4.5331 124.17 36.3884
12624 2 6.3538 124.172 37.6692
12629 2 9.08187 122.581 37.6686
4465 1 7.26117 122.58 36.3878
12593 2 11.81 124.172 37.6692
4259 1 9.98934 124.17 36.3884
12592 2 14.5381 122.581 37.6686
4153 1 15.4456 124.17 36.3884
4284 1 12.7174 122.58 36.3878
12560 2 17.2663 124.172 37.6692
4152 1 18.1736 122.58 36.3878
12565 2 19.9944 122.581 37.6686
4105 1 20.9018 124.17 36.3884
4731 1 1.805 125.76 36.3882
12654 2 0.897568 127.353 37.6679
12659 2 3.6257 125.762 37.669
4439 1 4.53311 127.349 36.3871
12622 2 9.08194 125.762 37.669
4468 1 7.26124 125.76 36.3882
12623 2 6.35381 127.353 37.6679
12590 2 11.81 127.353 37.6679
4258 1 9.98935 127.349 36.3871
12595 2 14.5382 125.762 37.669
4257 1 12.7175 125.76 36.3882
4142 1 15.4456 127.349 36.3871
4155 1 18.1737 125.76 36.3882
12559 2 17.2663 127.353 37.6679
12558 2 19.9944 125.762 37.669
4104 1 20.9018 127.349 36.3871
4732 1 1.80495 128.939 36.385
12652 2 3.62564 128.944 37.6658
12625 2 9.08188 128.944 37.6658
4437 1 7.26119 128.939 36.385
12588 2 14.5381 128.944 37.6658
4260 1 12.7174 128.939 36.385
4140 1 18.1737 128.939 36.385
12561 2 19.9944 128.944 37.6658
12653 2 0.897446 130.534 37.6629
4709 1 1.80479 132.119 36.3783
12655 2 3.62546 132.125 37.6591
4438 1 4.53301 130.529 36.3821
12618 2 9.08169 132.125 37.6591
12620 2 6.35368 130.534 37.6629
4440 1 7.26103 132.119 36.3783
12589 2 11.8099 130.534 37.6629
4236 1 9.98924 130.529 36.3821
12591 2 14.5379 132.125 37.6591
4141 1 15.4455 130.529 36.3821
4234 1 12.7173 132.119 36.3783
12556 2 17.2662 130.534 37.6629
4143 1 18.1735 132.119 36.3783
12554 2 19.9942 132.125 37.6591
4103 1 20.9017 130.529 36.3821
12650 2 0.897195 133.715 37.6544
4710 1 1.8045 135.299 36.3679
12648 2 3.62514 135.306 37.6488
4419 1 4.53278 133.709 36.3735
12619 2 6.35343 133.715 37.6544
12621 2 9.08138 135.306 37.6488
4417 1 7.26074 135.299 36.3679
12586 2 11.8097 133.715 37.6544
4235 1 9.98902 133.709 36.3735
12584 2 14.5376 135.306 37.6488
4130 1 15.4453 133.709 36.3735
4237 1 12.717 135.299 36.3679
12555 2 17.2659 133.715 37.6544
4128 1 18.1732 135.299 36.3679
12557 2 19.9939 135.306 37.6488
4102 1 20.9015 133.709 36.3735
12649 2 0.896807 136.896 37.6423
4695 1 1.80408 138.478 36.3541
12651 2 3.62468 138.487 37.635
4418 1 4.53243 136.888 36.3614
12614 2 9.08092 138.487 37.635
12616 2 6.35305 136.896 37.6423
4420 1 7.26032 138.478 36.3541
12585 2 11.8093 136.896 37.6423
4220 1 9.98866 136.888 36.3614
12587 2 14.5372 138.487 37.635
4129 1 15.4449 136.888 36.3614
4218 1 12.7166 138.478 36.3541
12552 2 17.2655 136.896 37.6423
4131 1 18.1728 138.478 36.3541
12550 2 19.9934 138.487 37.635
4101 1 20.9011 136.888 36.3614
12646 2 0.896274 140.077 37.6267
4696 1 1.80352 141.657 36.3367
12644 2 3.62407 141.667 37.6177
4407 1 4.53194 140.067 36.3458
12615 2 6.35251 140.077 37.6267
12617 2 9.08031 141.667 37.6177
4405 1 7.25975 141.657 36.3367
12582 2 11.8088 140.077 37.6267
4219 1 9.98817 140.067 36.3458
12580 2 14.5365 141.667 37.6177
4119 1 15.4444 140.067 36.3458
4221 1 12.716 141.657 36.3367
12551 2 17.265 140.077 37.6267
4117 1 18.1722 141.657 36.3367
12553 2 19.9928 141.667 37.6177
4100 1 20.9007 140.067 36.3458
12645 2 0.895587 143.258 37.6078
4689 1 1.8028 144.836 36.3161
12647 2 3.6233 144.848 37.5971
4406 1 4.5313 143.246 36.3268
12610 2 9.07954 144.848 37.5971
12612 2 6.35182 143.258 37.6078
4408 1 7.25904 144.836 36.3161
12581 2 11.8081 143.258 37.6078
4212 1 9.98754 143.246 36.3268
12583 2 14.5358 144.848 37.5971
4118 1 15.4438 143.246 36.3268
4210 1 12.7153 144.836 36.3161
12548 2 17.2643 143.258 37.6078
4120 1 18.1715 144.836 36.3161
12546 2 19.992 144.848 37.5971
4099 1 20.9 143.246 36.3268
12643 2 0.894736 146.438 37.5855
4690 1 1.80193 148.014 36.2921
12641 2 3.62237 148.028 37.5732
4403 1 4.53051 146.425 36.3045
12611 2 6.35097 146.438 37.5855
12613 2 9.07861 148.028 37.5732
4401 1 7.25817 148.014 36.2921
12579 2 11.8072 146.438 37.5855
4211 1 9.98675 146.425 36.3045
12577 2 14.5348 148.028 37.5732
4115 1 15.443 146.425 36.3045
4213 1 12.7144 148.014 36.2921
12547 2 17.2635 146.438 37.5855
4113 1 18.1706 148.014 36.2921
12549 2 19.9911 148.028 37.5732
4098 1 20.8992 146.425 36.3045
12642 2 0.893716 149.618 37.5601
794 1 1.8009 151.192 36.2651
4402 1 4.52956 149.603 36.279
12609 2 6.34995 149.618 37.5601
512 1 7.25714 151.192 36.2651
12578 2 11.8062 149.618 37.5601
4209 1 9.9858 149.603 36.279
4114 1 15.442 149.603 36.279
257 1 12.7134 151.192 36.2651
12545 2 17.2624 149.618 37.5601
104 1 18.1696 151.192 36.2651
4097 1 20.8983 149.603 36.279
16409 1 2.71381 101.895 38.8643
23951 2 1.80715 103.478 40.1565
16407 1 0.898729 101.877 41.4281
18295 1 5.44247 103.486 38.8761
18294 1 3.62744 103.47 41.4398
22015 2 4.53472 101.886 40.1447
16255 1 8.17005 101.895 38.8643
18200 1 9.08367 103.47 41.4398
23922 2 7.26339 103.478 40.1565
16233 1 6.35497 101.877 41.4281
18207 1 10.8987 103.486 38.8761
15999 1 11.8112 101.877 41.4281
21817 2 9.99096 101.886 40.1447
16001 1 13.6263 101.895 38.8643
18024 1 14.5399 103.47 41.4398
23800 2 12.7196 103.478 40.1565
21567 2 15.4472 101.886 40.1447
18025 1 16.3549 103.486 38.8761
23592 2 18.1759 103.478 40.1565
15673 1 17.2674 101.877 41.4281
18312 1 21.8112 103.486 38.8761
15718 1 19.0825 101.895 38.8643
17753 1 19.9962 103.47 41.4398
21232 2 20.9034 101.886 40.1447
18296 1 2.71485 105.078 38.887
18288 1 0.899856 105.062 41.4508
23952 2 1.80812 106.662 40.1776
18297 1 5.44342 106.669 38.8972
18286 1 3.62847 106.655 41.4609
23920 2 4.53578 105.07 40.1674
18205 1 8.17109 105.078 38.887
18201 1 6.35609 105.062 41.4508
18202 1 9.08471 106.655 41.4609
23918 2 7.26436 106.662 40.1776
18203 1 10.8997 106.669 38.8972
18018 1 11.8123 105.062 41.4508
23801 2 9.99202 105.07 40.1674
18026 1 13.6273 105.078 38.887
18016 1 14.5409 106.655 41.4609
23590 2 15.4483 105.07 40.1674
23802 2 12.7206 106.662 40.1776
18027 1 16.3559 106.669 38.8972
17754 1 17.2686 105.062 41.4508
23588 2 18.1768 106.662 40.1776
18310 1 21.8121 106.669 38.8972
17757 1 19.0836 105.078 38.887
17755 1 19.9972 106.655 41.4609
23292 2 20.9045 105.07 40.1674
18292 1 2.71572 108.26 38.9065
18287 1 0.900796 108.248 41.4703
23919 2 4.53666 108.254 40.187
18204 1 8.17195 108.26 38.9065
18193 1 6.35703 108.248 41.4703
18017 1 11.8133 108.248 41.4703
23797 2 9.9929 108.254 40.187
18022 1 13.6282 108.26 38.9065
23589 2 15.4491 108.254 40.187
17748 1 17.2695 108.248 41.4703
17756 1 19.0844 108.26 38.9065
23291 2 20.9054 108.254 40.187
18291 1 2.71642 111.442 38.9228
23948 2 1.80893 109.846 40.1955
18277 1 0.901558 111.434 41.4864
18290 1 5.44421 109.851 38.9151
18289 1 3.62932 109.841 41.4788
23912 2 4.53739 111.438 40.2032
18197 1 8.17266 111.442 38.9228
18191 1 9.08556 109.841 41.4788
23921 2 7.26516 109.846 40.1955
18192 1 6.3578 111.434 41.4864
18206 1 10.9004 109.851 38.9151
18006 1 11.814 111.434 41.4864
23796 2 9.99362 111.438 40.2032
18021 1 13.6289 111.442 38.9228
18019 1 14.5418 109.841 41.4788
23795 2 12.7214 109.846 40.1955
23582 2 15.4499 111.438 40.2032
18020 1 16.3567 109.851 38.9151
23591 2 18.1776 109.846 40.1955
17747 1 17.2703 111.434 41.4864
18311 1 21.8129 109.851 38.9151
17751 1 19.0851 111.442 38.9228
17746 1 19.998 109.841 41.4788
23290 2 20.9061 111.438 40.2032
18281 1 2.71697 114.625 38.9356
23949 2 1.80957 113.03 40.21
18276 1 0.902154 114.62 41.4992
18293 1 5.44483 113.034 38.9296
18275 1 3.63 113.027 41.4933
23911 2 4.53795 114.622 40.2159
18196 1 8.17321 114.625 38.9356
18194 1 9.08623 113.027 41.4933
23910 2 7.26581 113.03 40.21
18177 1 6.35839 114.62 41.4992
18195 1 10.9011 113.034 38.9296
18005 1 11.8146 114.62 41.4992
23785 2 9.99419 114.622 40.2159
18010 1 13.6294 114.625 38.9356
18004 1 14.5425 113.027 41.4933
23798 2 12.722 113.03 40.21
23581 2 15.4504 114.622 40.2159
18023 1 16.3573 113.034 38.9296
23580 2 18.1783 113.03 40.21
17734 1 17.2709 114.62 41.4992
18308 1 21.8135 113.034 38.9296
17750 1 19.0857 114.625 38.9356
17749 1 19.9987 113.027 41.4933
23283 2 20.9067 114.622 40.2159
18280 1 2.71737 117.808 38.9449
18265 1 0.90259 117.805 41.5085
23944 2 1.81006 116.214 40.221
18279 1 5.44531 116.216 38.9407
18278 1 3.63051 116.212 41.5043
23897 2 4.53837 117.807 40.2253
18181 1 8.17361 117.808 38.9449
18175 1 9.08675 116.212 41.5043
18176 1 6.35883 117.805 41.5085
23913 2 7.2663 116.214 40.221
18198 1 10.9015 116.216 38.9407
17986 1 11.8151 117.805 41.5085
23784 2 9.9946 117.807 40.2253
18009 1 13.6299 117.808 38.9449
18007 1 14.543 116.212 41.5043
23566 2 15.4508 117.807 40.2253
23783 2 12.7225 116.214 40.221
18008 1 16.3578 116.216 38.9407
17733 1 17.2713 117.805 41.5085
23583 2 18.1788 116.214 40.221
18309 1 21.814 116.216 38.9407
17737 1 19.0861 117.808 38.9449
17732 1 19.9992 116.212 41.5043
23282 2 20.9071 117.807 40.2253
18269 1 2.71764 120.991 38.9507
18264 1 0.902873 120.991 41.5143
23945 2 1.8104 119.399 40.2286
18282 1 5.44564 119.399 38.9482
18263 1 3.63087 119.398 41.5119
23896 2 4.53864 120.991 40.231
18180 1 8.17388 120.991 38.9507
18154 1 6.35911 120.991 41.5143
18178 1 9.08711 119.398 41.5119
23895 2 7.26664 119.399 40.2286
18179 1 10.9019 119.399 38.9482
17985 1 11.8153 120.991 41.5143
23765 2 9.99488 120.991 40.231
17990 1 13.6301 120.991 38.9507
17984 1 14.5433 119.398 41.5119
23565 2 15.4511 120.991 40.231
23786 2 12.7229 119.399 40.2286
18011 1 16.3581 119.399 38.9482
17712 1 17.2716 120.991 41.5143
23564 2 18.1791 119.399 40.2286
18306 1 21.8144 119.399 38.9482
17736 1 19.0864 120.991 38.9507
17735 1 19.9996 119.398 41.5119
23267 2 20.9074 120.991 40.231
18268 1 2.71777 124.174 38.9529
18253 1 0.903005 124.178 41.5165
23940 2 1.8106 122.583 40.2326
18267 1 5.44584 122.582 38.9523
18266 1 3.63108 122.584 41.5159
23881 2 4.53877 124.175 40.2333
18158 1 8.17401 124.174 38.9529
18152 1 9.08732 122.584 41.5159
18153 1 6.35924 124.178 41.5165
23898 2 7.26684 122.583 40.2326
18182 1 10.9021 122.582 38.9523
17958 1 11.8155 124.178 41.5165
23764 2 9.995 124.175 40.2333
17989 1 13.6302 124.174 38.9529
17987 1 14.5436 122.584 41.5159
23542 2 15.4512 124.175 40.2333
23763 2 12.7231 122.583 40.2326
17988 1 16.3583 122.582 38.9523
17711 1 17.2717 124.178 41.5165
23567 2 18.1793 122.583 40.2326
18307 1 21.8146 122.582 38.9523
17715 1 19.0865 124.174 38.9529
17710 1 19.9998 122.584 41.5159
23266 2 20.9075 124.175 40.2333
18257 1 2.71776 127.356 38.9516
18252 1 0.902986 127.364 41.5152
23941 2 1.81066 125.768 40.233
18270 1 5.4459 125.765 38.9527
18251 1 3.63113 125.771 41.5163
23880 2 4.53876 127.36 40.2319
18157 1 8.174 127.356 38.9516
18130 1 6.35922 127.364 41.5152
18155 1 9.08737 125.771 41.5163
23879 2 7.2669 125.768 40.233
18156 1 10.9021 125.765 38.9527
17957 1 11.8155 127.364 41.5152
23738 2 9.99499 127.36 40.2319
17962 1 13.6302 127.356 38.9516
17956 1 14.5436 125.771 41.5163
23541 2 15.4512 127.36 40.2319
23766 2 12.7231 125.768 40.233
17991 1 16.3584 125.765 38.9527
17682 1 17.2717 127.364 41.5152
23540 2 18.1794 125.768 40.233
18304 1 21.8146 125.765 38.9527
17714 1 19.0865 127.356 38.9516
17713 1 19.9998 125.771 41.5163
23243 2 20.9075 127.36 40.2319
23936 2 1.81058 128.952 40.2299
18255 1 5.44583 128.948 38.9496
18254 1 3.63104 128.957 41.5132
18128 1 9.08728 128.957 41.5132
23882 2 7.26682 128.952 40.2299
18159 1 10.9021 128.948 38.9496
17959 1 14.5435 128.957 41.5132
23736 2 12.7231 128.952 40.2299
17960 1 16.3583 128.948 38.9496
23543 2 18.1793 128.952 40.2299
18305 1 21.8145 128.948 38.9496
17680 1 19.9998 128.957 41.5132
18256 1 2.71762 130.539 38.9467
18241 1 0.902814 130.55 41.5103
23937 2 1.81035 132.137 40.2232
18258 1 5.44561 132.131 38.9428
23865 2 4.5386 130.544 40.227
18239 1 3.63079 132.143 41.5065
18134 1 8.17386 130.539 38.9467
18129 1 6.35905 130.55 41.5103
18131 1 9.08703 132.143 41.5065
23863 2 7.26659 132.137 40.2232
18132 1 10.9019 132.131 38.9428
17923 1 11.8153 130.55 41.5103
23737 2 9.99484 130.544 40.227
17961 1 13.6301 130.539 38.9467
23510 2 15.4511 130.544 40.227
17921 1 14.5433 132.143 41.5065
23739 2 12.7228 132.137 40.2232
17963 1 16.3581 132.131 38.9428
17681 1 17.2715 130.55 41.5103
23508 2 18.1791 132.137 40.2232
17685 1 19.0863 130.539 38.9467
18302 1 21.8143 132.131 38.9428
23242 2 20.9073 130.544 40.227
17683 1 19.9995 132.143 41.5065
18245 1 2.71733 133.722 38.9382
18240 1 0.902485 133.735 41.5018
23932 2 1.80997 135.321 40.2129
18243 1 5.44525 135.313 38.9326
18242 1 3.63038 135.328 41.4963
23864 2 4.5383 133.729 40.2185
18133 1 8.17357 133.722 38.9382
18104 1 9.08662 135.328 41.4963
18106 1 6.35872 133.735 41.5018
23866 2 7.26621 135.321 40.2129
18135 1 10.9015 135.313 38.9326
17922 1 11.815 133.735 41.5018
23710 2 9.99454 133.729 40.2185
17927 1 13.6298 133.722 38.9382
17924 1 14.5429 135.328 41.4963
23509 2 15.4508 133.729 40.2185
23708 2 12.7224 135.321 40.2129
17925 1 16.3577 135.313 38.9326
17644 1 17.2712 133.735 41.5018
23511 2 18.1787 135.321 40.2129
18303 1 21.814 135.313 38.9326
17684 1 19.086 133.722 38.9382
17642 1 19.9991 135.328 41.4963
23211 2 20.907 133.729 40.2185
18244 1 2.7169 136.905 38.9261
18229 1 0.901989 136.921 41.4898
23933 2 1.80943 138.505 40.1992
18246 1 5.44474 138.496 38.9188
18227 1 3.6298 138.514 41.4825
23849 2 4.53784 136.913 40.2065
18110 1 8.17313 136.905 38.9261
18105 1 6.35823 136.921 41.4898
18107 1 9.08603 138.514 41.4825
23847 2 7.26567 138.505 40.1992
18108 1 10.901 138.496 38.9188
17887 1 11.8145 136.921 41.4898
23709 2 9.99408 136.913 40.2065
17926 1 13.6294 136.905 38.9261
17885 1 14.5423 138.514 41.4825
23471 2 15.4503 136.913 40.2065
23711 2 12.7219 138.505 40.1992
17928 1 16.3572 138.496 38.9188
17643 1 17.2707 136.921 41.4898
23469 2 18.1781 138.505 40.1992
18300 1 21.8135 138.496 38.9188
17647 1 19.0856 136.905 38.9261
17645 1 19.9985 138.514 41.4825
23210 2 20.9066 136.913 40.2065
18233 1 2.7163 140.087 38.9106
18228 1 0.901318 140.107 41.4744
23928 2 1.80872 141.689 40.182
18231 1 5.44405 141.678 38.9016
18230 1 3.62903 141.7 41.4653
23848 2 4.53722 140.097 40.191
18109 1 8.17254 140.087 38.9106
18080 1 9.08527 141.7 41.4653
18082 1 6.35756 140.107 41.4744
23850 2 7.26496 141.689 40.182
18111 1 10.9003 141.678 38.9016
17886 1 11.8138 140.107 41.4744
23682 2 9.99345 140.097 40.191
17891 1 13.6288 140.087 38.9106
17888 1 14.5415 141.7 41.4653
23470 2 15.4497 140.097 40.191
23680 2 12.7212 141.689 40.182
17889 1 16.3565 141.678 38.9016
17599 1 17.27 140.107 41.4744
23472 2 18.1774 141.689 40.182
18301 1 21.8128 141.678 38.9016
17646 1 19.085 140.087 38.9106
17597 1 19.9977 141.7 41.4653
23171 2 20.9059 140.097 40.191
18232 1 2.71553 143.269 38.8917
18218 1 0.90046 143.292 41.4555
23929 2 1.80783 144.873 40.1614
18234 1 5.44319 144.86 38.881
18216 1 3.62808 144.885 41.4448
23833 2 4.53642 143.281 40.1721
18086 1 8.17176 143.269 38.8917
18081 1 6.3567 143.292 41.4555
18083 1 9.08431 144.885 41.4448
23831 2 7.26407 144.873 40.1614
18084 1 10.8994 144.86 38.881
17852 1 11.8129 143.292 41.4555
23681 2 9.99266 143.281 40.1721
17890 1 13.628 143.269 38.8917
17850 1 14.5406 144.885 41.4448
23431 2 15.4489 143.281 40.1721
23683 2 12.7203 144.873 40.1614
17892 1 16.3557 144.86 38.881
17598 1 17.2692 143.292 41.4555
23429 2 18.1765 144.873 40.1614
18298 1 21.8119 144.86 38.881
17602 1 19.0842 143.269 38.8917
17600 1 19.9968 144.885 41.4448
23170 2 20.9051 143.281 40.1721
18222 1 2.71457 146.451 38.8696
18217 1 0.899402 146.478 41.4333
23925 2 1.80675 148.056 40.1376
18220 1 5.44214 148.042 38.8573
18219 1 3.62691 148.071 41.421
23832 2 4.53543 146.464 40.1499
18085 1 8.17081 146.451 38.8696
18060 1 9.08315 148.071 41.421
18062 1 6.35564 146.478 41.4333
23834 2 7.26299 148.056 40.1376
18087 1 10.8984 148.042 38.8573
17851 1 11.8119 146.478 41.4333
23655 2 9.99167 146.464 40.1499
17856 1 13.627 146.451 38.8696
17853 1 14.5394 148.071 41.421
23430 2 15.4479 146.464 40.1499
23653 2 12.7192 148.056 40.1376
17854 1 16.3546 148.042 38.8573
17555 1 17.2681 146.478 41.4333
23432 2 18.1755 148.056 40.1376
18299 1 21.8109 148.042 38.8573
17601 1 19.0833 146.451 38.8696
17553 1 19.9956 148.071 41.421
23124 2 20.9042 146.464 40.1499
18221 1 2.71342 149.633 38.8442
18211 1 0.898131 149.663 41.4079
23818 2 4.53426 149.648 40.1245
18063 1 8.16966 149.633 38.8442
18061 1 6.35437 149.663 41.4079
17821 1 11.8106 149.663 41.4079
23654 2 9.99049 149.648 40.1245
17855 1 13.6259 149.633 38.8442
23392 2 15.4467 149.648 40.1245
17554 1 17.2668 149.663 41.4079
17556 1 19.0821 149.633 38.8442
23123 2 20.903 149.648 40.1245
18284 1 1.81314 103.453 44.0023
22001 2 2.72003 101.867 42.7078
23915 2 5.44874 103.461 42.7196
16231 1 4.54066 101.858 43.9905
18199 1 7.26938 103.453 44.0023
21815 2 8.17627 101.867 42.7078
23799 2 10.905 103.461 42.7196
15969 1 9.9969 101.858 43.9905
18013 1 12.7256 103.453 44.0023
15671 1 15.4531 101.858 43.9905
21529 2 13.6325 101.867 42.7078
17752 1 18.1819 103.453 44.0023
23585 2 16.3612 103.461 42.7196
23950 2 21.8175 103.461 42.7196
15339 1 20.9094 101.858 43.9905
21230 2 19.0887 101.867 42.7078
18285 1 1.8142 106.641 44.0235
23916 2 2.72115 105.055 42.7306
18189 1 4.54182 105.047 44.0133
23917 2 5.44976 106.648 42.7408
18187 1 7.27044 106.641 44.0235
23793 2 8.17739 105.055 42.7306
18014 1 9.99805 105.047 44.0133
23791 2 10.906 106.648 42.7408
17744 1 15.4543 105.047 44.0133
18015 1 12.7267 106.641 44.0235
23586 2 13.6336 105.055 42.7306
17742 1 18.1829 106.641 44.0235
23587 2 16.3622 106.648 42.7408
23946 2 21.8185 106.648 42.7408
17412 1 20.9105 105.047 44.0133
23289 2 19.0899 105.055 42.7306
23908 2 2.72209 108.242 42.7501
18188 1 4.54278 108.236 44.0329
23792 2 8.17833 108.242 42.7501
18002 1 9.99902 108.236 44.0329
17743 1 15.4553 108.236 44.0329
23578 2 13.6346 108.242 42.7501
17411 1 20.9115 108.236 44.0329
23288 2 19.0908 108.242 42.7501
18273 1 1.81508 109.83 44.0414
23907 2 2.72285 111.429 42.7663
23906 2 5.45061 109.836 42.7586
18173 1 4.54357 111.425 44.0491
18190 1 7.27132 109.83 44.0414
23781 2 8.17909 111.429 42.7663
23794 2 10.9068 109.836 42.7586
18001 1 9.99981 111.425 44.0491
18000 1 12.7276 109.83 44.0414
17730 1 15.456 111.425 44.0491
23577 2 13.6353 111.429 42.7663
17745 1 18.1838 109.83 44.0414
23576 2 16.3631 109.836 42.7586
23947 2 21.8193 109.836 42.7586
17410 1 20.9123 111.425 44.0491
23281 2 19.0916 111.429 42.7663
18274 1 1.81578 113.019 44.0559
23893 2 2.72345 114.617 42.7791
23909 2 5.45129 113.023 42.7731
18172 1 4.54418 114.614 44.0619
18171 1 7.27202 113.019 44.0559
23780 2 8.17969 114.617 42.7791
23779 2 10.9075 113.023 42.7731
17982 1 10.0004 114.614 44.0619
18003 1 12.7283 113.019 44.0559
17729 1 15.4567 114.614 44.0619
23562 2 13.6359 114.617 42.7791
17728 1 18.1845 113.019 44.0559
23579 2 16.3638 113.023 42.7731
23942 2 21.82 113.023 42.7731
17403 1 20.9129 114.614 44.0619
23280 2 19.0922 114.617 42.7791
18261 1 1.81631 116.209 44.067
23892 2 2.72389 117.804 42.7884
18150 1 4.54464 117.803 44.0712
23891 2 5.45181 116.21 42.7842
18174 1 7.27255 116.209 44.067
23761 2 8.18013 117.804 42.7884
17981 1 10.0009 117.803 44.0712
23782 2 10.908 116.21 42.7842
17708 1 15.4571 117.803 44.0712
17980 1 12.7288 116.209 44.067
23561 2 13.6364 117.804 42.7884
17731 1 18.185 116.209 44.067
23560 2 16.3643 116.21 42.7842
23943 2 21.8205 116.21 42.7842
17402 1 20.9134 117.803 44.0712
23265 2 19.0926 117.804 42.7884
18262 1 1.81668 119.398 44.0745
23877 2 2.72417 120.992 42.7942
18149 1 4.54493 120.992 44.077
23894 2 5.45217 119.398 42.7917
18148 1 7.27292 119.398 44.0745
23760 2 8.18041 120.992 42.7942
17954 1 10.0012 120.992 44.077
23759 2 10.9084 119.398 42.7917
17707 1 15.4574 120.992 44.077
17983 1 12.7292 119.398 44.0745
23538 2 13.6366 120.992 42.7942
17706 1 18.1854 119.398 44.0745
23563 2 16.3646 119.398 42.7917
23938 2 21.8209 119.398 42.7917
17387 1 20.9136 120.992 44.077
23264 2 19.0929 120.992 42.7942
18249 1 1.81689 122.587 44.0785
23876 2 2.7243 124.179 42.7964
18126 1 4.54506 124.181 44.0792
23875 2 5.45238 122.586 42.7957
18151 1 7.27313 122.587 44.0785
23734 2 8.18054 124.179 42.7964
17953 1 10.0013 124.181 44.0792
23762 2 10.9086 122.586 42.7957
17678 1 15.4575 124.181 44.0792
17952 1 12.7294 122.587 44.0785
23537 2 13.6368 124.179 42.7964
17709 1 18.1856 122.587 44.0785
23536 2 16.3649 122.586 42.7957
23939 2 21.8211 122.586 42.7957
17386 1 20.9138 124.181 44.0792
23241 2 19.093 124.179 42.7964
18250 1 1.81694 125.776 44.079
23861 2 2.72428 127.367 42.7951
18125 1 4.54503 127.371 44.0779
23878 2 5.45243 125.773 42.7962
18124 1 7.27318 125.776 44.079
23733 2 8.18052 127.367 42.7951
17919 1 10.0013 127.371 44.0779
23732 2 10.9087 125.773 42.7962
17677 1 15.4575 127.371 44.0779
17955 1 12.7294 125.776 44.079
23506 2 13.6368 127.367 42.7951
17676 1 18.1857 125.776 44.079
23539 2 16.3649 125.773 42.7962
23934 2 21.8211 125.773 42.7962
17363 1 20.9137 127.371 44.0779
23240 2 19.093 127.367 42.7951
18237 1 1.81684 128.965 44.0759
23859 2 5.45233 128.961 42.7931
18127 1 7.27307 128.965 44.0759
23735 2 10.9086 128.961 42.7931
17917 1 12.7293 128.965 44.0759
17679 1 18.1856 128.965 44.0759
23504 2 16.3648 128.961 42.7931
23935 2 21.821 128.961 42.7931
23860 2 2.7241 130.555 42.7902
18238 1 1.81656 132.154 44.0692
18102 1 4.54484 130.56 44.073
23862 2 5.45207 132.148 42.7864
23706 2 8.18034 130.555 42.7902
18100 1 7.2728 132.154 44.0692
17918 1 10.0011 130.56 44.073
23704 2 10.9083 132.148 42.7864
17640 1 15.4573 130.56 44.073
23505 2 13.6366 130.555 42.7902
17920 1 12.729 132.154 44.0692
17638 1 18.1853 132.154 44.0692
23507 2 16.3646 132.148 42.7864
17362 1 20.9136 130.56 44.073
23209 2 19.0928 130.555 42.7902
23930 2 21.8208 132.148 42.7864
18225 1 1.81612 135.343 44.0589
23845 2 2.72376 133.742 42.7817
18101 1 4.54448 133.749 44.0645
23843 2 5.45165 135.336 42.7761
18103 1 7.27236 135.343 44.0589
23705 2 8.18 133.742 42.7817
17883 1 10.0007 133.749 44.0645
23707 2 10.9079 135.336 42.7761
17639 1 15.457 133.749 44.0645
17881 1 12.7286 135.343 44.0589
23467 2 13.6362 133.742 42.7817
17641 1 18.1848 135.343 44.0589
23465 2 16.3641 135.336 42.7761
23931 2 21.8204 135.336 42.7761
17331 1 20.9132 133.749 44.0645
23208 2 19.0925 133.742 42.7817
18226 1 1.81551 138.532 44.0452
23844 2 2.72326 136.93 42.7697
18078 1 4.54396 136.938 44.0525
23846 2 5.45106 138.523 42.7624
18076 1 7.27174 138.532 44.0452
23678 2 8.1795 136.93 42.7697
17882 1 10.0002 136.938 44.0525
23676 2 10.9073 138.523 42.7624
17595 1 15.4564 136.938 44.0525
17884 1 12.728 138.532 44.0452
23466 2 13.6357 136.93 42.7697
17593 1 18.1842 138.532 44.0452
23468 2 16.3635 138.523 42.7624
23926 2 21.8198 138.523 42.7624
17330 1 20.9127 136.938 44.0525
23169 2 19.092 136.93 42.7697
18214 1 1.8147 141.721 44.028
23829 2 2.72258 140.117 42.7542
18077 1 4.54325 140.127 44.037
23827 2 5.4503 141.711 42.7452
18079 1 7.27094 141.721 44.028
23677 2 8.17882 140.117 42.7542
17848 1 9.99949 140.127 44.037
23679 2 10.9065 141.711 42.7452
17594 1 15.4557 140.127 44.037
17846 1 12.7272 141.721 44.028
23427 2 13.6351 140.117 42.7542
17596 1 18.1834 141.721 44.028
23425 2 16.3628 141.711 42.7452
23927 2 21.819 141.711 42.7452
17291 1 20.912 140.127 44.037
23168 2 19.0913 140.117 42.7542
18215 1 1.81371 144.91 44.0073
23828 2 2.72172 143.304 42.7353
18058 1 4.54235 143.316 44.0181
23830 2 5.44934 144.898 42.7246
18056 1 7.26994 144.91 44.0073
23651 2 8.17796 143.304 42.7353
17847 1 9.99859 143.316 44.0181
23649 2 10.9056 144.898 42.7246
17551 1 15.4548 143.316 44.0181
17849 1 12.7262 144.91 44.0073
23426 2 13.6342 143.304 42.7353
17549 1 18.1824 144.91 44.0073
23428 2 16.3618 144.898 42.7246
23923 2 21.8181 144.898 42.7246
17290 1 20.9111 143.316 44.0181
23122 2 19.0904 143.304 42.7353
18210 1 1.8125 148.099 43.9834
23817 2 2.72067 146.491 42.713
18057 1 4.54125 146.505 43.9958
23815 2 5.44818 148.085 42.7007
18059 1 7.26874 148.099 43.9834
23650 2 8.17691 146.491 42.713
17820 1 9.99749 146.505 43.9958
23652 2 10.9044 148.085 42.7007
17550 1 15.4537 146.505 43.9958
17818 1 12.725 148.099 43.9834
23391 2 13.6331 146.491 42.713
17552 1 18.1812 148.099 43.9834
23389 2 16.3607 148.085 42.7007
23924 2 21.8169 148.085 42.7007
17245 1 20.91 146.505 43.9958
23121 2 19.0894 146.491 42.713
23816 2 2.71941 149.678 42.6875
18043 1 4.53994 149.694 43.9702
23628 2 8.17565 149.678 42.6875
17819 1 9.99618 149.694 43.9702
17512 1 15.4524 149.694 43.9702
23390 2 13.6319 149.678 42.6875
17244 1 20.9087 149.694 43.9702
23076 2 19.0881 149.678 42.6875
21999 2 0.906119 101.849 45.2696
16217 1 2.72712 101.839 46.5517
23914 2 3.63482 103.444 45.2815
18184 1 5.45582 103.435 46.5636
23788 2 9.09106 103.444 45.2815
21793 2 6.36236 101.849 45.2696
15967 1 8.18336 101.839 46.5517
21527 2 11.8186 101.849 45.2696
18012 1 10.9121 103.435 46.5636
23584 2 14.5473 103.444 45.2815
15633 1 13.6396 101.839 46.5517
21185 2 17.2748 101.849 45.2696
17739 1 16.3683 103.435 46.5636
23285 2 20.0035 103.444 45.2815
18283 1 21.8245 103.435 46.5636
15337 1 19.0958 101.839 46.5517
23904 2 0.907237 105.039 45.2926
18185 1 2.72825 105.032 46.5747
18271 1 0.000622715 106.628 46.585
23902 2 3.63585 106.634 45.3028
18186 1 5.45686 106.628 46.585
23789 2 6.36348 105.039 45.2926
23790 2 9.09209 106.634 45.3028
17998 1 8.18448 105.032 46.5747
23574 2 11.8197 105.039 45.2926
17996 1 10.9131 106.628 46.585
23572 2 14.5483 106.634 45.3028
17740 1 13.6407 105.032 46.5747
23286 2 17.276 105.039 45.2926
17741 1 16.3693 106.628 46.585
23287 2 20.0046 106.634 45.3028
17409 1 19.097 105.032 46.5747
23903 2 0.90818 108.23 45.3122
18169 1 2.7292 108.224 46.5944
23777 2 6.36442 108.23 45.3122
17997 1 8.18543 108.224 46.5944
23573 2 11.8207 108.23 45.3122
17726 1 13.6417 108.224 46.5944
23278 2 17.2769 108.23 45.3122
17408 1 19.0979 108.224 46.5944
23889 2 0.908953 111.42 45.3285
18168 1 2.72998 111.416 46.6108
18272 1 0.00148793 109.82 46.603
18167 1 5.45773 109.82 46.603
23905 2 3.63671 109.825 45.3208
23775 2 9.09295 109.825 45.3208
23776 2 6.36519 111.42 45.3285
17978 1 8.18622 111.416 46.6108
17999 1 10.914 109.82 46.603
23558 2 11.8214 111.42 45.3285
23575 2 14.5492 109.825 45.3208
17725 1 13.6425 111.416 46.6108
17724 1 16.3702 109.82 46.603
23277 2 17.2777 111.42 45.3285
23276 2 20.0054 109.825 45.3208
17401 1 19.0987 111.416 46.6108
23888 2 0.909562 114.611 45.3413
18146 1 2.73059 114.608 46.6236
18259 1 0.00218565 113.012 46.6176
23887 2 3.6374 113.016 45.3353
18170 1 5.45842 113.012 46.6176
23778 2 9.09364 113.016 45.3353
23757 2 6.3658 114.611 45.3413
17977 1 8.18683 114.608 46.6236
23557 2 11.822 114.611 45.3413
17976 1 10.9147 113.012 46.6176
23556 2 14.5499 113.016 45.3353
17704 1 13.6431 114.608 46.6236
23262 2 17.2783 114.611 45.3413
17727 1 16.3709 113.012 46.6176
23279 2 20.0061 113.016 45.3353
17400 1 19.0993 114.608 46.6236
23873 2 0.910008 117.802 45.3506
18145 1 2.73104 117.801 46.6329
18260 1 0.002719 116.205 46.6287
23890 2 3.63792 116.206 45.3464
18144 1 5.45896 116.205 46.6287
23755 2 9.09416 116.206 45.3464
23756 2 6.36625 117.802 45.3506
17950 1 8.18728 117.801 46.6329
23534 2 11.8225 117.802 45.3506
17979 1 10.9152 116.205 46.6287
23559 2 14.5504 116.206 45.3464
17703 1 13.6435 117.801 46.6329
23261 2 17.2787 117.802 45.3506
17702 1 16.3714 116.205 46.6287
23260 2 20.0066 116.206 45.3464
17385 1 19.0998 117.801 46.6329
23872 2 0.910296 120.993 45.3564
18122 1 2.73133 120.993 46.6387
18247 1 0.00308988 119.397 46.6363
23871 2 3.63829 119.397 45.3539
18147 1 5.45933 119.397 46.6363
23730 2 6.36653 120.993 45.3564
23758 2 9.09453 119.397 45.3539
17949 1 8.18757 120.993 46.6387
23533 2 11.8228 120.993 45.3564
17948 1 10.9156 119.397 46.6363
23532 2 14.5508 119.397 45.3539
17674 1 13.6438 120.993 46.6387
23238 2 17.279 120.993 45.3564
17705 1 16.3718 119.397 46.6363
23263 2 20.007 119.397 45.3539
17384 1 19.1 120.993 46.6387
23857 2 0.910425 124.183 45.3586
18121 1 2.73146 124.185 46.6409
18248 1 0.00329911 122.589 46.6403
23874 2 3.6385 122.588 45.3579
18120 1 5.45954 122.589 46.6403
23728 2 9.09474 122.588 45.3579
23729 2 6.36666 124.183 45.3586
17915 1 8.1877 124.185 46.6409
23502 2 11.8229 124.183 45.3586
17951 1 10.9158 122.589 46.6403
23535 2 14.551 122.588 45.3579
17673 1 13.6439 124.185 46.6409
23237 2 17.2791 124.183 45.3586
17672 1 16.372 122.589 46.6403
23236 2 20.0072 122.588 45.3579
17361 1 19.1002 124.185 46.6409
23856 2 0.910394 127.374 45.3573
18098 1 2.73143 127.378 46.6396
18235 1 0.00334634 125.782 46.6407
23855 2 3.63855 125.779 45.3584
18123 1 5.45958 125.782 46.6407
23702 2 6.36663 127.374 45.3573
23731 2 9.09479 125.779 45.3584
17914 1 8.18767 127.378 46.6396
23501 2 11.8229 127.374 45.3573
17913 1 10.9158 125.782 46.6407
23500 2 14.551 125.779 45.3584
17636 1 13.6439 127.378 46.6396
23206 2 17.2791 127.374 45.3573
17675 1 16.3721 125.782 46.6407
23239 2 20.0073 125.779 45.3584
17360 1 19.1001 127.378 46.6396
18236 1 0.00323013 128.974 46.6376
23858 2 3.63844 128.97 45.3553
18096 1 5.45947 128.974 46.6376
23700 2 9.09468 128.97 45.3553
17916 1 10.9157 128.974 46.6376
23503 2 14.5509 128.97 45.3553
17634 1 16.3719 128.974 46.6376
23204 2 20.0072 128.97 45.3553
23841 2 0.910203 130.565 45.3523
18097 1 2.73123 130.57 46.6347
18223 1 0.0029479 132.166 46.6309
23839 2 3.63816 132.16 45.3485
18099 1 5.45919 132.166 46.6309
23701 2 6.36644 130.565 45.3523
23703 2 9.0944 132.16 45.3485
17879 1 8.18747 130.57 46.6347
23463 2 11.8227 130.565 45.3523
17877 1 10.9154 132.166 46.6309
23461 2 14.5506 132.16 45.3485
17635 1 13.6437 130.57 46.6347
23205 2 17.2789 130.565 45.3523
17637 1 16.3717 132.166 46.6309
23207 2 20.0069 132.16 45.3485
17329 1 19.0999 130.57 46.6347
23840 2 0.909847 133.756 45.3439
18074 1 2.73086 133.763 46.6262
18224 1 0.00249604 135.359 46.6206
23842 2 3.63772 135.351 45.3383
18072 1 5.45873 135.359 46.6206
23672 2 9.09396 135.351 45.3383
23674 2 6.36609 133.756 45.3439
17878 1 8.1871 133.763 46.6262
23462 2 11.8223 133.756 45.3439
17880 1 10.915 135.359 46.6206
23464 2 14.5502 135.351 45.3383
17591 1 13.6433 133.763 46.6262
23166 2 17.2786 133.756 45.3439
17589 1 16.3712 135.359 46.6206
23164 2 20.0064 135.351 45.3383
17328 1 19.0996 133.763 46.6262
23825 2 0.909321 136.946 45.3318
18073 1 2.73032 136.955 46.6141
18212 1 0.00187007 138.551 46.6068
23823 2 3.63711 138.542 45.3245
18075 1 5.45811 138.551 46.6068
23673 2 6.36556 136.946 45.3318
23675 2 9.09335 138.542 45.3245
17844 1 8.18656 136.955 46.6141
23423 2 11.8218 136.946 45.3318
17842 1 10.9143 138.551 46.6068
23421 2 14.5496 138.542 45.3245
17590 1 13.6428 136.955 46.6141
23165 2 17.278 136.946 45.3318
17592 1 16.3706 138.551 46.6068
23167 2 20.0058 138.542 45.3245
17289 1 19.099 136.955 46.6141
23824 2 0.90862 140.137 45.3163
18054 1 2.72961 140.147 46.5985
18213 1 0.00106473 141.743 46.5894
23826 2 3.63632 141.732 45.3072
18052 1 5.4573 141.743 46.5894
23645 2 9.09256 141.732 45.3072
23647 2 6.36486 140.137 45.3163
17843 1 8.18585 140.147 46.5985
23422 2 11.8211 140.137 45.3163
17845 1 10.9135 141.743 46.5894
23424 2 14.5488 141.732 45.3072
17547 1 13.6421 140.147 46.5985
23119 2 17.2773 140.137 45.3163
17545 1 16.3698 141.743 46.5894
23117 2 20.005 141.732 45.3072
17288 1 19.0983 140.147 46.5985
23813 2 0.907738 143.328 45.2973
18053 1 2.72871 143.339 46.5795
18208 1 7.42051e-05 144.936 46.5686
23811 2 3.63535 144.923 45.2865
18055 1 5.45631 144.936 46.5686
23646 2 6.36398 143.328 45.2973
23648 2 9.09158 144.923 45.2865
17816 1 8.18495 143.339 46.5795
23387 2 11.8202 143.328 45.2973
17814 1 10.9126 144.936 46.5686
23385 2 14.5478 144.923 45.2865
17546 1 13.6412 143.339 46.5795
23118 2 17.2765 143.328 45.2973
17548 1 16.3688 144.936 46.5686
23120 2 20.0041 144.923 45.2865
17243 1 19.0974 143.339 46.5795
23812 2 0.906668 146.518 45.2748
18042 1 2.72763 146.532 46.5569
18209 1 -0.00110769 148.128 46.5444
23814 2 3.63418 148.114 45.2624
18040 1 5.45513 148.128 46.5444
23625 2 9.09042 148.114 45.2624
23627 2 6.36291 146.518 45.2748
17815 1 8.18387 146.532 46.5569
23386 2 11.8191 146.518 45.2748
17817 1 10.9114 148.128 46.5444
23388 2 14.5467 148.114 45.2624
17511 1 13.6401 146.532 46.5569
23075 2 17.2754 146.518 45.2748
17509 1 16.3676 148.128 46.5444
23073 2 20.0029 148.114 45.2624
17242 1 19.0963 146.532 46.5569
23806 2 0.905403 149.709 45.2491
18041 1 2.72635 149.724 46.531
23626 2 6.36164 149.709 45.2491
17793 1 8.18259 149.724 46.531
23356 2 11.8179 149.709 45.2491
17510 1 13.6388 149.724 46.531
23074 2 17.2741 149.709 45.2491
17199 1 19.0951 149.724 46.531
23900 2 1.82162 103.427 47.8422
16215 1 0.914313 101.82 49.1116
21791 2 4.54919 101.83 47.8301
18183 1 3.64298 103.418 49.1237
23787 2 7.27786 103.427 47.8422
17993 1 9.09922 103.418 49.1237
15945 1 6.37055 101.82 49.1116
21497 2 10.0054 101.83 47.8301
15631 1 11.8268 101.82 49.1116
23569 2 12.7341 103.427 47.8422
21183 2 15.4617 101.83 47.8301
17738 1 14.5555 103.418 49.1237
23284 2 18.1903 103.427 47.8422
15294 1 17.283 101.82 49.1116
20855 2 20.9179 101.83 47.8301
17405 1 20.0117 103.418 49.1237
23901 2 1.82262 106.621 47.8637
18165 1 0.915366 105.016 49.135
23773 2 4.55026 105.024 47.8534
18163 1 3.64396 106.614 49.1454
23771 2 7.27885 106.621 47.8637
17994 1 6.3716 105.016 49.135
17995 1 9.10019 106.614 49.1454
23570 2 10.0065 105.024 47.8534
17722 1 11.8278 105.016 49.135
23274 2 15.4627 105.024 47.8534
23571 2 12.7351 106.621 47.8637
17720 1 14.5564 106.614 49.1454
23272 2 18.1913 106.621 47.8637
17406 1 17.2841 105.016 49.135
22932 2 20.919 105.024 47.8534
17407 1 20.0127 106.614 49.1454
18164 1 0.916269 108.212 49.1549
23772 2 4.55117 108.218 47.8732
17974 1 6.37251 108.212 49.1549
23554 2 10.0074 108.218 47.8732
17721 1 11.8287 108.212 49.1549
23273 2 15.4636 108.218 47.8732
17398 1 17.285 108.212 49.1549
22931 2 20.9199 108.218 47.8732
23885 2 1.82345 109.815 47.8818
18142 1 0.91702 111.407 49.1714
18166 1 3.64478 109.809 49.1636
23753 2 4.55193 111.412 47.8896
23774 2 7.27969 109.815 47.8818
17972 1 9.10102 109.809 49.1636
17973 1 6.37326 111.407 49.1714
23553 2 10.0082 111.412 47.8896
17700 1 11.8295 111.407 49.1714
23552 2 12.7359 109.815 47.8818
17723 1 14.5573 109.809 49.1636
23258 2 15.4644 111.412 47.8896
23275 2 18.1922 109.815 47.8818
17397 1 17.2857 111.407 49.1714
17396 1 20.0135 109.809 49.1636
22930 2 20.9206 111.412 47.8896
23886 2 1.82413 113.008 47.8965
18141 1 0.917617 114.603 49.1843
23752 2 4.55253 114.605 47.9025
18140 1 3.64546 113.005 49.1783
23751 2 7.28037 113.008 47.8965
17975 1 9.1017 113.005 49.1783
17946 1 6.37386 114.603 49.1843
23530 2 10.0088 114.605 47.9025
17699 1 11.8301 114.603 49.1843
23555 2 12.7366 113.008 47.8965
23257 2 15.465 114.605 47.9025
17698 1 14.5579 113.005 49.1783
23256 2 18.1928 113.008 47.8965
17382 1 17.2863 114.603 49.1843
22923 2 20.9212 114.605 47.9025
17399 1 20.0142 113.005 49.1783
23869 2 1.82465 116.202 47.9076
18118 1 0.918058 117.798 49.1937
23726 2 4.55297 117.799 47.9118
18143 1 3.64598 116.2 49.1894
23754 2 7.28089 116.202 47.9076
17944 1 9.10221 116.2 49.1894
17945 1 6.3743 117.798 49.1937
23529 2 10.0092 117.799 47.9118
17670 1 11.8305 117.798 49.1937
23234 2 15.4654 117.799 47.9118
23528 2 12.7371 116.202 47.9076
17701 1 14.5585 116.2 49.1894
23259 2 18.1934 116.202 47.9076
17381 1 17.2868 117.798 49.1937
22922 2 20.9217 117.799 47.9118
17380 1 20.0147 116.2 49.1894
23870 2 1.82501 119.396 47.9152
18117 1 0.918342 120.994 49.1995
23725 2 4.55325 120.993 47.9176
18116 1 3.64634 119.396 49.197
23724 2 7.28125 119.396 47.9152
17911 1 6.37458 120.994 49.1995
17947 1 9.10258 119.396 49.197
23498 2 10.0095 120.993 47.9176
17669 1 11.8308 120.994 49.1995
23233 2 15.4657 120.993 47.9176
23531 2 12.7375 119.396 47.9152
17668 1 14.5588 119.396 49.197
23232 2 18.1937 119.396 47.9152
17358 1 17.2871 120.994 49.1995
22907 2 20.922 120.993 47.9176
17383 1 20.0151 119.396 49.197
23853 2 1.82522 122.59 47.9192
18094 1 0.918465 124.189 49.2017
23698 2 4.55338 124.187 47.9199
18119 1 3.64654 122.592 49.2011
23727 2 7.28146 122.59 47.9192
17909 1 9.10278 122.592 49.2011
17910 1 6.3747 124.189 49.2017
23497 2 10.0096 124.187 47.9199
17632 1 11.8309 124.189 49.2017
23202 2 15.4659 124.187 47.9199
23496 2 12.7377 122.59 47.9192
17671 1 14.559 122.592 49.2011
23235 2 18.1939 122.59 47.9192
17357 1 17.2872 124.189 49.2017
22906 2 20.9221 124.187 47.9199
17356 1 20.0153 122.592 49.2011
23854 2 1.82526 125.784 47.9196
18093 1 0.918428 127.385 49.2004
23697 2 4.55334 127.381 47.9185
18092 1 3.64659 125.787 49.2015
23696 2 7.2815 125.784 47.9196
17875 1 6.37467 127.385 49.2004
17912 1 9.10282 125.787 49.2015
23459 2 10.0096 127.381 47.9185
17631 1 11.8309 127.385 49.2004
23201 2 15.4658 127.381 47.9185
23499 2 12.7377 125.784 47.9196
17630 1 14.5591 125.787 49.2015
23200 2 18.194 125.784 47.9196
17326 1 17.2871 127.385 49.2004
22883 2 20.9221 127.381 47.9185
17359 1 20.0153 125.787 49.2015
23837 2 1.82515 128.978 47.9165
18095 1 3.64647 128.983 49.1983
23699 2 7.28139 128.978 47.9165
17873 1 9.10271 128.983 49.1983
23457 2 12.7376 128.978 47.9165
17633 1 14.5589 128.983 49.1983
23203 2 18.1939 128.978 47.9165
17324 1 20.0152 128.983 49.1983
18070 1 0.918227 130.581 49.1954
23838 2 1.82487 132.172 47.9098
23670 2 4.55315 130.575 47.9136
18068 1 3.64618 132.178 49.1916
17874 1 6.37447 130.581 49.1954
23668 2 7.28111 132.172 47.9098
17876 1 9.10242 132.178 49.1916
23458 2 10.0094 130.575 47.9136
17587 1 11.8307 130.581 49.1954
23162 2 15.4656 130.575 47.9136
23460 2 12.7373 132.172 47.9098
17585 1 14.5587 132.178 49.1916
17325 1 17.2869 130.581 49.1954
23160 2 18.1936 132.172 47.9098
22882 2 20.9219 130.575 47.9136
17327 1 20.0149 132.178 49.1916
23821 2 1.82442 135.366 47.8994
18069 1 0.917862 133.776 49.1869
23669 2 4.55279 133.769 47.905
18071 1 3.64574 135.374 49.1813
23671 2 7.28066 135.366 47.8994
17838 1 9.10197 135.374 49.1813
17840 1 6.3741 133.776 49.1869
23419 2 10.009 133.769 47.905
17586 1 11.8303 133.776 49.1869
23161 2 15.4653 133.769 47.905
23417 2 12.7369 135.366 47.8994
17588 1 14.5582 135.374 49.1813
23163 2 18.1931 135.366 47.8994
17286 1 17.2866 133.776 49.1869
22851 2 20.9215 133.769 47.905
17284 1 20.0145 135.374 49.1813
23822 2 1.82381 138.56 47.8856
18050 1 0.91733 136.972 49.1747
23643 2 4.55226 136.963 47.8929
18048 1 3.64512 138.57 49.1673
23641 2 7.28005 138.56 47.8856
17839 1 6.37357 136.972 49.1747
17841 1 9.10136 138.57 49.1673
23418 2 10.0085 136.963 47.8929
17543 1 11.8298 136.972 49.1747
23115 2 15.4647 136.963 47.8929
23420 2 12.7363 138.56 47.8856
17541 1 14.5576 138.57 49.1673
23113 2 18.1925 138.56 47.8856
17285 1 17.286 136.972 49.1747
22850 2 20.921 136.963 47.8929
17287 1 20.0138 138.57 49.1673
23809 2 1.82303 141.754 47.8681
18049 1 0.916633 140.167 49.159
23642 2 4.55156 140.157 47.8773
18051 1 3.64434 141.765 49.1498
23644 2 7.27927 141.754 47.8681
17810 1 9.10058 141.765 49.1498
17812 1 6.37287 140.167 49.159
23383 2 10.0078 140.157 47.8773
17542 1 11.8291 140.167 49.159
23114 2 15.464 140.157 47.8773
23381 2 12.7355 141.754 47.8681
17544 1 14.5568 141.765 49.1498
23116 2 18.1917 141.754 47.8681
17240 1 17.2853 140.167 49.159
22811 2 20.9203 140.157 47.8773
17238 1 20.0131 141.765 49.1498
23810 2 1.82208 144.948 47.8472
18038 1 0.91577 143.363 49.1397
23623 2 4.5507 143.351 47.8581
18036 1 3.6434 144.961 49.1287
23621 2 7.27832 144.948 47.8472
17811 1 6.37201 143.363 49.1397
17813 1 9.09963 144.961 49.1287
23382 2 10.0069 143.351 47.8581
17507 1 11.8282 143.363 49.1397
23071 2 15.4632 143.351 47.8581
23384 2 12.7346 144.948 47.8472
17505 1 14.5559 144.961 49.1287
23069 2 18.1908 144.948 47.8472
17239 1 17.2845 143.363 49.1397
22810 2 20.9194 143.351 47.8581
17241 1 20.0121 144.961 49.1287
23805 2 1.82095 148.142 47.8227
18037 1 0.914741 146.559 49.1169
23622 2 4.54966 146.545 47.8354
18039 1 3.64228 148.157 49.1041
23624 2 7.27719 148.142 47.8227
17790 1 9.09852 148.157 49.1041
17792 1 6.37098 146.559 49.1169
23355 2 10.0059 146.545 47.8354
17506 1 11.8272 146.559 49.1169
23070 2 15.4621 146.545 47.8354
23353 2 12.7334 148.142 47.8227
17508 1 14.5548 148.157 49.1041
23072 2 18.1897 148.142 47.8227
17198 1 17.2835 146.559 49.1169
22767 2 20.9184 146.545 47.8354
17196 1 20.011 148.157 49.1041
18031 1 0.913549 149.755 49.0905
23608 2 4.54845 149.74 47.8092
17791 1 6.36979 149.755 49.0905
23354 2 10.0047 149.74 47.8092
17476 1 11.826 149.755 49.0905
23032 2 15.4609 149.74 47.8092
17197 1 17.2823 149.755 49.0905
22766 2 20.9172 149.74 47.8092
21777 2 2.73673 101.81 50.3895
23899 2 0.00912156 103.409 50.4017
18161 1 1.83081 103.401 51.6827
21775 2 0.924939 101.791 52.9477
23768 2 5.46536 103.409 50.4017
23767 2 3.65351 103.392 52.9601
15943 1 4.55844 101.801 51.6704
21495 2 8.19297 101.81 50.3895
17992 1 7.28705 103.401 51.6827
23545 2 9.10975 103.392 52.9601
21473 2 6.38118 101.791 52.9477
23568 2 10.9216 103.409 50.4017
15601 1 10.0147 101.801 51.6704
21143 2 11.8374 101.791 52.9477
21145 2 13.6492 101.81 50.3895
17717 1 12.7433 103.401 51.6827
23268 2 14.566 103.392 52.9601
15292 1 15.4709 101.801 51.6704
23269 2 16.3778 103.409 50.4017
17404 1 18.1995 103.401 51.6827
20812 2 17.2937 101.791 52.9477
20853 2 19.1054 101.81 50.3895
22925 2 20.0222 103.392 52.9601
14995 1 20.9272 101.801 51.6704
23769 2 2.73772 105.008 50.4131
23883 2 0.0100453 106.607 50.4235
18162 1 1.8317 106.6 51.7047
23745 2 0.925824 104.992 52.9717
23770 2 5.46628 106.607 50.4235
17970 1 4.55939 105 51.6941
23743 2 3.65435 106.593 52.9823
23550 2 8.19396 105.008 50.4131
17968 1 7.28794 106.6 51.7047
23546 2 6.38206 104.992 52.9717
23547 2 9.11059 106.593 52.9823
23548 2 10.9225 106.607 50.4235
17718 1 10.0156 105 51.6941
23250 2 11.8383 104.992 52.9717
23270 2 13.6502 105.008 50.4131
17394 1 15.4719 105 51.6941
17719 1 12.7442 106.6 51.7047
23248 2 14.5668 106.593 52.9823
23271 2 16.3788 106.607 50.4235
17392 1 18.2004 106.6 51.7047
22926 2 17.2945 104.992 52.9717
22929 2 19.1064 105.008 50.4131
17067 1 20.9281 105 51.6941
22927 2 20.0231 106.593 52.9823
23749 2 2.73858 108.205 50.4331
23744 2 0.926609 108.193 52.992
17969 1 4.56022 108.199 51.7143
23549 2 8.19481 108.205 50.4331
23522 2 6.38285 108.193 52.992
17696 1 10.0165 108.199 51.7143
23249 2 11.8391 108.193 52.992
23254 2 13.6511 108.205 50.4331
17393 1 15.4727 108.199 51.7143
22918 2 17.2953 108.193 52.992
22928 2 19.1073 108.205 50.4331
17066 1 20.9289 108.199 51.7143
18138 1 1.83247 109.799 51.7231
23884 2 0.0108342 109.804 50.4419
23748 2 2.7393 111.403 50.4497
23718 2 0.92728 111.393 53.0088
23746 2 3.65508 109.793 53.0008
23747 2 5.46707 109.804 50.4419
17942 1 4.56093 111.398 51.731
17971 1 7.28871 109.799 51.7231
23520 2 9.11132 109.793 53.0008
23526 2 8.19553 111.403 50.4497
23521 2 6.38352 111.393 53.0088
23551 2 10.9233 109.804 50.4419
17695 1 10.0172 111.398 51.731
23226 2 11.8398 111.393 53.0088
17694 1 12.7449 109.799 51.7231
23251 2 14.5676 109.793 53.0008
23253 2 13.6518 111.403 50.4497
17378 1 15.4734 111.398 51.731
17395 1 18.2012 109.799 51.7231
23252 2 16.3795 109.804 50.4419
22917 2 17.296 111.393 53.0088
22916 2 20.0238 109.793 53.0008
22921 2 19.108 111.403 50.4497
17065 1 20.9296 111.398 51.731
23867 2 0.0114828 113.001 50.4566
23722 2 2.73987 114.6 50.4627
18139 1 1.83311 112.998 51.7379
23717 2 0.927826 114.594 53.0219
23750 2 5.46772 113.001 50.4566
23716 2 3.65569 112.994 53.0158
17941 1 4.56149 114.597 51.744
23525 2 8.19611 114.6 50.4627
17940 1 7.28935 112.998 51.7379
23523 2 9.11193 112.994 53.0158
23490 2 6.38406 114.594 53.0219
23524 2 10.924 113.001 50.4566
17666 1 10.0177 114.597 51.744
23225 2 11.8403 114.594 53.0219
23230 2 13.6523 114.6 50.4627
17697 1 12.7456 112.998 51.7379
23224 2 14.5682 112.994 53.0158
17377 1 15.474 114.597 51.744
23255 2 16.3802 113.001 50.4566
17376 1 18.2018 112.998 51.7379
22902 2 17.2965 114.594 53.0219
22920 2 19.1086 114.6 50.4627
22919 2 20.0244 112.994 53.0158
17058 1 20.9302 114.597 51.744
23721 2 2.7403 117.797 50.4721
23868 2 0.0119856 116.198 50.4678
18114 1 1.83361 116.196 51.7492
23690 2 0.928235 117.794 53.0313
23720 2 5.46822 116.198 50.4678
17907 1 4.56192 117.796 51.7534
23719 2 3.65617 116.194 53.0271
23494 2 8.19654 117.797 50.4721
17943 1 7.28984 116.196 51.7492
23488 2 9.11241 116.194 53.0271
23489 2 6.38447 117.794 53.0313
23527 2 10.9245 116.198 50.4678
17665 1 10.0182 117.796 51.7534
23194 2 11.8407 117.794 53.0313
23229 2 13.6528 117.797 50.4721
17354 1 15.4744 117.796 51.7534
17664 1 12.7461 116.196 51.7492
23227 2 14.5686 116.194 53.0271
23228 2 16.3807 116.198 50.4678
17379 1 18.2023 116.196 51.7492
22901 2 17.2969 117.794 53.0313
22905 2 19.109 117.797 50.4721
17057 1 20.9306 117.796 51.7534
22900 2 20.0249 116.194 53.0271
23694 2 2.74058 120.994 50.4779
23851 2 0.0123381 119.396 50.4754
18115 1 1.83395 119.395 51.7568
23689 2 0.9285 120.995 53.0372
23723 2 5.46858 119.396 50.4754
17906 1 4.56219 120.995 51.7593
23688 2 3.6565 119.395 53.0347
23493 2 8.19681 120.994 50.4779
17905 1 7.29019 119.395 51.7568
23451 2 6.38474 120.995 53.0372
23491 2 9.11274 119.395 53.0347
23492 2 10.9248 119.396 50.4754
17628 1 10.0184 120.995 51.7593
23193 2 11.841 120.995 53.0372
23198 2 13.6531 120.994 50.4779
17353 1 15.4747 120.995 51.7593
17667 1 12.7464 119.395 51.7568
23192 2 14.569 119.395 53.0347
23231 2 16.3811 119.396 50.4754
17352 1 18.2027 119.395 51.7568
22878 2 17.2972 120.995 53.0372
22904 2 19.1093 120.994 50.4779
17042 1 20.9309 120.995 51.7593
22903 2 20.0252 119.395 53.0347
23693 2 2.7407 124.191 50.4801
23852 2 0.0125366 122.593 50.4795
18090 1 1.83415 122.594 51.7609
23662 2 0.928615 124.195 53.0395
23692 2 5.46878 122.593 50.4795
17871 1 4.56231 124.193 51.7615
23691 2 3.6567 122.595 53.0388
23455 2 8.19693 124.191 50.4801
17908 1 7.29039 122.594 51.7609
23449 2 9.11293 122.595 53.0388
23450 2 6.38485 124.195 53.0395
23495 2 10.925 122.593 50.4795
17627 1 10.0185 124.193 51.7615
23154 2 11.8411 124.195 53.0395
23197 2 13.6532 124.191 50.4801
17322 1 15.4748 124.193 51.7615
17626 1 12.7466 122.594 51.7609
23195 2 14.5692 122.595 53.0388
23196 2 16.3813 122.593 50.4795
17355 1 18.2029 122.594 51.7609
22877 2 17.2973 124.195 53.0395
22881 2 19.1094 124.191 50.4801
17041 1 20.931 124.193 51.7615
22876 2 20.0254 122.595 53.0388
23666 2 2.74066 127.389 50.4788
23835 2 0.0125783 125.79 50.4799
18091 1 1.83419 125.793 51.7613
23661 2 0.928577 127.396 53.0381
23695 2 5.46882 125.79 50.4799
17870 1 4.56227 127.392 51.7602
23660 2 3.65673 125.796 53.0392
23454 2 8.1969 127.389 50.4788
17869 1 7.29043 125.793 51.7613
23411 2 6.38482 127.396 53.0381
23452 2 9.11297 125.796 53.0392
23453 2 10.9251 125.79 50.4799
17583 1 10.0185 127.392 51.7602
23153 2 11.8411 127.396 53.0381
23158 2 13.6531 127.389 50.4788
17321 1 15.4747 127.392 51.7602
17629 1 12.7467 125.793 51.7613
23152 2 14.5692 125.796 53.0392
23199 2 16.3813 125.79 50.4799
17320 1 18.2029 125.793 51.7613
22846 2 17.2973 127.396 53.0381
22880 2 19.1094 127.389 50.4788
17018 1 20.931 127.392 51.7602
22879 2 20.0254 125.796 53.0392
23836 2 0.0124611 128.987 50.4768
18066 1 1.83407 128.992 51.7581
23664 2 5.4687 128.987 50.4768
23663 2 3.65662 128.996 53.036
17872 1 7.29031 128.992 51.7581
23409 2 9.11286 128.996 53.036
23456 2 10.9249 128.987 50.4768
17581 1 12.7465 128.992 51.7581
23155 2 14.5691 128.996 53.036
23156 2 16.3812 128.987 50.4768
17323 1 18.2028 128.992 51.7581
22844 2 20.0253 128.996 53.036
23665 2 2.74046 130.586 50.4738
23635 2 0.928384 130.596 53.0331
23819 2 0.0121841 132.184 50.47
18067 1 1.8338 132.191 51.7513
17836 1 4.56207 130.591 51.7552
23667 2 5.46842 132.184 50.47
23633 2 3.65635 132.197 53.0292
23415 2 8.1967 130.586 50.4738
23410 2 6.38462 130.596 53.0331
17834 1 7.29003 132.191 51.7513
23412 2 9.11259 132.197 53.0292
17582 1 10.0183 130.591 51.7552
23107 2 11.8409 130.596 53.0331
23413 2 10.9247 132.184 50.47
23157 2 13.6529 130.586 50.4738
17282 1 15.4745 130.591 51.7552
17584 1 12.7463 132.191 51.7513
23105 2 14.5688 132.197 53.0292
22845 2 17.2971 130.596 53.0331
23159 2 16.3809 132.184 50.47
17280 1 18.2025 132.191 51.7513
22849 2 19.1092 130.586 50.4738
17017 1 20.9308 130.591 51.7552
22847 2 20.0251 132.197 53.0292
23639 2 2.74011 133.783 50.4652
23820 2 0.0117478 135.382 50.4596
18046 1 1.83336 135.389 51.7409
23634 2 0.928038 133.797 53.0244
23637 2 5.46799 135.382 50.4596
17835 1 4.56172 133.79 51.7466
23636 2 3.65593 135.397 53.0187
23414 2 8.19634 133.783 50.4652
17837 1 7.2896 135.389 51.7409
23373 2 9.11217 135.397 53.0187
23375 2 6.38428 133.797 53.0244
23416 2 10.9242 135.382 50.4596
17539 1 10.018 133.79 51.7466
23106 2 11.8405 133.797 53.0244
23111 2 13.6526 133.783 50.4652
17281 1 15.4742 133.79 51.7466
17537 1 12.7458 135.389 51.7409
23108 2 14.5684 135.397 53.0187
23109 2 16.3805 135.382 50.4596
17283 1 18.2021 135.389 51.7409
22806 2 17.2968 133.797 53.0244
22848 2 19.1088 133.783 50.4652
16986 1 20.9304 133.79 51.7466
22804 2 20.0246 135.397 53.0187
23638 2 2.73959 136.98 50.453
23807 2 0.0111537 138.579 50.4456
18047 1 1.83277 138.588 51.7268
23615 2 0.927544 136.997 53.0121
23640 2 5.46739 138.579 50.4456
17808 1 4.5612 136.989 51.7343
23613 2 3.65536 138.598 53.0045
23379 2 8.19583 136.98 50.453
17806 1 7.28901 138.588 51.7268
23374 2 6.38378 136.997 53.0121
23376 2 9.1116 138.598 53.0045
23377 2 10.9236 138.579 50.4456
17538 1 10.0174 136.989 51.7343
23063 2 11.84 136.997 53.0121
23110 2 13.6521 136.98 50.453
17236 1 15.4737 136.989 51.7343
17540 1 12.7452 138.588 51.7268
23061 2 14.5678 138.598 53.0045
23112 2 16.3799 138.579 50.4456
17234 1 18.2015 138.588 51.7268
22805 2 17.2963 136.997 53.0121
22809 2 19.1083 136.98 50.453
16985 1 20.9299 136.989 51.7343
22807 2 20.0241 138.598 53.0045
23619 2 2.73892 140.178 50.4372
23808 2 0.0104051 141.776 50.4279
18034 1 1.83204 141.787 51.7091
23614 2 0.926908 140.198 52.9961
23617 2 5.46664 141.776 50.4279
17807 1 4.56054 140.188 51.7184
23616 2 3.65466 141.799 52.9867
23378 2 8.19516 140.178 50.4372
17809 1 7.28827 141.787 51.7091
23345 2 9.1109 141.799 52.9867
23347 2 6.38315 140.198 52.9961
23380 2 10.9229 141.776 50.4279
17503 1 10.0168 140.188 51.7184
23062 2 11.8394 140.198 52.9961
23067 2 13.6514 140.178 50.4372
17235 1 15.473 140.188 51.7184
17501 1 12.7445 141.787 51.7091
23064 2 14.5671 141.799 52.9867
23065 2 16.3791 141.776 50.4279
17237 1 18.2008 141.787 51.7091
22762 2 17.2956 140.198 52.9961
22808 2 19.1076 140.178 50.4372
16950 1 20.9293 140.188 51.7184
22760 2 20.0234 141.799 52.9867
23618 2 2.73809 143.375 50.4177
23803 2 0.00950687 144.974 50.4067
18035 1 1.83116 144.987 51.6877
23603 2 0.926141 143.399 52.9763
23620 2 5.46575 144.974 50.4067
17788 1 4.55973 143.387 51.6988
23601 2 3.65383 144.999 52.9651
23351 2 8.19433 143.375 50.4177
17786 1 7.2874 144.987 51.6877
23346 2 6.38238 143.399 52.9763
23348 2 9.11007 144.999 52.9651
23349 2 10.922 144.974 50.4067
17502 1 10.016 143.387 51.6988
23027 2 11.8386 143.399 52.9763
23066 2 13.6506 143.375 50.4177
17194 1 15.4722 143.387 51.6988
17504 1 12.7436 144.987 51.6877
23025 2 14.5663 144.999 52.9651
23068 2 16.3782 144.974 50.4067
17192 1 18.1999 144.987 51.6877
22761 2 17.2949 143.399 52.9763
22765 2 19.1068 143.375 50.4177
16949 1 20.9284 143.387 51.6988
22763 2 20.0225 144.999 52.9651
23607 2 2.73712 146.573 50.3947
23804 2 0.00846567 148.172 50.3818
18030 1 1.83015 148.186 51.6626
23602 2 0.925257 146.6 52.9528
23605 2 5.4647 148.172 50.3818
17787 1 4.55879 146.586 51.6756
23604 2 3.6529 148.201 52.9397
23350 2 8.19336 146.573 50.3947
17789 1 7.28639 148.186 51.6626
23325 2 9.10913 148.201 52.9397
23327 2 6.3815 146.6 52.9528
23352 2 10.9209 148.172 50.3818
17475 1 10.015 146.586 51.6756
23026 2 11.8377 146.6 52.9528
23031 2 13.6496 146.573 50.3947
17193 1 15.4713 146.586 51.6756
17473 1 12.7426 148.186 51.6626
23028 2 14.5654 148.201 52.9397
23029 2 16.3772 148.172 50.3818
17195 1 18.1989 148.186 51.6626
22722 2 17.294 146.6 52.9528
22764 2 19.1058 146.573 50.3947
16914 1 20.9275 146.586 51.6756
22720 2 20.0216 148.201 52.9397
23606 2 2.73601 149.771 50.368
23596 2 0.924272 149.801 52.9256
17773 1 4.55772 149.786 51.6487
23328 2 8.19225 149.771 50.368
23326 2 6.38051 149.801 52.9256
17474 1 10.014 149.786 51.6487
22996 2 11.8367 149.801 52.9256
23030 2 13.6485 149.771 50.368
17157 1 15.4702 149.786 51.6487
22721 2 17.293 149.801 52.9256
22723 2 19.1047 149.771 50.368
16913 1 20.9264 149.786 51.6487
18160 1 0.0192762 103.383 54.2406
15929 1 2.74697 101.782 54.228
23741 2 1.84228 103.374 55.5175
17965 1 5.47551 103.383 54.2406
21471 2 4.57 101.772 55.5048
15599 1 8.20321 101.782 54.228
23544 2 7.29852 103.374 55.5175
17716 1 10.9318 103.383 54.2406
21113 2 10.0262 101.772 55.5048
15256 1 13.6594 101.782 54.228
23245 2 12.7548 103.374 55.5175
20810 2 15.4825 101.772 55.5048
17389 1 16.388 103.383 54.2406
22924 2 18.211 103.374 55.5175
14993 1 19.1157 101.782 54.228
20536 2 20.9387 101.772 55.5048
17966 1 2.7478 104.984 54.2522
18136 1 0.0200732 106.586 54.2629
23742 2 1.84302 106.578 55.54
17967 1 5.47631 106.586 54.2629
23518 2 4.57078 104.976 55.5292
17692 1 8.20404 104.984 54.2522
23516 2 7.29926 106.578 55.54
17690 1 10.9326 106.586 54.2629
23246 2 10.027 104.976 55.5292
17390 1 13.6603 104.984 54.2522
22914 2 15.4833 104.976 55.5292
23247 2 12.7555 106.578 55.54
17391 1 16.3888 106.586 54.2629
22912 2 18.2117 106.578 55.54
17064 1 19.1165 104.984 54.2522
22602 2 20.9395 104.976 55.5292
17938 1 2.74856 108.187 54.2727
23517 2 4.57149 108.18 55.5499
17691 1 8.2048 108.187 54.2727
23222 2 10.0277 108.18 55.5499
17374 1 13.661 108.187 54.2727
22913 2 15.484 108.18 55.5499
17063 1 19.1173 108.187 54.2727
22601 2 20.9402 108.18 55.5499
18137 1 0.0207766 109.788 54.2816
23714 2 1.84369 109.782 55.5588
17937 1 2.74921 111.389 54.2895
17936 1 5.47701 109.788 54.2816
23486 2 4.57211 111.384 55.5668
23519 2 7.29993 109.782 55.5588
17662 1 8.20545 111.389 54.2895
17693 1 10.9333 109.788 54.2816
23221 2 10.0283 111.384 55.5668
23220 2 12.7562 109.782 55.5588
17373 1 13.6617 111.389 54.2895
22898 2 15.4846 111.384 55.5668
17372 1 16.3895 109.788 54.2816
22915 2 18.2124 109.782 55.5588
17056 1 19.1179 111.389 54.2895
22600 2 20.9408 111.384 55.5668
18112 1 0.02137 112.99 54.2966
17903 1 2.74974 114.591 54.3027
23715 2 1.84426 112.986 55.5739
17939 1 5.47761 112.99 54.2966
23485 2 4.57262 114.588 55.5801
17661 1 8.20598 114.591 54.3027
23484 2 7.3005 112.986 55.5739
17660 1 10.9338 112.99 54.2966
23190 2 10.0289 114.588 55.5801
17350 1 13.6622 114.591 54.3027
23223 2 12.7567 112.986 55.5739
22897 2 15.4851 114.588 55.5801
17375 1 16.3901 112.99 54.2966
22896 2 18.213 112.986 55.5739
17055 1 19.1185 114.591 54.3027
22593 2 20.9413 114.588 55.5801
17902 1 2.75014 117.793 54.3122
18113 1 0.021839 116.192 54.3079
23686 2 1.84471 116.19 55.5853
17901 1 5.47808 116.192 54.3079
23447 2 4.57301 117.792 55.5896
17624 1 8.20638 117.793 54.3122
23487 2 7.30095 116.19 55.5853
17663 1 10.9343 116.192 54.3079
23189 2 10.0292 117.792 55.5896
17349 1 13.6626 117.793 54.3122
22874 2 15.4855 117.792 55.5896
23188 2 12.7572 116.19 55.5853
17348 1 16.3906 116.192 54.3079
22899 2 18.2134 116.19 55.5853
17040 1 19.1189 117.793 54.3122
22592 2 20.9417 117.792 55.5896
17867 1 2.7504 120.995 54.3181
18088 1 0.0221717 119.394 54.3156
23687 2 1.84503 119.394 55.593
17904 1 5.47841 119.394 54.3156
23446 2 4.57326 120.996 55.5955
17623 1 8.20664 120.995 54.3181
23445 2 7.30127 119.394 55.593
17622 1 10.9346 119.394 54.3156
23150 2 10.0295 120.996 55.5955
17318 1 13.6629 120.995 54.3181
22873 2 15.4857 120.996 55.5955
23191 2 12.7575 119.394 55.593
17351 1 16.3909 119.394 54.3156
22872 2 18.2137 119.394 55.593
17039 1 19.1191 120.995 54.3181
22577 2 20.942 120.996 55.5955
17866 1 2.75052 124.197 54.3204
18089 1 0.0223598 122.596 54.3197
23658 2 1.84522 122.598 55.5971
17865 1 5.4786 122.596 54.3197
23407 2 4.57337 124.199 55.5978
17579 1 8.20676 124.197 54.3204
23448 2 7.30146 122.598 55.5971
17625 1 10.9348 122.596 54.3197
23149 2 10.0296 124.199 55.5978
17317 1 13.663 124.197 54.3204
22842 2 15.4859 124.199 55.5978
23148 2 12.7577 122.598 55.5971
17316 1 16.3911 122.596 54.3197
22875 2 18.2139 122.598 55.5971
17016 1 19.1192 124.197 54.3204
22576 2 20.9421 124.199 55.5978
17832 1 2.75048 127.4 54.319
18064 1 0.0223978 125.799 54.3201
23659 2 1.84525 125.801 55.5975
17868 1 5.47864 125.799 54.3201
23406 2 4.57334 127.403 55.5964
17578 1 8.20672 127.4 54.319
23405 2 7.30149 125.801 55.5975
17577 1 10.9349 125.799 54.3201
23103 2 10.0296 127.403 55.5964
17278 1 13.663 127.4 54.319
22841 2 15.4858 127.403 55.5964
23151 2 12.7577 125.801 55.5975
17319 1 16.3911 125.799 54.3201
22840 2 18.214 125.801 55.5975
17015 1 19.1192 127.4 54.319
22553 2 20.9421 127.403 55.5964
18065 1 0.0222828 129.001 54.3169
23631 2 1.84514 129.005 55.5943
17830 1 5.47852 129.001 54.3169
23408 2 7.30138 129.005 55.5943
17580 1 10.9348 129.001 54.3169
23101 2 12.7576 129.005 55.5943
17276 1 16.391 129.001 54.3169
22843 2 18.2139 129.005 55.5943
17831 1 2.75029 130.602 54.3139
18044 1 0.0220152 132.203 54.3101
23632 2 1.84488 132.209 55.5874
23371 2 4.57315 130.607 55.5913
17833 1 5.47825 132.203 54.3101
17535 1 8.20653 130.602 54.3139
23369 2 7.30112 132.209 55.5874
23102 2 10.0294 130.607 55.5913
17533 1 10.9345 132.203 54.3101
17277 1 13.6628 130.602 54.3139
22802 2 15.4856 130.607 55.5913
23104 2 12.7574 132.209 55.5874
17279 1 16.3907 132.203 54.3101
22800 2 18.2136 132.209 55.5874
16984 1 19.119 130.602 54.3139
22552 2 20.9419 130.607 55.5913
17804 1 2.74994 133.804 54.3053
18045 1 0.0215992 135.405 54.2995
23611 2 1.84448 135.413 55.5768
17802 1 5.47784 135.405 54.2995
23370 2 4.57282 133.811 55.5826
17534 1 8.20618 133.804 54.3053
23372 2 7.30072 135.413 55.5768
17536 1 10.9341 135.405 54.2995
23059 2 10.0291 133.811 55.5826
17232 1 13.6624 133.804 54.3053
22801 2 15.4853 133.811 55.5826
23057 2 12.757 135.413 55.5768
17230 1 16.3903 135.405 54.2995
22803 2 18.2132 135.413 55.5768
16983 1 19.1187 133.804 54.3053
22522 2 20.9415 133.811 55.5826
17803 1 2.74946 137.006 54.2929
18032 1 0.021043 138.607 54.2853
23612 2 1.84394 138.617 55.5625
17805 1 5.47728 138.607 54.2853
23343 2 4.57235 137.015 55.5701
17499 1 8.2057 137.006 54.2929
23341 2 7.30018 138.617 55.5625
17497 1 10.9335 138.607 54.2853
23058 2 10.0286 137.015 55.5701
17231 1 13.6619 137.006 54.2929
22758 2 15.4848 137.015 55.5701
23060 2 12.7564 138.617 55.5625
17233 1 16.3898 138.607 54.2853
22756 2 18.2127 138.617 55.5625
16948 1 19.1182 137.006 54.2929
22521 2 20.9411 137.015 55.5701
17784 1 2.74884 140.208 54.2768
18033 1 0.0203586 141.81 54.2673
23599 2 1.84329 141.821 55.5443
17782 1 5.4766 141.81 54.2673
23342 2 4.57175 140.219 55.5539
17498 1 8.20507 140.208 54.2768
23344 2 7.29953 141.821 55.5443
17500 1 10.9328 141.81 54.2673
23023 2 10.028 140.219 55.5539
17190 1 13.6613 140.208 54.2768
22757 2 15.4842 140.219 55.5539
23021 2 12.7558 141.821 55.5443
17188 1 16.3891 141.81 54.2673
22759 2 18.212 141.821 55.5443
16947 1 19.1176 140.208 54.2768
22490 2 20.9405 140.219 55.5539
17783 1 2.74809 143.411 54.2569
18028 1 0.0195617 145.012 54.2455
23600 2 1.84253 145.025 55.5224
17785 1 5.4758 145.012 54.2455
23323 2 4.57104 143.423 55.5338
17471 1 8.20433 143.411 54.2569
23321 2 7.29877 145.025 55.5224
17469 1 10.932 145.012 54.2455
23022 2 10.0273 143.423 55.5338
17189 1 13.6606 143.411 54.2569
22718 2 15.4835 143.423 55.5338
23024 2 12.755 145.025 55.5224
17191 1 16.3883 145.012 54.2455
22716 2 18.2112 145.025 55.5224
16912 1 19.1168 143.411 54.2569
22489 2 20.9398 143.423 55.5338
17772 1 2.74725 146.614 54.2332
18029 1 0.0186716 148.215 54.2199
23595 2 1.8417 148.23 55.4965
17770 1 5.47491 148.215 54.2199
23322 2 4.57025 146.627 55.5099
17470 1 8.20348 146.614 54.2332
23324 2 7.29794 148.23 55.4965
17472 1 10.9311 148.215 54.2199
22995 2 10.0265 146.627 55.5099
17156 1 13.6597 146.614 54.2332
22717 2 15.4827 146.627 55.5099
22993 2 12.7542 148.23 55.4965
17154 1 16.3874 148.215 54.2199
22719 2 18.2104 148.23 55.4965
16911 1 19.116 146.614 54.2332
22458 2 20.939 146.627 55.5099
17771 1 2.74632 149.817 54.2057
23308 2 4.56939 149.832 55.4821
17448 1 8.20256 149.817 54.2057
22994 2 10.0256 149.832 55.4821
17155 1 13.6588 149.817 54.2057
22683 2 15.4819 149.832 55.4821
16878 1 19.115 149.817 54.2057
22457 2 20.9381 149.832 55.4821
15927 1 0.936085 101.762 56.7847
23740 2 0.0316085 103.357 58.0739
21457 2 2.75938 101.753 58.0609
17964 1 3.66457 103.365 56.7975
23513 2 5.48785 103.357 58.0739
17687 1 9.12081 103.365 56.7975
15577 1 6.39232 101.762 56.7847
21111 2 8.21562 101.753 58.0609
15254 1 11.8486 101.762 56.7847
23244 2 10.9441 103.357 58.0739
17388 1 14.577 103.365 56.7975
20776 2 13.6719 101.753 58.0609
14960 1 17.3048 101.762 56.7847
22909 2 16.4003 103.357 58.0739
17060 1 20.0333 103.365 56.7975
20534 2 19.1281 101.753 58.0609
17934 1 0.93681 104.968 56.8093
23514 2 2.76006 104.96 58.0858
23712 2 0.0322728 106.564 58.0967
17932 1 3.66527 106.571 56.8202
23515 2 5.48851 106.564 58.0967
17688 1 6.39305 104.968 56.8093
17689 1 9.12151 106.571 56.8202
23218 2 8.2163 104.96 58.0858
17370 1 11.8493 104.968 56.8093
23216 2 10.9447 106.564 58.0967
17368 1 14.5778 106.571 56.8202
22910 2 13.6725 104.96 58.0858
17061 1 17.3055 104.968 56.8093
22911 2 16.401 106.564 58.0967
17062 1 20.034 106.571 56.8202
22599 2 19.1288 104.96 58.0858
17933 1 0.937484 108.174 56.8301
23482 2 2.76071 108.168 58.1067
17658 1 6.39372 108.174 56.8301
23217 2 8.21694 108.168 58.1067
17369 1 11.85 108.174 56.8301
22894 2 13.6732 108.168 58.1067
17053 1 17.3062 108.174 56.8301
22598 2 19.1294 108.168 58.1067
23713 2 0.0328838 109.771 58.1158
17899 1 0.938083 111.38 56.8471
23481 2 2.76128 111.375 58.1239
17935 1 3.66591 109.777 56.8391
23480 2 5.48912 109.771 58.1158
17656 1 9.12215 109.777 56.8391
17657 1 6.39432 111.38 56.8471
23186 2 8.21752 111.375 58.1239
23219 2 10.9454 109.771 58.1158
17346 1 11.8506 111.38 56.8471
17371 1 14.5784 109.777 56.8391
22893 2 13.6738 111.375 58.1239
22892 2 16.4016 109.771 58.1158
17052 1 17.3068 111.38 56.8471
17051 1 20.0346 109.777 56.8391
22591 2 19.13 111.375 58.1239
17898 1 0.938582 114.585 56.8604
23684 2 0.033416 112.979 58.131
23443 2 2.76176 114.582 58.1373
17897 1 3.66647 112.982 56.8542
23483 2 5.48965 112.979 58.131
17659 1 9.1227 112.982 56.8542
17620 1 6.39482 114.585 56.8604
23185 2 8.218 114.582 58.1373
17345 1 11.8511 114.585 56.8604
23184 2 10.9459 112.979 58.131
17344 1 14.5789 112.982 56.8542
22870 2 13.6742 114.582 58.1373
17037 1 17.3073 114.585 56.8604
22895 2 16.4021 112.979 58.131
17054 1 20.0352 112.982 56.8542
22590 2 19.1305 114.582 58.1373
17863 1 0.938965 117.791 56.87
23442 2 2.76214 117.789 58.1469
23685 2 0.0338468 116.186 58.1425
17900 1 3.66691 116.188 56.8657
23441 2 5.49009 116.186 58.1425
17618 1 9.12315 116.188 56.8657
17619 1 6.3952 117.791 56.87
23146 2 8.21838 117.789 58.1469
17314 1 11.8514 117.791 56.87
23187 2 10.9463 116.186 58.1425
17347 1 14.5794 116.188 56.8657
22869 2 13.6746 117.789 58.1469
17036 1 17.3077 117.791 56.87
22868 2 16.4026 116.186 58.1425
17035 1 20.0356 116.188 56.8657
22575 2 19.1309 117.789 58.1469
17862 1 0.939216 120.996 56.876
23403 2 2.76238 120.996 58.1529
23656 2 0.0341578 119.393 58.1503
17861 1 3.66723 119.393 56.8734
23444 2 5.4904 119.393 58.1503
17575 1 6.39545 120.996 56.876
17621 1 9.12346 119.393 56.8734
23145 2 8.21862 120.996 58.1529
17313 1 11.8517 120.996 56.876
23144 2 10.9466 119.393 58.1503
17312 1 14.5797 119.393 56.8734
22838 2 13.6749 120.996 58.1529
17013 1 17.3079 120.996 56.876
22871 2 16.4029 119.393 58.1503
17038 1 20.0359 119.393 56.8734
22574 2 19.1311 120.996 58.1529
17828 1 0.939326 124.202 56.8782
23402 2 2.76249 124.203 58.1551
23657 2 0.0343361 122.6 58.1544
17864 1 3.66741 122.599 56.8775
23401 2 5.49057 122.6 58.1544
17573 1 9.12365 122.599 56.8775
17574 1 6.39556 124.202 56.8782
23099 2 8.21873 124.203 58.1551
17274 1 11.8518 124.202 56.8782
23147 2 10.9468 122.6 58.1544
17315 1 14.5799 122.599 56.8775
22837 2 13.675 124.203 58.1551
17012 1 17.308 124.202 56.8782
22836 2 16.4031 122.6 58.1544
17011 1 20.0361 122.599 56.8775
22551 2 19.1312 124.203 58.1551
17827 1 0.939289 127.407 56.8768
23367 2 2.76246 127.411 58.1537
23629 2 0.034373 125.807 58.1549
17826 1 3.66745 125.804 56.878
23404 2 5.49061 125.807 58.1549
17531 1 6.39553 127.407 56.8768
17576 1 9.12368 125.804 56.878
23098 2 8.21869 127.411 58.1537
17273 1 11.8518 127.407 56.8768
23097 2 10.9468 125.807 58.1549
17272 1 14.5799 125.804 56.878
22798 2 13.6749 127.411 58.1537
16981 1 17.308 127.407 56.8768
22839 2 16.4031 125.807 58.1549
17014 1 20.0362 125.804 56.878
22550 2 19.1312 127.411 58.1537
23630 2 0.0342644 129.014 58.1516
17829 1 3.66733 129.01 56.8747
23365 2 5.4905 129.014 58.1516
17529 1 9.12357 129.01 56.8747
23100 2 10.9467 129.014 58.1516
17275 1 14.5798 129.01 56.8747
22796 2 16.403 129.014 58.1516
16979 1 20.036 129.01 56.8747
17800 1 0.939104 130.612 56.8717
23366 2 2.76227 130.618 58.1486
23609 2 0.0340116 132.221 58.1446
17798 1 3.66708 132.215 56.8678
23368 2 5.49025 132.221 58.1446
17530 1 6.39534 130.612 56.8717
23055 2 8.21851 130.618 58.1486
17532 1 9.12331 132.215 56.8678
17228 1 11.8516 130.612 56.8717
23053 2 10.9465 132.221 58.1446
22797 2 13.6748 130.618 58.1486
17226 1 14.5796 132.215 56.8678
16980 1 17.3078 130.612 56.8717
22799 2 16.4027 132.221 58.1446
22520 2 19.131 130.618 58.1486
16982 1 20.0358 132.215 56.8678
17799 1 0.938775 133.818 56.863
23339 2 2.76195 133.825 58.1398
23610 2 0.0336226 135.428 58.1339
17801 1 3.66668 135.421 56.8572
23337 2 5.48986 135.428 58.1339
17493 1 9.12292 135.421 56.8572
17495 1 6.39501 133.818 56.863
23054 2 8.21819 133.825 58.1398
17227 1 11.8513 133.818 56.863
23056 2 10.9461 135.428 58.1339
17229 1 14.5792 135.421 56.8572
22754 2 13.6744 133.825 58.1398
16945 1 17.3075 133.818 56.863
22752 2 16.4023 135.428 58.1339
16943 1 20.0354 135.421 56.8572
22519 2 19.1307 133.825 58.1398
17780 1 0.938311 137.023 56.8504
23338 2 2.7615 137.032 58.1271
23597 2 0.0331111 138.636 58.1194
17778 1 3.66615 138.626 56.8427
23340 2 5.48935 138.636 58.1194
17494 1 6.39455 137.023 56.8504
17496 1 9.12239 138.626 56.8427
23019 2 8.21774 137.032 58.1271
17186 1 11.8508 137.023 56.8504
23017 2 10.9456 138.636 58.1194
17184 1 14.5786 138.626 56.8427
22753 2 13.674 137.032 58.1271
16944 1 17.307 137.023 56.8504
22755 2 16.4018 138.636 58.1194
16946 1 20.0349 138.626 56.8427
22488 2 19.1302 137.032 58.1271
17779 1 0.937728 140.229 56.8341
23319 2 2.76093 140.239 58.1107
23598 2 0.0324972 141.843 58.101
17781 1 3.66552 141.832 56.8245
23317 2 5.48874 141.843 58.101
17465 1 9.12176 141.832 56.8245
17467 1 6.39397 140.229 56.8341
23018 2 8.21717 140.239 58.1107
17185 1 11.8502 140.229 56.8341
23020 2 10.945 141.843 58.101
17187 1 14.578 141.832 56.8245
22714 2 13.6734 140.239 58.1107
16909 1 17.3064 140.229 56.8341
22712 2 16.4012 141.843 58.101
16907 1 20.0342 141.832 56.8245
22487 2 19.1296 140.239 58.1107
17768 1 0.937046 143.435 56.8139
23318 2 2.76028 143.447 58.0904
23593 2 0.0318063 145.051 58.0787
17766 1 3.6648 145.038 56.8024
23320 2 5.48804 145.051 58.0787
17466 1 6.39328 143.435 56.8139
17468 1 9.12103 145.038 56.8024
22991 2 8.21652 143.447 58.0904
17152 1 11.8495 143.435 56.8139
22989 2 10.9443 145.051 58.0787
17150 1 14.5773 145.038 56.8024
22713 2 13.6728 143.447 58.0904
16908 1 17.3058 143.435 56.8139
22715 2 16.4005 145.051 58.0787
16910 1 20.0335 145.038 56.8024
22456 2 19.129 143.447 58.0904
17767 1 0.936292 146.641 56.7898
23307 2 2.75956 146.655 58.066
23594 2 0.031069 148.259 58.0523
17769 1 3.66402 148.245 56.7762
23305 2 5.48731 148.259 58.0523
17445 1 9.12025 148.245 56.7762
17447 1 6.39253 146.641 56.7898
22990 2 8.2158 146.655 58.066
17151 1 11.8488 146.641 56.7898
22992 2 10.9435 148.259 58.0523
17153 1 14.5765 148.245 56.7762
22682 2 13.672 146.655 58.066
16877 1 17.305 146.641 56.7898
22680 2 16.3998 148.259 58.0523
16875 1 20.0327 148.245 56.7762
22455 2 19.1283 146.655 58.066
17761 1 0.935494 149.848 56.7616
23306 2 2.75881 149.863 58.0375
17446 1 6.39173 149.848 56.7616
22968 2 8.21505 149.863 58.0375
17123 1 11.848 149.848 56.7616
22681 2 13.6713 149.863 58.0375
16876 1 17.3042 149.848 56.7616
22426 2 19.1275 149.863 58.0375
17930 1 1.85417 103.348 59.3534
21455 2 0.949278 101.733 60.6161
23512 2 3.6777 103.339 60.6292
15575 1 4.58197 101.743 59.3404
17686 1 7.31041 103.348 59.3534
23213 2 9.13394 103.339 60.6292
21089 2 6.40552 101.733 60.6161
15226 1 10.0382 101.743 59.3404
20774 2 11.8618 101.733 60.6161
17365 1 12.7666 103.348 59.3534
22908 2 14.5902 103.339 60.6292
14958 1 15.4944 101.743 59.3404
17059 1 18.2229 103.348 59.3534
20505 2 17.318 101.733 60.6161
22595 2 20.0464 103.339 60.6292
14752 1 20.9507 101.743 59.3404
17931 1 1.8548 106.557 59.3765
23478 2 0.949887 104.944 60.6414
17654 1 4.58261 104.952 59.3654
23476 2 3.67831 106.55 60.6525
17652 1 7.31103 106.557 59.3765
23214 2 6.40613 104.944 60.6414
23215 2 9.13454 106.55 60.6525
17366 1 10.0388 104.952 59.3654
22890 2 11.8624 104.944 60.6414
17049 1 15.4951 104.952 59.3654
17367 1 12.7673 106.557 59.3765
22888 2 14.5908 106.55 60.6525
17047 1 18.2235 106.557 59.3765
22596 2 17.3186 104.944 60.6414
16797 1 20.9513 104.952 59.3654
22597 2 20.047 106.55 60.6525
17895 1 1.85538 109.766 59.3956
23477 2 0.950478 108.155 60.6626
17653 1 4.58322 108.162 59.3865
23479 2 3.67888 109.76 60.6717
17655 1 7.31162 109.766 59.3956
23180 2 9.13512 109.76 60.6717
23182 2 6.40672 108.155 60.6626
17342 1 10.0395 108.162 59.3865
22889 2 11.863 108.155 60.6626
17048 1 15.4957 108.162 59.3865
17340 1 12.7679 109.766 59.3956
22891 2 14.5914 109.76 60.6717
17050 1 18.2241 109.766 59.3956
22588 2 17.3192 108.155 60.6626
16796 1 20.9519 108.162 59.3865
22586 2 20.0476 109.76 60.6717
23439 2 0.951021 111.366 60.6799
17616 1 4.58377 111.37 59.4038
23181 2 6.40726 111.366 60.6799
17341 1 10.04 111.37 59.4038
22866 2 11.8635 111.366 60.6799
17033 1 15.4962 111.37 59.4038
22587 2 17.3197 111.366 60.6799
16795 1 20.9525 111.37 59.4038
17896 1 1.8559 112.975 59.4109
23438 2 0.951487 114.576 60.6934
23437 2 3.67938 112.971 60.6872
17615 1 4.58425 114.579 59.4172
17614 1 7.31214 112.975 59.4109
23183 2 9.13562 112.971 60.6872
23142 2 6.40773 114.576 60.6934
17310 1 10.0405 114.579 59.4172
22865 2 11.864 114.576 60.6934
17343 1 12.7684 112.975 59.4109
22864 2 14.5919 112.971 60.6872
17032 1 15.4967 114.579 59.4172
17031 1 18.2246 112.975 59.4109
22572 2 17.3202 114.576 60.6934
22589 2 20.0481 112.971 60.6872
16788 1 20.953 114.579 59.4172
17859 1 1.85633 116.184 59.4225
23399 2 0.95185 117.787 60.7032
17571 1 4.58461 117.788 59.4269
23440 2 3.6798 116.182 60.6988
17617 1 7.31256 116.184 59.4225
23140 2 9.13604 116.182 60.6988
23141 2 6.40809 117.787 60.7032
17309 1 10.0409 117.788 59.4269
22834 2 11.8643 117.787 60.7032
17009 1 15.4971 117.788 59.4269
17308 1 12.7688 116.184 59.4225
22867 2 14.5923 116.182 60.6988
17034 1 18.225 116.184 59.4225
22571 2 17.3206 117.787 60.7032
16787 1 20.9533 117.788 59.4269
22570 2 20.0485 116.182 60.6988
17860 1 1.85663 119.392 59.4303
23398 2 0.952093 120.997 60.7092
17570 1 4.58486 120.997 59.4328
23397 2 3.68011 119.392 60.7066
17569 1 7.31287 119.392 59.4303
23095 2 6.40833 120.997 60.7092
23143 2 9.13635 119.392 60.7066
17270 1 10.0411 120.997 59.4328
22833 2 11.8646 120.997 60.7092
17008 1 15.4973 120.997 59.4328
17311 1 12.7691 119.392 59.4303
22832 2 14.5926 119.392 60.7066
17007 1 18.2253 119.392 59.4303
22548 2 17.3208 120.997 60.7092
16772 1 20.9536 120.997 59.4328
22573 2 20.0488 119.392 60.7066
17824 1 1.85681 122.601 59.4344
23363 2 0.952201 124.208 60.7114
17527 1 4.58497 124.206 59.4351
23400 2 3.68028 122.602 60.7108
17572 1 7.31305 122.601 59.4344
23093 2 9.13652 122.602 60.7108
23094 2 6.40844 124.208 60.7114
17269 1 10.0412 124.206 59.4351
22794 2 11.8647 124.208 60.7114
16977 1 15.4974 124.206 59.4351
17268 1 12.7693 122.601 59.4344
22835 2 14.5928 122.602 60.7108
17010 1 18.2255 122.601 59.4344
22547 2 17.3209 124.208 60.7114
16771 1 20.9537 124.206 59.4351
22546 2 20.049 122.602 60.7108
17825 1 1.85685 125.81 59.4349
23362 2 0.952167 127.418 60.71
17526 1 4.58493 127.414 59.4337
23361 2 3.68032 125.813 60.7112
17525 1 7.31309 125.81 59.4349
23051 2 6.40841 127.418 60.71
23096 2 9.13656 125.813 60.7112
17224 1 10.0412 127.414 59.4337
22793 2 11.8646 127.418 60.71
16976 1 15.4974 127.414 59.4337
17271 1 12.7693 125.81 59.4349
22792 2 14.5928 125.813 60.7112
16975 1 18.2256 125.81 59.4349
22517 2 17.3209 127.418 60.71
16749 1 20.9536 127.414 59.4337
22549 2 20.049 125.813 60.7112
17796 1 1.85674 129.019 59.4316
23364 2 3.68022 129.023 60.7079
17528 1 7.31298 129.019 59.4316
23049 2 9.13645 129.023 60.7079
17222 1 12.7692 129.019 59.4316
22795 2 14.5927 129.023 60.7079
16978 1 18.2255 129.019 59.4316
22515 2 20.0489 129.023 60.7079
23335 2 0.951989 130.628 60.7048
17797 1 1.85649 132.228 59.4246
17491 1 4.58475 130.623 59.4286
23333 2 3.67997 132.234 60.7008
23050 2 6.40823 130.628 60.7048
17489 1 7.31273 132.228 59.4246
23052 2 9.1362 132.234 60.7008
17223 1 10.041 130.623 59.4286
22750 2 11.8645 130.628 60.7048
16941 1 15.4972 130.623 59.4286
17225 1 12.769 132.228 59.4246
22748 2 14.5924 132.234 60.7008
22516 2 17.3207 130.628 60.7048
16939 1 18.2252 132.228 59.4246
16748 1 20.9535 130.623 59.4286
22518 2 20.0487 132.234 60.7008
17776 1 1.8561 135.436 59.4138
23334 2 0.951672 133.839 60.6959
17490 1 4.58443 133.832 59.4197
23336 2 3.67958 135.444 60.69
17492 1 7.31234 135.436 59.4138
23013 2 9.13582 135.444 60.69
23015 2 6.40791 133.839 60.6959
17182 1 10.0407 133.832 59.4197
22749 2 11.8641 133.839 60.6959
16940 1 15.4969 133.832 59.4197
17180 1 12.7686 135.436 59.4138
22751 2 14.5921 135.444 60.69
16942 1 18.2248 135.436 59.4138
22485 2 17.3204 133.839 60.6959
16725 1 20.9531 133.832 59.4197
22483 2 20.0483 135.444 60.69
17777 1 1.8556 138.645 59.3992
23315 2 0.95123 137.049 60.6832
17463 1 4.58398 137.041 59.407
23313 2 3.67909 138.655 60.6753
17461 1 7.31184 138.645 59.3992
23014 2 6.40747 137.049 60.6832
23016 2 9.13533 138.655 60.6753
17181 1 10.0402 137.041 59.407
22710 2 11.8637 137.049 60.6832
16905 1 15.4965 137.041 59.407
17183 1 12.7681 138.645 59.3992
22708 2 14.5916 138.655 60.6753
16903 1 18.2243 138.645 59.3992
22484 2 17.3199 137.049 60.6832
16724 1 20.9527 137.041 59.407
22486 2 20.0478 138.655 60.6753
17764 1 1.855 141.855 59.3807
23314 2 0.950683 140.26 60.6665
17462 1 4.58343 140.25 59.3905
23316 2 3.6785 141.866 60.6567
17464 1 7.31124 141.855 59.3807
22985 2 9.13474 141.866 60.6567
22987 2 6.40692 140.26 60.6665
17148 1 10.0397 140.25 59.3905
22709 2 11.8632 140.26 60.6665
16904 1 15.4959 140.25 59.3905
17146 1 12.7675 141.855 59.3807
22711 2 14.591 141.866 60.6567
16906 1 18.2237 141.855 59.3807
22453 2 17.3194 140.26 60.6665
16701 1 20.9521 140.25 59.3905
22451 2 20.0472 141.866 60.6567
17765 1 1.85434 145.064 59.3582
23303 2 0.950058 143.471 60.6459
17443 1 4.58279 143.459 59.37
23301 2 3.67785 145.077 60.634
17441 1 7.31057 145.064 59.3582
22986 2 6.4063 143.471 60.6459
22988 2 9.13408 145.077 60.634
17147 1 10.039 143.459 59.37
22678 2 11.8625 143.471 60.6459
16873 1 15.4953 143.459 59.37
17149 1 12.7668 145.064 59.3582
22676 2 14.5903 145.077 60.634
16871 1 18.2231 145.064 59.3582
22452 2 17.3188 143.471 60.6459
16700 1 20.9515 143.459 59.37
22454 2 20.0466 145.077 60.634
17760 1 1.85364 148.274 59.3316
23302 2 0.949388 146.682 60.6211
17442 1 4.58211 146.669 59.3455
23304 2 3.67717 148.288 60.6072
17444 1 7.30988 148.274 59.3316
22965 2 9.13341 148.288 60.6072
22967 2 6.40563 146.682 60.6211
17122 1 10.0383 146.669 59.3455
22677 2 11.8619 146.682 60.6211
16872 1 15.4946 146.669 59.3455
17120 1 12.7661 148.274 59.3316
22679 2 14.5896 148.288 60.6072
16874 1 18.2224 148.274 59.3316
22425 2 17.3181 146.682 60.6211
16677 1 20.9508 146.669 59.3455
22423 2 20.0459 148.288 60.6072
23296 2 0.948713 149.894 60.5921
17428 1 4.58141 149.879 59.3167
22966 2 6.40495 149.894 60.5921
17121 1 10.0377 149.879 59.3167
22651 2 11.8612 149.894 60.5921
16846 1 15.4939 149.879 59.3167
22424 2 17.3174 149.894 60.5921
16676 1 20.9501 149.879 59.3167
17929 1 0.0442603 103.33 61.9085
15561 1 2.77209 101.724 61.8953
23474 2 1.86804 103.321 63.1837
15559 1 0.962609 101.705 64.4498
17649 1 5.5005 103.33 61.9085
21087 2 4.59587 101.714 63.1704
17648 1 3.691 103.313 64.4632
15224 1 8.22833 101.724 61.8953
23212 2 7.32427 103.321 63.1837
17333 1 9.14724 103.313 64.4632
15204 1 6.41885 101.705 64.4498
17364 1 10.9567 103.33 61.9085
20748 2 10.0521 101.714 63.1704
14930 1 11.8751 101.705 64.4498
14932 1 13.6846 101.724 61.8953
22885 2 12.7805 103.321 63.1837
20503 2 15.5083 101.714 63.1704
17043 1 14.6035 103.313 64.4632
17044 1 16.413 103.33 61.9085
22594 2 18.2368 103.321 63.1837
14729 1 17.3313 101.705 64.4498
14750 1 19.1408 101.724 61.8953
20331 2 20.9646 101.714 63.1704
16790 1 20.0597 103.313 64.4632
17650 1 2.77267 104.936 61.9207
17893 1 0.0448386 106.543 61.9319
23475 2 1.86861 106.536 63.2072
17608 1 0.96317 104.921 64.4755
17651 1 5.50108 106.543 61.9319
23178 2 4.59644 104.928 63.1959
17606 1 3.69158 106.529 64.4868
17338 1 8.22891 104.936 61.9207
23176 2 7.32485 106.536 63.2072
17334 1 6.41941 104.921 64.4755
17335 1 9.14781 106.529 64.4868
17336 1 10.9573 106.543 61.9319
22886 2 10.0527 104.928 63.1959
17025 1 11.8756 104.921 64.4755
17045 1 13.6851 104.936 61.9207
22584 2 15.5089 104.928 63.1959
22887 2 12.7811 106.536 63.2072
17023 1 14.6041 106.529 64.4868
17046 1 16.4136 106.543 61.9319
22582 2 18.2373 106.536 63.2072
16791 1 17.3319 104.921 64.4755
16794 1 19.1414 104.936 61.9207
22362 2 20.9652 104.928 63.1959
16792 1 20.0603 106.529 64.4868
17612 1 2.77324 108.149 61.9421
17894 1 0.0453935 109.755 61.9513
23435 2 1.86917 109.75 63.2266
17607 1 0.963738 108.136 64.4971
17610 1 5.50163 109.755 61.9513
23177 2 4.59701 108.143 63.2174
17609 1 3.69213 109.744 64.5064
17337 1 8.22948 108.149 61.9421
23179 2 7.32541 109.75 63.2266
17300 1 9.14837 109.744 64.5064
17302 1 6.41998 108.136 64.4971
17339 1 10.9579 109.755 61.9513
22862 2 10.0533 108.143 63.2174
17024 1 11.8762 108.136 64.4971
17029 1 13.6857 108.149 61.9421
22583 2 15.5095 108.143 63.2174
22860 2 12.7816 109.75 63.2266
17026 1 14.6046 109.744 64.5064
17027 1 16.4141 109.755 61.9513
22585 2 18.2379 109.75 63.2266
16783 1 17.3325 108.136 64.4971
16793 1 19.142 108.149 61.9421
22361 2 20.9657 108.143 63.2174
16781 1 20.0608 109.744 64.5064
17611 1 2.77377 111.361 61.9595
17563 1 0.964271 111.352 64.5147
23138 2 4.59754 111.357 63.2349
17306 1 8.23001 111.361 61.9595
17301 1 6.42051 111.352 64.5147
22861 2 10.0538 111.357 63.2349
17001 1 11.8767 111.352 64.5147
17028 1 13.6862 111.361 61.9595
22568 2 15.51 111.357 63.2349
16782 1 17.333 111.352 64.5147
16786 1 19.1425 111.361 61.9595
22360 2 20.9663 111.357 63.2349
17857 1 0.0458933 112.967 61.9668
23436 2 1.86967 112.963 63.2422
17567 1 2.77423 114.573 61.9731
17562 1 0.964742 114.568 64.5284
17613 1 5.50213 112.967 61.9668
17561 1 3.69263 112.96 64.522
23137 2 4.59801 114.57 63.2486
23136 2 7.3259 112.963 63.2422
17303 1 9.14886 112.96 64.522
17305 1 8.23047 114.573 61.9731
17262 1 6.42098 114.568 64.5284
17304 1 10.9584 112.967 61.9668
22830 2 10.0542 114.57 63.2486
17000 1 11.8772 114.568 64.5284
22863 2 12.7821 112.963 63.2422
16999 1 14.6051 112.96 64.522
17005 1 13.6867 114.573 61.9731
22567 2 15.5105 114.57 63.2486
17030 1 16.4146 112.967 61.9668
22566 2 18.2384 112.963 63.2422
16767 1 17.3335 114.568 64.5284
16784 1 20.0613 112.96 64.522
16785 1 19.1429 114.573 61.9731
22353 2 20.9667 114.57 63.2486
17566 1 2.7746 117.786 61.9829
17858 1 0.046309 116.179 61.9784
23395 2 1.87008 116.177 63.2539
17565 1 5.50255 116.179 61.9784
23091 2 4.59837 117.784 63.2584
17564 1 3.69306 116.175 64.5338
17266 1 8.23083 117.786 61.9829
23139 2 7.32632 116.177 63.2539
17260 1 9.1493 116.175 64.5338
17307 1 10.9588 116.179 61.9784
22829 2 10.0546 117.784 63.2584
17004 1 13.6871 117.786 61.9829
22544 2 15.5108 117.784 63.2584
22828 2 12.7826 116.177 63.2539
17002 1 14.6055 116.175 64.5338
17003 1 16.415 116.179 61.9784
22569 2 18.2388 116.177 63.2539
16770 1 19.1433 117.786 61.9829
22352 2 20.9671 117.784 63.2584
16765 1 20.0618 116.175 64.5338
17523 1 2.77484 120.998 61.9888
17822 1 0.0466136 119.392 61.9863
23396 2 1.87039 119.391 63.2618
17568 1 5.50285 119.392 61.9863
23090 2 4.59862 120.998 63.2644
17265 1 8.23108 120.998 61.9888
23089 2 7.32663 119.391 63.2618
17264 1 10.9591 119.392 61.9863
22790 2 10.0549 120.998 63.2644
16973 1 13.6873 120.998 61.9888
22543 2 15.5111 120.998 63.2644
22831 2 12.7829 119.391 63.2618
17006 1 16.4153 119.392 61.9863
22542 2 18.2391 119.391 63.2618
16769 1 19.1436 120.998 61.9888
22337 2 20.9673 120.998 63.2644
17522 1 2.77495 124.21 61.9911
17823 1 0.0467937 122.604 61.9904
23359 2 1.87057 122.605 63.266
17521 1 5.50303 122.604 61.9904
23047 2 4.59873 124.212 63.2667
17220 1 8.23119 124.21 61.9911
23092 2 7.32681 122.605 63.266
17267 1 10.9593 122.604 61.9904
22789 2 10.055 124.212 63.2667
16972 1 13.6874 124.21 61.9911
22513 2 15.5112 124.212 63.2667
22788 2 12.783 122.605 63.266
16971 1 16.4155 122.604 61.9904
22545 2 18.2393 122.605 63.266
16747 1 19.1437 124.21 61.9911
22336 2 20.9674 124.212 63.2667
17487 1 2.77492 127.422 61.9897
17794 1 0.0468329 125.816 61.9909
23360 2 1.87061 125.818 63.2664
17524 1 5.50307 125.816 61.9909
23046 2 4.59869 127.425 63.2652
17219 1 8.23116 127.422 61.9897
23045 2 7.32685 125.818 63.2664
17218 1 10.9593 125.816 61.9909
22746 2 10.0549 127.425 63.2652
16937 1 13.6874 127.422 61.9897
22512 2 15.5112 127.425 63.2652
22791 2 12.7831 125.818 63.2664
16974 1 16.4155 125.816 61.9909
22511 2 18.2393 125.818 63.2664
16746 1 19.1436 127.422 61.9897
22317 2 20.9674 127.425 63.2652
17795 1 0.0467257 129.028 61.9876
23331 2 1.8705 129.032 63.2631
17485 1 5.50296 129.028 61.9876
23048 2 7.32674 129.032 63.2631
17221 1 10.9592 129.028 61.9876
22744 2 12.783 129.032 63.2631
16935 1 16.4154 129.028 61.9876
22514 2 18.2392 129.032 63.2631
17486 1 2.77474 130.634 61.9845
17774 1 0.0464752 132.24 61.9805
23332 2 1.87025 132.246 63.256
23011 2 4.59851 130.639 63.26
17488 1 5.50271 132.24 61.9805
17178 1 8.23098 130.634 61.9845
23009 2 7.32649 132.246 63.256
22745 2 10.0548 130.639 63.26
17176 1 10.959 132.24 61.9805
22481 2 15.511 130.639 63.26
16936 1 13.6872 130.634 61.9845
22747 2 12.7827 132.246 63.256
16938 1 16.4152 132.24 61.9805
22479 2 18.239 132.246 63.256
22316 2 20.9672 130.639 63.26
16723 1 19.1435 130.634 61.9845
17459 1 2.77442 133.846 61.9756
17775 1 0.0460922 135.452 61.9696
23311 2 1.86987 135.46 63.2451
17457 1 5.50233 135.452 61.9696
23010 2 4.59819 133.853 63.251
17177 1 8.23066 133.846 61.9756
23012 2 7.32611 135.46 63.2451
17179 1 10.9586 135.452 61.9696
22706 2 10.0544 133.853 63.251
16901 1 13.6869 133.846 61.9756
22480 2 15.5107 133.853 63.251
22704 2 12.7823 135.46 63.2451
16899 1 16.4148 135.452 61.9696
22482 2 18.2386 135.46 63.2451
16722 1 19.1431 133.846 61.9756
22297 2 20.9669 133.853 63.251
17458 1 2.77398 137.058 61.9628
17762 1 0.0455952 138.664 61.9549
23312 2 1.86937 138.674 63.2302
17460 1 5.50183 138.664 61.9549
22983 2 4.59775 137.067 63.2381
17144 1 8.23021 137.058 61.9628
22981 2 7.32561 138.674 63.2302
17142 1 10.9581 138.664 61.9549
22705 2 10.054 137.067 63.2381
16900 1 13.6865 137.058 61.9628
22449 2 15.5102 137.067 63.2381
22707 2 12.7818 138.674 63.2302
16902 1 16.4143 138.664 61.9549
22447 2 18.2381 138.674 63.2302
16699 1 19.1427 137.058 61.9628
22296 2 20.9665 137.067 63.2381
17439 1 2.77343 140.271 61.946
17763 1 0.0450105 141.877 61.9362
23299 2 1.86878 141.888 63.2114
17437 1 5.50125 141.877 61.9362
22982 2 4.5972 140.281 63.2213
17143 1 8.22967 140.271 61.946
22984 2 7.32502 141.888 63.2114
17145 1 10.9575 141.877 61.9362
22674 2 10.0534 140.281 63.2213
16869 1 13.6859 140.271 61.946
22448 2 15.5097 140.281 63.2213
22672 2 12.7813 141.888 63.2114
16867 1 16.4137 141.877 61.9362
22450 2 18.2375 141.888 63.2114
16698 1 19.1421 140.271 61.946
22277 2 20.9659 140.281 63.2213
17438 1 2.77281 143.483 61.9253
17758 1 0.0443725 145.09 61.9133
23300 2 1.86813 145.103 63.1884
17440 1 5.50061 145.09 61.9133
22963 2 4.59658 143.495 63.2004
17118 1 8.22905 143.483 61.9253
22961 2 7.32437 145.103 63.1884
17116 1 10.9568 145.09 61.9133
22673 2 10.0528 143.495 63.2004
16868 1 13.6853 143.483 61.9253
22421 2 15.5091 143.495 63.2004
22675 2 12.7806 145.103 63.1884
16870 1 16.4131 145.09 61.9133
22419 2 18.2368 145.103 63.1884
16675 1 19.1415 143.483 61.9253
22276 2 20.9653 143.495 63.2004
17427 1 2.77217 146.696 61.9003
17759 1 0.0437223 148.303 61.8862
23295 2 1.86747 148.317 63.1611
17425 1 5.49996 148.303 61.8862
22962 2 4.59592 146.71 63.1753
17117 1 8.2284 146.696 61.9003
22964 2 7.32371 148.317 63.1611
17119 1 10.9562 148.303 61.8862
22650 2 10.0522 146.71 63.1753
16845 1 13.6846 146.696 61.9003
22420 2 15.5084 146.71 63.1753
22648 2 12.7799 148.317 63.1611
16843 1 16.4124 148.303 61.8862
22422 2 18.2362 148.317 63.1611
16674 1 19.1409 146.696 61.9003
22257 2 20.9646 146.71 63.1753
17426 1 2.77153 149.91 61.8711
17416 1 0.961975 149.941 64.425
22948 2 4.59527 149.925 63.1458
17097 1 8.22776 149.91 61.8711
17095 1 6.41821 149.941 64.425
22649 2 10.0515 149.925 63.1458
16822 1 11.8745 149.941 64.425
16844 1 13.684 149.91 61.8711
22398 2 15.5077 149.925 63.1458
16651 1 17.3307 149.941 64.425
16653 1 19.1402 149.91 61.8711
22256 2 20.964 149.925 63.1458
23473 2 0.0587958 103.304 65.7369
21073 2 2.78663 101.695 65.7235
17604 1 1.88174 103.295 67.0183
23173 2 5.51503 103.304 65.7369
15202 1 4.60956 101.686 67.0048
20746 2 8.24287 101.695 65.7235
17332 1 7.33798 103.295 67.0183
22884 2 10.9713 103.304 65.7369
14912 1 10.0658 101.686 67.0048
20481 2 13.6991 101.695 65.7235
17020 1 12.7942 103.295 67.0183
14727 1 15.522 101.686 67.0048
22579 2 16.4275 103.304 65.7369
16789 1 18.2505 103.295 67.0183
20329 2 19.1553 101.695 65.7235
14623 1 20.9783 101.686 67.0048
23174 2 2.78721 104.913 65.7493
23433 2 0.0593851 106.521 65.7606
17605 1 1.88235 106.515 67.0421
23175 2 5.51562 106.521 65.7606
17298 1 4.61016 104.905 67.0308
22858 2 8.24345 104.913 65.7493
17296 1 7.33858 106.515 67.0421
22856 2 10.9719 106.521 65.7606
17021 1 10.0664 104.905 67.0308
22580 2 13.6997 104.913 65.7493
16779 1 15.5226 104.905 67.0308
17022 1 12.7948 106.515 67.0421
22581 2 16.4281 106.521 65.7606
16777 1 18.2511 106.515 67.0421
22359 2 19.1559 104.913 65.7493
16617 1 20.9789 104.905 67.0308
23134 2 2.78779 108.13 65.771
23434 2 0.059955 109.739 65.7803
17559 1 1.88294 109.734 67.0619
23132 2 5.51619 109.739 65.7803
17297 1 4.61077 108.124 67.0525
22857 2 8.24403 108.13 65.771
17299 1 7.33918 109.734 67.0619
22859 2 10.9724 109.739 65.7803
16997 1 10.067 108.124 67.0525
22564 2 13.7003 108.13 65.771
16778 1 15.5232 108.124 67.0525
16995 1 12.7954 109.734 67.0619
22562 2 16.4287 109.739 65.7803
16780 1 18.2517 109.734 67.0619
22358 2 19.1565 108.13 65.771
16616 1 20.9795 108.124 67.0525
23133 2 2.78834 111.347 65.7886
17258 1 4.61133 111.343 67.0702
22826 2 8.24458 111.347 65.7886
16996 1 10.0676 111.343 67.0702
22563 2 13.7008 111.347 65.7886
16763 1 15.5238 111.343 67.0702
22351 2 19.1571 111.347 65.7886
16615 1 20.98 111.343 67.0702
23393 2 0.0604633 112.956 65.796
17560 1 1.88347 112.953 67.0776
23087 2 2.7888 114.565 65.8024
23135 2 5.5167 112.956 65.796
17257 1 4.61183 114.562 67.084
17256 1 7.33971 112.953 67.0776
22825 2 8.24504 114.565 65.8024
22824 2 10.9729 112.956 65.796
16965 1 10.0681 114.562 67.084
16998 1 12.7959 112.953 67.0776
22540 2 13.7013 114.565 65.8024
16762 1 15.5243 114.562 67.084
22565 2 16.4292 112.956 65.796
16761 1 18.2522 112.953 67.0776
22350 2 19.1575 114.565 65.8024
16608 1 20.9805 114.562 67.084
17519 1 0.965097 117.783 64.5382
23086 2 2.78918 117.782 65.8122
23394 2 0.0608817 116.173 65.8078
17515 1 1.88391 116.172 67.0894
23085 2 5.51712 116.173 65.8078
17212 1 4.61221 117.781 67.0939
17261 1 6.42134 117.783 64.5382
22786 2 8.24542 117.782 65.8122
17259 1 7.34015 116.172 67.0894
16969 1 11.8776 117.783 64.5382
22827 2 10.9734 116.173 65.8078
16964 1 10.0684 117.781 67.0939
22539 2 13.7017 117.782 65.8122
16740 1 15.5247 117.781 67.0939
16963 1 12.7964 116.172 67.0894
16766 1 17.3338 117.783 64.5382
22538 2 16.4296 116.173 65.8078
16764 1 18.2526 116.172 67.0894
22335 2 19.1579 117.782 65.8122
16607 1 20.9809 117.781 67.0939
17518 1 0.965352 120.999 64.5443
23043 2 2.78944 120.999 65.8183
23357 2 0.0612106 119.39 65.8157
17516 1 1.88423 119.391 67.0974
17517 1 3.69336 119.391 64.5417
23088 2 5.51745 119.39 65.8157
17211 1 4.61246 121 67.1
17216 1 6.42159 120.999 64.5443
17263 1 9.1496 119.391 64.5417
22785 2 8.24568 120.999 65.8183
17210 1 7.34047 119.391 67.0974
16968 1 11.8778 120.999 64.5443
22784 2 10.9737 119.39 65.8157
16929 1 10.0687 121 67.1
16967 1 14.6058 119.391 64.5417
22509 2 13.7019 120.999 65.8183
16739 1 15.5249 121 67.1
16966 1 12.7967 119.391 67.0974
16744 1 17.3341 120.999 64.5443
22541 2 16.4299 119.39 65.8157
16738 1 18.2529 119.391 67.0974
16768 1 20.0621 119.391 64.5417
22334 2 19.1582 120.999 65.8183
16596 1 20.9812 121 67.1
17483 1 0.965465 124.214 64.5465
23042 2 2.78956 124.216 65.8206
23358 2 0.061399 122.607 65.8199
17479 1 1.88442 122.61 67.1017
17520 1 3.69355 122.606 64.5459
23041 2 5.51764 122.607 65.8199
17170 1 4.61257 124.219 67.1023
17214 1 9.14979 122.606 64.5459
17215 1 6.4217 124.214 64.5465
22742 2 8.2458 124.216 65.8206
17213 1 7.34066 122.61 67.1017
16933 1 11.8779 124.214 64.5465
22787 2 10.9739 122.607 65.8199
16928 1 10.0688 124.219 67.1023
16970 1 14.606 122.606 64.5459
22508 2 13.702 124.216 65.8206
16716 1 15.5251 124.219 67.1023
16927 1 12.7969 122.61 67.1017
16743 1 17.3342 124.214 64.5465
22507 2 16.4301 122.607 65.8199
16741 1 18.2531 122.61 67.1017
16742 1 20.0623 122.606 64.5459
22315 2 19.1583 124.216 65.8206
16595 1 20.9813 124.219 67.1023
17482 1 0.96543 127.429 64.5451
23007 2 2.78952 127.433 65.8192
23329 2 0.0614389 125.824 65.8204
17480 1 1.88445 125.828 67.1021
17481 1 3.69359 125.822 64.5463
23044 2 5.51768 125.824 65.8204
17169 1 4.61253 127.438 67.1009
17174 1 6.42167 127.429 64.5451
17217 1 9.14982 125.822 64.5463
22741 2 8.24576 127.433 65.8192
17168 1 7.34069 125.828 67.1021
16932 1 11.8779 127.429 64.5451
22740 2 10.9739 125.824 65.8204
16893 1 10.0688 127.438 67.1009
16931 1 14.6061 125.822 64.5463
22477 2 13.702 127.433 65.8192
16715 1 15.525 127.438 67.1009
16930 1 12.7969 125.828 67.1021
16720 1 17.3341 127.429 64.5451
22510 2 16.4302 125.824 65.8204
16714 1 18.2532 125.828 67.1021
16745 1 20.0623 125.822 64.5463
22314 2 19.1582 127.433 65.8192
16584 1 20.9812 127.438 67.1009
23330 2 0.0613282 129.041 65.817
17451 1 1.88434 129.047 67.0987
17484 1 3.69348 129.037 64.543
23005 2 5.51757 129.041 65.817
17172 1 9.14971 129.037 64.543
17171 1 7.34057 129.047 67.0987
22743 2 10.9738 129.041 65.817
16934 1 14.606 129.037 64.543
16891 1 12.7968 129.047 67.0987
22475 2 16.43 129.041 65.817
16717 1 18.2531 129.047 67.0987
16718 1 20.0622 129.037 64.543
17455 1 0.965245 130.645 64.5399
23006 2 2.78934 130.65 65.8139
23309 2 0.0610697 132.258 65.8098
17452 1 1.88407 132.266 67.0916
17136 1 4.61234 130.656 67.0956
17453 1 3.69322 132.252 64.5358
23008 2 5.51731 132.258 65.8098
17173 1 6.42148 130.645 64.5399
22702 2 8.24557 130.65 65.8139
17175 1 9.14946 132.252 64.5358
17134 1 7.3403 132.266 67.0916
16897 1 11.8777 130.645 64.5399
16892 1 10.0686 130.656 67.0956
22700 2 10.9735 132.258 65.8098
22476 2 13.7018 130.65 65.8139
16692 1 15.5248 130.656 67.0956
16895 1 14.6057 132.252 64.5358
16894 1 12.7965 132.266 67.0916
16719 1 17.334 130.645 64.5399
22478 2 16.4298 132.258 65.8098
16690 1 18.2528 132.266 67.0916
22295 2 19.1581 130.65 65.8139
16583 1 20.9811 130.656 67.0956
16721 1 20.0619 132.252 64.5358
17454 1 0.964919 133.86 64.5308
22979 2 2.78901 133.867 65.8048
23310 2 0.0606724 135.475 65.7988
17431 1 1.88365 135.485 67.0805
17456 1 3.69283 135.468 64.5249
22977 2 5.51691 135.475 65.7988
17135 1 4.612 133.875 67.0865
17138 1 9.14906 135.468 64.5249
17140 1 6.42116 133.86 64.5308
22701 2 8.24525 133.867 65.8048
17137 1 7.33989 135.485 67.0805
16896 1 11.8774 133.86 64.5308
22703 2 10.9731 135.475 65.7988
16861 1 10.0682 133.875 67.0865
16898 1 14.6053 135.468 64.5249
22445 2 13.7015 133.867 65.8048
16691 1 15.5245 133.875 67.0865
16859 1 12.7961 135.485 67.0805
16696 1 17.3336 133.86 64.5308
22443 2 16.4294 135.475 65.7988
16693 1 18.2524 135.485 67.0805
16694 1 20.0615 135.468 64.5249
22294 2 19.1577 133.867 65.8048
16572 1 20.9807 133.875 67.0865
17435 1 0.964466 137.076 64.5179
22978 2 2.78855 137.084 65.7918
23297 2 0.0601533 138.693 65.7838
17432 1 1.88311 138.704 67.0654
17433 1 3.69232 138.684 64.51
22980 2 5.51639 138.693 65.7838
17110 1 4.61151 137.094 67.0735
17139 1 6.4207 137.076 64.5179
17141 1 9.14856 138.684 64.51
22670 2 8.24478 137.084 65.7918
17108 1 7.33935 138.704 67.0654
16865 1 11.8769 137.076 64.5179
22668 2 10.9726 138.693 65.7838
16860 1 10.0678 137.094 67.0735
16863 1 14.6048 138.684 64.51
22444 2 13.701 137.084 65.7918
16668 1 15.524 137.094 67.0735
16862 1 12.7956 138.704 67.0654
16695 1 17.3332 137.076 64.5179
22446 2 16.4289 138.693 65.7838
16666 1 18.2518 138.704 67.0654
16697 1 20.061 138.684 64.51
22275 2 19.1573 137.084 65.7918
16571 1 20.9802 137.094 67.0735
17434 1 0.963909 140.292 64.501
22959 2 2.78797 140.301 65.7748
23298 2 0.0595378 141.91 65.7648
17419 1 1.88247 141.923 67.0463
17436 1 3.69172 141.9 64.491
22957 2 5.51578 141.91 65.7648
17109 1 4.61092 140.313 67.0564
17112 1 9.14796 141.9 64.491
17114 1 6.42015 140.292 64.501
22669 2 8.24421 140.301 65.7748
17111 1 7.3387 141.923 67.0463
16864 1 11.8764 140.292 64.501
22671 2 10.972 141.91 65.7648
16837 1 10.0672 140.313 67.0564
16866 1 14.6042 141.9 64.491
22417 2 13.7005 140.301 65.7748
16667 1 15.5234 140.313 67.0564
16835 1 12.7949 141.923 67.0463
16672 1 17.3326 140.292 64.501
22415 2 16.4283 141.91 65.7648
16669 1 18.2512 141.923 67.0463
16670 1 20.0604 141.9 64.491
22274 2 19.1567 140.301 65.7748
16560 1 20.9796 140.313 67.0564
17423 1 0.963279 143.508 64.48
22958 2 2.78732 143.519 65.7537
23293 2 0.0588602 145.128 65.7415
17420 1 1.88176 145.142 67.023
17421 1 3.69107 145.116 64.4679
22960 2 5.5151 145.128 65.7415
17092 1 4.61024 143.533 67.0352
17113 1 6.41952 143.508 64.48
17115 1 9.14731 145.116 64.4679
22646 2 8.24356 143.519 65.7537
17090 1 7.338 145.142 67.023
16841 1 11.8758 143.508 64.48
22644 2 10.9713 145.128 65.7415
16836 1 10.0665 143.533 67.0352
16839 1 14.6035 145.116 64.4679
22416 2 13.6998 143.519 65.7537
16648 1 15.5227 143.533 67.0352
16838 1 12.7942 145.142 67.023
16671 1 17.332 143.508 64.48
22418 2 16.4276 145.128 65.7415
16646 1 18.2505 145.142 67.023
16673 1 20.0598 145.116 64.4679
22255 2 19.156 143.519 65.7537
16559 1 20.979 143.533 67.0352
17422 1 0.962619 146.724 64.4547
22947 2 2.78663 146.737 65.7283
17424 1 3.69041 148.332 64.4404
17091 1 4.60951 146.752 67.0096
17094 1 9.14665 148.332 64.4404
17096 1 6.41886 146.724 64.4547
22645 2 8.24287 146.737 65.7283
16840 1 11.8751 146.724 64.4547
16821 1 10.0658 146.752 67.0096
16842 1 14.6029 148.332 64.4404
22397 2 13.6991 146.737 65.7283
16647 1 15.522 146.752 67.0096
16652 1 17.3313 146.724 64.4547
16650 1 20.0591 148.332 64.4404
22254 2 19.1553 146.737 65.7283
16548 1 20.9782 146.752 67.0096
23294 2 0.058163 148.346 65.7139
17415 1 1.88103 148.362 66.9952
22946 2 2.78594 149.956 65.6984
22945 2 5.5144 148.346 65.7139
17079 1 4.6088 149.972 66.9796
17093 1 7.33727 148.362 66.9952
22627 2 8.24218 149.956 65.6984
22647 2 10.9706 148.346 65.7139
16820 1 10.065 149.972 66.9796
16819 1 12.7935 148.362 66.9952
22396 2 13.6984 149.956 65.6984
16633 1 15.5213 149.972 66.9796
22395 2 16.4269 148.346 65.7139
16649 1 18.2497 148.362 66.9952
22237 2 19.1547 149.956 65.6984
16547 1 20.9775 149.972 66.9796
17603 1 0.0719348 103.279 69.5774
15190 1 2.79971 101.667 69.5638
21071 2 0.977671 101.676 68.2746
17293 1 5.52817 103.279 69.5774
23172 2 3.7061 103.286 68.2882
22853 2 9.16234 103.286 68.2882
14910 1 8.25595 101.667 69.5638
20728 2 6.43391 101.676 68.2746
17019 1 10.9844 103.279 69.5774
20479 2 11.8901 101.676 68.2746
22578 2 14.6186 103.286 68.2882
14713 1 13.7122 101.667 69.5638
16774 1 16.4406 103.279 69.5774
20312 2 17.3464 101.676 68.2746
22355 2 20.0748 103.286 68.2882
14621 1 19.1684 101.667 69.5638
17294 1 2.8004 104.89 69.5899
17557 1 0.0726317 106.501 69.6013
23130 2 0.978307 104.897 68.3006
17295 1 5.52887 106.501 69.6013
23128 2 3.70675 106.507 68.3121
16993 1 8.25664 104.89 69.5899
22854 2 6.43454 104.897 68.3006
22855 2 9.16299 106.507 68.3121
16991 1 10.9851 106.501 69.6013
22560 2 11.8908 104.897 68.3006
16775 1 13.7129 104.89 69.5899
22558 2 14.6192 106.507 68.3121
16776 1 16.4413 106.501 69.6013
22356 2 17.347 104.897 68.3006
16614 1 19.1691 104.89 69.5899
22357 2 20.0755 106.507 68.3121
17254 1 2.80109 108.113 69.6118
17558 1 0.0733015 109.724 69.6212
23129 2 0.978943 108.118 68.3225
17252 1 5.52954 109.724 69.6212
23131 2 3.70737 109.728 68.3318
16992 1 8.25733 108.113 69.6118
22820 2 9.16361 109.728 68.3318
22822 2 6.43518 108.118 68.3225
16994 1 10.9858 109.724 69.6212
22559 2 11.8914 108.118 68.3225
16759 1 13.7136 108.113 69.6118
22561 2 14.6198 109.728 68.3318
16757 1 16.442 109.724 69.6212
22348 2 17.3477 108.118 68.3225
16613 1 19.1698 108.113 69.6118
22346 2 20.0761 109.728 68.3318
17253 1 2.80173 111.335 69.6296
23083 2 0.97954 111.338 68.3402
16961 1 8.25797 111.335 69.6296
22821 2 6.43578 111.338 68.3402
22536 2 11.892 111.338 68.3402
16758 1 13.7142 111.335 69.6296
22347 2 17.3483 111.338 68.3402
16606 1 19.1704 111.335 69.6296
17513 1 0.0739019 112.946 69.637
17208 1 2.80227 114.557 69.6434
23082 2 0.980064 114.559 68.354
17255 1 5.53014 112.946 69.637
23081 2 3.70793 112.948 68.3476
22823 2 9.16417 112.948 68.3476
16960 1 8.2585 114.557 69.6434
22782 2 6.4363 114.559 68.354
16959 1 10.9864 112.946 69.637
22535 2 11.8925 114.559 68.354
22534 2 14.6204 112.948 68.3476
16736 1 13.7147 114.557 69.6434
16760 1 16.4426 112.946 69.637
22332 2 17.3488 114.559 68.354
22349 2 20.0766 112.948 68.3476
16605 1 19.171 114.557 69.6434
17207 1 2.8027 117.779 69.6534
17514 1 0.0743733 116.168 69.6488
23039 2 0.980449 117.779 68.364
17206 1 5.53061 116.168 69.6488
23084 2 3.7084 116.169 68.3595
16925 1 8.25894 117.779 69.6534
22780 2 9.16464 116.169 68.3595
22781 2 6.43669 117.779 68.364
16962 1 10.9869 116.168 69.6488
22505 2 11.8929 117.779 68.364
16735 1 13.7152 117.779 69.6534
22537 2 14.6209 116.169 68.3595
16734 1 16.4431 116.168 69.6488
22331 2 17.3492 117.779 68.364
16594 1 19.1714 117.779 69.6534
22330 2 20.0771 116.169 68.3595
17166 1 2.80296 121.001 69.6596
17477 1 0.0747268 119.39 69.6569
23038 2 0.980704 120.999 68.3701
17209 1 5.53097 119.39 69.6569
23037 2 3.70871 119.389 68.3675
16924 1 8.2592 121.001 69.6596
22738 2 6.43694 120.999 68.3701
22783 2 9.16495 119.389 68.3675
16923 1 10.9872 119.39 69.6569
22504 2 11.8932 120.999 68.3701
16712 1 13.7154 121.001 69.6596
22503 2 14.6212 119.389 68.3675
16737 1 16.4434 119.39 69.6569
22312 2 17.3494 120.999 68.3701
16593 1 19.1717 121.001 69.6596
22333 2 20.0774 119.389 68.3675
17165 1 2.80308 124.223 69.6619
17478 1 0.0749217 122.612 69.6612
23003 2 0.980817 124.219 68.3725
17164 1 5.53116 122.612 69.6612
23040 2 3.7089 122.609 68.3718
16889 1 8.25932 124.223 69.6619
22736 2 9.16514 122.609 68.3718
22737 2 6.43706 124.219 68.3725
16926 1 10.9874 122.612 69.6612
22473 2 11.8933 124.219 68.3725
16711 1 13.7156 124.223 69.6619
22506 2 14.6214 122.609 68.3718
16710 1 16.4436 122.612 69.6612
22311 2 17.3495 124.219 68.3725
16582 1 19.1718 124.223 69.6619
22310 2 20.0776 122.609 68.3718
17132 1 2.80303 127.445 69.6605
17449 1 0.0749583 125.834 69.6617
23002 2 0.980778 127.44 68.371
17167 1 5.5312 125.834 69.6617
23001 2 3.70894 125.829 68.3722
16888 1 8.25927 127.445 69.6605
22698 2 6.43702 127.44 68.371
22739 2 9.16517 125.829 68.3722
16887 1 10.9874 125.834 69.6617
22472 2 11.8933 127.44 68.371
16688 1 13.7155 127.445 69.6605
22471 2 14.6214 125.829 68.3722
16713 1 16.4437 125.834 69.6617
22292 2 17.3495 127.44 68.371
16581 1 19.1718 127.445 69.6605
22313 2 20.0777 125.829 68.3722
17450 1 0.0748317 129.056 69.6583
17130 1 5.53107 129.056 69.6583
23004 2 3.70882 129.05 68.3688
22696 2 9.16506 129.05 68.3688
16890 1 10.9873 129.056 69.6583
22474 2 14.6213 129.05 68.3688
16686 1 16.4435 129.056 69.6583
22290 2 20.0775 129.05 68.3688
17131 1 2.80283 130.667 69.6552
22975 2 0.980584 130.66 68.3657
17429 1 0.0745405 132.278 69.6511
17133 1 5.53078 132.278 69.6511
22973 2 3.70855 132.27 68.3616
16857 1 8.25906 130.667 69.6552
22697 2 6.43682 130.66 68.3657
22699 2 9.16479 132.27 68.3616
22441 2 11.8931 130.66 68.3657
16855 1 10.987 132.278 69.6511
16687 1 13.7153 130.667 69.6552
22439 2 14.621 132.27 68.3616
22291 2 17.3493 130.66 68.3657
16689 1 16.4433 132.278 69.6511
16570 1 19.1715 130.667 69.6552
22293 2 20.0773 132.27 68.3616
17106 1 2.80245 133.889 69.646
17430 1 0.0740893 135.5 69.6399
22974 2 0.980237 133.88 68.3565
17104 1 5.53033 135.5 69.6399
22976 2 3.70813 135.49 68.3505
16856 1 8.25869 133.889 69.646
22664 2 9.16437 135.49 68.3505
22666 2 6.43647 133.88 68.3565
16858 1 10.9866 135.5 69.6399
22440 2 11.8927 133.88 68.3565
16664 1 13.7149 133.889 69.646
22442 2 14.6206 135.49 68.3505
16662 1 16.4428 135.5 69.6399
22272 2 17.349 133.88 68.3565
16569 1 19.1712 133.889 69.646
22270 2 20.0768 135.49 68.3505
17105 1 2.80193 137.111 69.6328
17417 1 0.0734904 138.722 69.6247
22955 2 0.979746 137.101 68.3434
17107 1 5.52973 138.722 69.6247
22953 2 3.70757 138.711 68.3354
16833 1 8.25816 137.111 69.6328
22665 2 6.43598 137.101 68.3434
22667 2 9.16381 138.711 68.3354
16831 1 10.986 138.722 69.6247
22413 2 11.8922 137.101 68.3434
16663 1 13.7144 137.111 69.6328
22411 2 14.62 138.711 68.3354
16665 1 16.4422 138.722 69.6247
22271 2 17.3485 137.101 68.3434
16558 1 19.1706 137.111 69.6328
22273 2 20.0763 138.711 68.3354
17088 1 2.80126 140.334 69.6156
17418 1 0.0727656 141.945 69.6054
22954 2 0.97913 140.322 68.3263
17086 1 5.529 141.945 69.6054
22956 2 3.7069 141.932 68.3161
16832 1 8.2575 140.334 69.6156
22640 2 9.16314 141.932 68.3161
22642 2 6.43537 140.322 68.3263
16834 1 10.9852 141.945 69.6054
22412 2 11.8916 140.322 68.3263
16644 1 13.7137 140.334 69.6156
22414 2 14.6194 141.932 68.3161
16642 1 16.4415 141.945 69.6054
22252 2 17.3478 140.322 68.3263
16557 1 19.17 140.334 69.6156
22250 2 20.0756 141.932 68.3161
17087 1 2.80048 143.556 69.5942
17413 1 0.0719479 145.168 69.5819
22943 2 0.978417 143.543 68.305
17089 1 5.52819 145.168 69.5819
22941 2 3.70615 145.153 68.2927
16817 1 8.25672 143.556 69.5942
22641 2 6.43466 143.543 68.305
22643 2 9.16239 145.153 68.2927
16815 1 10.9844 145.168 69.5819
22393 2 11.8909 143.543 68.305
16643 1 13.713 143.556 69.5942
22391 2 14.6186 145.153 68.2927
16645 1 16.4407 145.168 69.5819
22251 2 17.3471 143.543 68.305
16546 1 19.1692 143.556 69.5942
22253 2 20.0749 145.153 68.2927
17078 1 2.79964 146.779 69.5685
22942 2 0.977644 146.764 68.2793
16816 1 8.25588 146.779 69.5685
22626 2 6.43388 146.764 68.2793
22392 2 11.8901 146.764 68.2793
16632 1 13.7121 146.779 69.5685
22236 2 17.3464 146.764 68.2793
16545 1 19.1684 146.779 69.5685
17414 1 0.0710826 148.391 69.5539
17077 1 2.79877 150.003 69.5382
22936 2 0.976858 149.986 68.2492
17076 1 5.52732 148.391 69.5539
22944 2 3.70537 148.375 68.2648
22624 2 9.16161 148.375 68.2648
16806 1 8.25501 150.003 69.5382
22625 2 6.4331 149.986 68.2492
16818 1 10.9836 148.391 69.5539
22378 2 11.8893 149.986 68.2492
22394 2 14.6178 148.375 68.2648
16631 1 13.7112 150.003 69.5382
16630 1 16.4398 148.391 69.5539
22235 2 17.3456 149.986 68.2492
22234 2 20.0741 148.375 68.2648
16536 1 19.1675 150.003 69.5382
23126 2 1.89714 103.268 70.8346
15188 1 0.985028 101.649 72.1394
17292 1 3.71357 103.262 72.153
20726 2 4.62489 101.656 70.821
16988 1 9.16981 103.262 72.153
22852 2 7.35337 103.268 70.8346
14900 1 6.44127 101.649 72.1394
14711 1 11.8975 101.649 72.1394
20465 2 10.0811 101.656 70.821
16773 1 14.6261 103.262 72.153
22555 2 12.8096 103.268 70.8346
20310 2 15.5374 101.656 70.821
22354 2 18.2659 103.268 70.8346
14612 1 17.3537 101.649 72.1394
16610 1 20.0823 103.262 72.153
20240 2 20.9936 101.656 70.821
17250 1 0.98588 104.875 72.1656
23127 2 1.89786 106.492 70.8586
17248 1 3.71442 106.487 72.1771
22818 2 4.62562 104.88 70.8471
16989 1 6.44212 104.875 72.1656
16990 1 9.17066 106.487 72.1771
22816 2 7.3541 106.492 70.8586
16755 1 11.8984 104.875 72.1656
22556 2 10.0819 104.88 70.8471
16753 1 14.6269 106.487 72.1771
22344 2 15.5381 104.88 70.8471
22557 2 12.8103 106.492 70.8586
16611 1 17.3546 104.875 72.1656
22342 2 18.2666 106.492 70.8586
16612 1 20.0831 106.487 72.1771
22212 2 20.9943 104.88 70.8471
17249 1 0.986705 108.1 72.1876
23079 2 1.89856 109.716 70.8785
17251 1 3.71521 109.713 72.1971
22817 2 4.62634 108.104 70.8691
16955 1 9.17145 109.713 72.1971
16957 1 6.44294 108.1 72.1876
22819 2 7.3548 109.716 70.8785
16754 1 11.8992 108.1 72.1876
22532 2 10.0826 108.104 70.8691
16756 1 14.6277 109.713 72.1971
22343 2 15.5388 108.104 70.8691
22530 2 12.811 109.716 70.8785
16603 1 17.3554 108.1 72.1876
22345 2 18.2673 109.716 70.8785
16601 1 20.0839 109.713 72.1971
22211 2 20.9951 108.104 70.8691
17204 1 0.987452 111.326 72.2055
22778 2 4.627 111.328 70.8869
16956 1 6.44369 111.326 72.2055
16732 1 11.8999 111.326 72.2055
22531 2 10.0832 111.328 70.8869
22328 2 15.5395 111.328 70.8869
16602 1 17.3562 111.326 72.2055
22210 2 20.9957 111.328 70.8869
23080 2 1.89917 112.94 70.8943
17203 1 0.988077 114.551 72.2194
17202 1 3.7159 112.939 72.2129
22777 2 4.62755 114.552 70.9008
16958 1 9.17214 112.939 72.2129
22776 2 7.35541 112.94 70.8943
16921 1 6.44432 114.551 72.2194
16731 1 11.9006 114.551 72.2194
22501 2 10.0838 114.552 70.9008
16730 1 14.6284 112.939 72.2129
22533 2 12.8116 112.94 70.8943
22327 2 15.54 114.552 70.9008
22326 2 18.2679 112.94 70.8943
16591 1 17.3568 114.551 72.2194
16604 1 20.0846 112.939 72.2129
22204 2 20.9963 114.552 70.9008
17162 1 0.988554 117.776 72.2294
23035 2 1.89967 116.164 70.9062
17205 1 3.71646 116.164 72.2249
22734 2 4.62798 117.775 70.9108
16919 1 9.17269 116.164 72.2249
16920 1 6.44479 117.776 72.2294
22779 2 7.3559 116.164 70.9062
16708 1 11.901 117.776 72.2294
22500 2 10.0842 117.775 70.9108
16733 1 14.6289 116.164 72.2249
22308 2 15.5405 117.775 70.9108
22499 2 12.8121 116.164 70.9062
16590 1 17.3573 117.776 72.2294
22329 2 18.2684 116.164 70.9062
16589 1 20.0852 116.164 72.2249
22203 2 20.9967 117.775 70.9108
17161 1 0.988863 121.002 72.2356
23036 2 1.90002 119.387 70.9143
17160 1 3.71685 119.389 72.233
22733 2 4.62826 120.999 70.917
16885 1 6.4451 121.002 72.2356
16922 1 9.17309 119.389 72.233
22732 2 7.35626 119.387 70.9143
16707 1 11.9013 121.002 72.2356
22469 2 10.0845 120.999 70.917
16706 1 14.6293 119.389 72.233
22307 2 15.5407 120.999 70.917
22502 2 12.8125 119.387 70.9143
16579 1 17.3576 121.002 72.2356
22306 2 18.2687 119.387 70.9143
16592 1 20.0856 119.389 72.233
22196 2 20.997 120.999 70.917
17128 1 0.988995 124.227 72.238
22999 2 1.90023 122.61 70.9186
17163 1 3.71707 122.614 72.2373
22694 2 4.62839 124.222 70.9193
16883 1 9.17331 122.614 72.2373
16884 1 6.44523 124.227 72.238
22735 2 7.35646 122.61 70.9186
16684 1 11.9015 124.227 72.238
22468 2 10.0846 124.222 70.9193
16709 1 14.6295 122.614 72.2373
22288 2 15.5409 124.222 70.9193
22467 2 12.8127 122.61 70.9186
16578 1 17.3577 124.227 72.238
22309 2 18.2689 122.61 70.9186
16577 1 20.0858 122.614 72.2373
22195 2 20.9971 124.222 70.9193
17127 1 0.988947 127.452 72.2365
23000 2 1.90027 125.834 70.9191
17126 1 3.71711 125.84 72.2378
22693 2 4.62835 127.445 70.9178
16853 1 6.44519 127.452 72.2365
16886 1 9.17335 125.84 72.2378
22692 2 7.35651 125.834 70.9191
16683 1 11.9014 127.452 72.2365
22437 2 10.0846 127.445 70.9178
16682 1 14.6296 125.84 72.2378
22287 2 15.5408 127.445 70.9178
22470 2 12.8127 125.834 70.9191
16567 1 17.3577 127.452 72.2365
22286 2 18.269 125.834 70.9191
16580 1 20.0858 125.84 72.2378
22188 2 20.9971 127.445 70.9178
22971 2 1.90015 129.057 70.9157
17129 1 3.71697 129.065 72.2344
16851 1 9.17321 129.065 72.2344
22695 2 7.35639 129.057 70.9157
16685 1 14.6294 129.065 72.2344
22435 2 12.8126 129.057 70.9157
22289 2 18.2689 129.057 70.9157
16565 1 20.0857 129.065 72.2344
17102 1 0.988714 130.678 72.2312
22972 2 1.89986 132.281 70.9084
22662 2 4.62814 130.669 70.9125
17100 1 3.71665 132.29 72.2271
16852 1 6.44495 130.678 72.2312
16854 1 9.17288 132.29 72.2271
22660 2 7.3561 132.281 70.9084
16660 1 11.9012 130.678 72.2312
22436 2 10.0844 130.669 70.9125
22268 2 15.5406 130.669 70.9125
16658 1 14.6291 132.29 72.2271
22438 2 12.8123 132.281 70.9084
16566 1 17.3574 130.678 72.2312
22266 2 18.2686 132.281 70.9084
22187 2 20.9969 130.669 70.9125
16568 1 20.0854 132.29 72.2271
17101 1 0.988293 133.903 72.2219
22951 2 1.89941 135.504 70.8972
17103 1 3.71613 135.516 72.2158
22661 2 4.62777 133.892 70.9033
16827 1 9.17237 135.516 72.2158
16829 1 6.44453 133.903 72.2219
22663 2 7.35565 135.504 70.8972
16659 1 11.9008 133.903 72.2219
22409 2 10.084 133.892 70.9033
16661 1 14.6286 135.516 72.2158
22267 2 15.5402 133.892 70.9033
22407 2 12.8119 135.504 70.8972
16555 1 17.357 133.903 72.2219
22269 2 18.2681 135.504 70.8972
16553 1 20.0848 135.516 72.2158
22180 2 20.9965 133.892 70.9033
17084 1 0.987687 137.129 72.2087
22952 2 1.8988 138.728 70.882
17082 1 3.71544 138.742 72.2006
22638 2 4.62724 137.116 70.8901
16828 1 6.44393 137.129 72.2087
16830 1 9.17168 138.742 72.2006
22636 2 7.35504 138.728 70.882
16640 1 11.9002 137.129 72.2087
22408 2 10.0835 137.116 70.8901
16638 1 14.6279 138.742 72.2006
22248 2 15.5397 137.116 70.8901
22410 2 12.8113 138.728 70.882
16554 1 17.3564 137.129 72.2087
22246 2 18.2675 138.728 70.882
16556 1 20.0842 138.742 72.2006
22179 2 20.996 137.116 70.8901
17083 1 0.986907 140.355 72.1914
22939 2 1.89805 141.952 70.8626
17085 1 3.71458 141.968 72.1812
22637 2 4.62656 140.34 70.8728
16811 1 9.17081 141.968 72.1812
16813 1 6.44315 140.355 72.1914
22639 2 7.35429 141.952 70.8626
16639 1 11.8994 140.355 72.1914
22389 2 10.0828 140.34 70.8728
16641 1 14.6271 141.968 72.1812
22247 2 15.539 140.34 70.8728
22387 2 12.8105 141.952 70.8626
16543 1 17.3556 140.355 72.1914
22249 2 18.2668 141.952 70.8626
16541 1 20.0833 141.968 72.1812
22172 2 20.9953 140.34 70.8728
17074 1 0.985974 143.581 72.1698
22940 2 1.8972 145.177 70.839
17072 1 3.71358 145.194 72.1575
22622 2 4.62576 143.565 70.8513
16812 1 6.44221 143.581 72.1698
16814 1 9.16982 145.194 72.1575
22620 2 7.35344 145.177 70.839
16628 1 11.8985 143.581 72.1698
22388 2 10.082 143.565 70.8513
16626 1 14.6261 145.194 72.1575
22232 2 15.5382 143.565 70.8513
22390 2 12.8097 145.177 70.839
16542 1 17.3547 143.581 72.1698
22230 2 18.2659 145.177 70.839
16544 1 20.0823 145.194 72.1575
22171 2 20.9945 143.565 70.8513
17073 1 0.984925 146.807 72.144
22621 2 4.62486 146.789 70.8255
16805 1 6.44116 146.807 72.144
16627 1 11.8974 146.807 72.144
22377 2 10.0811 146.789 70.8255
22231 2 15.5373 146.789 70.8255
16535 1 17.3536 146.807 72.144
22164 2 20.9936 146.789 70.8255
22935 2 1.89628 148.402 70.811
17069 1 0.983814 150.033 72.1135
17075 1 3.71249 148.42 72.1293
22611 2 4.62392 150.015 70.7952
16803 1 9.16873 148.42 72.1293
22623 2 7.35252 148.402 70.811
16804 1 6.44005 150.033 72.1135
16621 1 11.8963 150.033 72.1135
22376 2 10.0802 150.015 70.7952
16629 1 14.625 148.42 72.1293
22375 2 12.8088 148.402 70.811
22221 2 15.5364 150.015 70.7952
22233 2 18.265 148.402 70.811
16534 1 17.3525 150.033 72.1135
16533 1 20.0812 148.42 72.1293
22163 2 20.9926 150.015 70.7952
23125 2 0.08639 103.25 73.3664
20716 2 2.81408 101.636 73.3528
17246 1 1.84001 103.249 74.8044
20714 2 0.975824 101.621 75.8272
22813 2 5.54263 103.25 73.3664
22812 2 3.7045 103.236 75.8409
14898 1 4.56756 101.634 74.7907
20463 2 8.27031 101.636 73.3528
16987 1 7.29625 103.249 74.8044
22523 2 9.16074 103.236 75.8409
20457 2 6.43206 101.621 75.8272
22554 2 10.9989 103.25 73.3664
14705 1 10.0238 101.634 74.7907
20298 2 11.8883 101.621 75.8272
20300 2 13.7266 101.636 73.3528
16750 1 12.7525 103.249 74.8044
22338 2 14.617 103.236 75.8409
14610 1 15.48 101.634 74.7907
22339 2 16.4551 103.25 73.3664
16609 1 18.2087 103.249 74.8044
20233 2 17.3445 101.621 75.8272
20238 2 19.1828 101.636 73.3528
22205 2 20.0732 103.236 75.8409
14593 1 20.9363 101.634 74.7907
22814 2 2.81494 104.864 73.379
23077 2 0.087242 106.477 73.3905
17247 1 1.84114 106.477 74.8285
22770 2 0.976926 104.851 75.8535
22815 2 5.54348 106.477 73.3905
16953 1 4.5687 104.863 74.8169
22768 2 3.70558 106.466 75.865
22528 2 8.27118 104.864 73.379
16951 1 7.29738 106.477 74.8285
22524 2 6.43316 104.851 75.8535
22525 2 9.16182 106.466 75.865
22526 2 10.9997 106.477 73.3905
16751 1 10.0249 104.863 74.8169
22320 2 11.8894 104.851 75.8535
22340 2 13.7274 104.864 73.379
16599 1 15.4812 104.863 74.8169
16752 1 12.7536 106.477 74.8285
22318 2 14.6181 106.466 75.865
22341 2 16.456 106.477 73.3905
16597 1 18.2099 106.477 74.8285
22206 2 17.3456 104.851 75.8535
22209 2 19.1837 104.864 73.379
16527 1 20.9374 104.863 74.8169
22207 2 20.0743 106.466 75.865
22774 2 2.81577 108.091 73.401
17200 1 1.8422 109.706 74.8484
22769 2 0.977968 108.081 75.8756
23078 2 0.0880347 109.704 73.4105
16952 1 4.5698 108.092 74.8389
22771 2 3.70657 109.696 75.885
22772 2 5.54427 109.704 73.4105
22527 2 8.27201 108.091 73.401
16954 1 7.29844 109.706 74.8484
22491 2 9.16281 109.696 75.885
22493 2 6.43421 108.081 75.8756
16728 1 10.026 108.092 74.8389
22319 2 11.8904 108.081 75.8756
22529 2 11.0005 109.704 73.4105
22324 2 13.7282 108.091 73.401
16598 1 15.4823 108.092 74.8389
16726 1 12.7547 109.706 74.8484
22321 2 14.619 109.696 75.885
16600 1 18.2109 109.706 74.8484
22199 2 17.3467 108.081 75.8756
22322 2 16.4567 109.704 73.4105
22208 2 19.1845 108.091 73.401
16526 1 20.9385 108.092 74.8389
22197 2 20.0753 109.696 75.885
22726 2 0.978894 111.311 75.8935
22773 2 2.81651 111.318 73.419
16917 1 4.5708 111.321 74.8568
22492 2 6.43513 111.311 75.8935
22497 2 8.27275 111.318 73.419
16727 1 10.027 111.321 74.8568
22300 2 11.8914 111.311 75.8935
16587 1 15.4833 111.321 74.8568
22323 2 13.729 111.318 73.419
22198 2 17.3476 111.311 75.8935
16525 1 20.9395 111.321 74.8568
22202 2 19.1852 111.318 73.419
17201 1 1.84312 112.936 74.8643
23033 2 0.0887237 112.931 73.4264
22725 2 0.97966 114.542 75.9075
22730 2 2.81714 114.545 73.4329
22724 2 3.70742 112.927 75.901
22775 2 5.54496 112.931 73.4264
16916 1 4.57163 114.55 74.8708
16915 1 7.29936 112.936 74.8643
22494 2 9.16366 112.927 75.901
22461 2 6.4359 114.542 75.9075
22496 2 8.27338 114.545 73.4329
22495 2 11.0012 112.931 73.4264
16704 1 10.0279 114.55 74.8708
22299 2 11.8921 114.542 75.9075
16729 1 12.7556 112.936 74.8643
22298 2 14.6199 112.927 75.901
16586 1 15.4841 114.55 74.8708
22304 2 13.7296 114.545 73.4329
16585 1 18.2118 112.936 74.8643
22325 2 16.4574 112.931 73.4264
22191 2 17.3484 114.542 75.9075
22200 2 20.0761 112.927 75.901
16524 1 20.9403 114.55 74.8708
22201 2 19.1859 114.545 73.4329
17158 1 1.84385 116.165 74.8763
22686 2 0.980233 117.772 75.9175
22729 2 2.81762 117.771 73.4429
23034 2 0.089278 116.158 73.4384
16881 1 4.57225 117.779 74.8808
22727 2 3.70809 116.157 75.913
22728 2 5.54552 116.158 73.4384
16918 1 7.30009 116.165 74.8763
22459 2 9.16433 116.157 75.913
22460 2 6.43647 117.772 75.9175
22465 2 8.27385 117.771 73.4429
16703 1 10.0285 117.779 74.8808
22280 2 11.8927 117.772 75.9175
22498 2 11.0018 116.158 73.4384
16575 1 15.4847 117.779 74.8808
16702 1 12.7563 116.165 74.8763
22301 2 14.6206 116.157 75.913
22303 2 13.7301 117.771 73.4429
16588 1 18.2126 116.165 74.8763
22190 2 17.3489 117.772 75.9175
22302 2 16.458 116.158 73.4384
16523 1 20.941 117.779 74.8808
22189 2 20.0768 116.157 75.913
22194 2 19.1863 117.771 73.4429
17159 1 1.84436 119.394 74.8844
22685 2 0.9806 121.002 75.9237
22690 2 2.81793 120.998 73.4491
22997 2 0.0896752 119.384 73.4465
16880 1 4.57264 121.009 74.887
22684 2 3.70856 119.387 75.9211
22731 2 5.54591 119.384 73.4465
16879 1 7.30059 119.394 74.8844
22429 2 6.43684 121.002 75.9237
22462 2 9.1648 119.387 75.9211
22464 2 8.27417 120.998 73.4491
16680 1 10.0289 121.009 74.887
22279 2 11.8931 121.002 75.9237
22463 2 11.0022 119.384 73.4465
16574 1 15.4851 121.009 74.887
16705 1 12.7568 119.394 74.8844
22278 2 14.621 119.387 75.9211
22284 2 13.7304 120.998 73.4491
16573 1 18.2131 119.394 74.8844
22183 2 17.3493 121.002 75.9237
22305 2 16.4584 119.384 73.4465
16522 1 20.9414 121.009 74.887
22192 2 20.0773 119.387 75.9211
22193 2 19.1866 120.998 73.4491
17124 1 1.84464 122.623 74.8887
22654 2 0.980759 124.232 75.9261
22689 2 2.81807 124.224 73.4515
22998 2 0.0899016 122.611 73.4508
16849 1 4.57281 124.238 74.8894
22687 2 3.70882 122.617 75.9254
22688 2 5.54614 122.611 73.4508
16882 1 7.30088 122.623 74.8887
22427 2 9.16506 122.617 75.9254
22428 2 6.437 124.232 75.9261
22433 2 8.27431 124.224 73.4515
16679 1 10.029 124.238 74.8894
22260 2 11.8932 124.232 75.9261
22466 2 11.0024 122.611 73.4508
16563 1 15.4853 124.238 74.8894
16678 1 12.7571 122.623 74.8887
22281 2 14.6213 122.617 75.9254
22283 2 13.7305 124.224 73.4515
16576 1 18.2134 122.623 74.8887
22182 2 17.3495 124.232 75.9261
22282 2 16.4586 122.611 73.4508
16521 1 20.9415 124.238 74.8894
22181 2 20.0775 122.617 75.9254
22186 2 19.1868 124.224 73.4515
17125 1 1.84469 125.853 74.8891
22653 2 0.980707 127.462 75.9245
22658 2 2.81803 127.451 73.45
22969 2 0.089953 125.837 73.4512
16848 1 4.57274 127.468 74.8879
22652 2 3.70888 125.847 75.9258
22691 2 5.54619 125.837 73.4512
16847 1 7.30093 125.853 74.8891
22401 2 6.43695 127.462 75.9245
22430 2 9.16512 125.847 75.9258
22432 2 8.27427 127.451 73.45
16656 1 10.029 127.468 74.8879
22259 2 11.8932 127.462 75.9245
22431 2 11.0024 125.837 73.4512
16562 1 15.4852 127.468 74.8879
16681 1 12.7572 125.853 74.8891
22258 2 14.6214 125.847 75.9258
22264 2 13.7305 127.451 73.45
16561 1 18.2134 125.853 74.8891
22175 2 17.3494 127.462 75.9245
22285 2 16.4587 125.837 73.4512
16520 1 20.9415 127.468 74.8879
22184 2 20.0776 125.847 75.9258
22185 2 19.1867 127.451 73.45
17098 1 1.8445 129.082 74.8857
22970 2 0.0898252 129.064 73.4478
22655 2 3.70872 129.077 75.9223
22656 2 5.54606 129.064 73.4478
16850 1 7.30074 129.082 74.8857
22399 2 9.16496 129.077 75.9223
22434 2 11.0023 129.064 73.4478
16654 1 12.757 129.082 74.8857
22261 2 14.6212 129.077 75.9223
16564 1 18.2132 129.082 74.8857
22262 2 16.4585 129.064 73.4478
22173 2 20.0774 129.077 75.9223
22630 2 0.980436 130.692 75.9191
22657 2 2.81781 130.677 73.4446
17099 1 1.84407 132.312 74.8783
22949 2 0.0895132 132.29 73.4405
16825 1 4.57244 130.697 74.8825
22628 2 3.70833 132.307 75.9148
22659 2 5.54575 132.29 73.4405
22400 2 6.43667 130.692 75.9191
22405 2 8.27405 130.677 73.4446
16823 1 7.30031 132.312 74.8783
22402 2 9.16457 132.307 75.9148
16655 1 10.0287 130.697 74.8825
22240 2 11.8929 130.692 75.9191
22403 2 11.002 132.29 73.4405
16551 1 15.4849 130.697 74.8825
22263 2 13.7303 130.677 73.4446
16657 1 12.7565 132.312 74.8783
22238 2 14.6208 132.307 75.9148
22174 2 17.3492 130.692 75.9191
16549 1 18.2128 132.312 74.8783
22265 2 16.4582 132.29 73.4405
16519 1 20.9412 130.697 74.8825
22178 2 19.1865 130.677 73.4446
22176 2 20.077 132.307 75.9148
17080 1 1.84338 135.542 74.867
22629 2 0.979936 133.922 75.9096
22634 2 2.81741 133.904 73.4353
22950 2 0.0890148 135.517 73.4292
16824 1 4.57188 133.927 74.8731
22631 2 3.70772 135.537 75.9035
22632 2 5.54525 135.517 73.4292
16826 1 7.29962 135.542 74.867
22379 2 9.16396 135.537 75.9035
22381 2 6.43617 133.922 75.9096
22404 2 8.27364 133.904 73.4353
16636 1 10.0281 133.927 74.8731
22239 2 11.8924 133.922 75.9096
22406 2 11.0015 135.517 73.4292
16550 1 15.4844 133.927 74.8731
16634 1 12.7559 135.542 74.867
22241 2 14.6202 135.537 75.9035
22244 2 13.7299 133.904 73.4353
16552 1 18.2121 135.542 74.867
22167 2 17.3487 133.922 75.9096
22242 2 16.4577 135.517 73.4292
16518 1 20.9406 133.927 74.8731
22165 2 20.0764 135.537 75.9035
22177 2 19.1861 133.904 73.4353
17081 1 1.84244 138.771 74.8516
22614 2 0.979201 137.153 75.8962
22633 2 2.81682 137.131 73.422
22937 2 0.0883335 138.744 73.4138
16809 1 4.57106 137.157 74.8598
22612 2 3.70687 138.768 75.888
22635 2 5.54457 138.744 73.4138
16807 1 7.29868 138.771 74.8516
22380 2 6.43544 137.153 75.8962
22382 2 9.1631 138.768 75.888
22385 2 8.27305 137.131 73.422
16635 1 10.0273 137.157 74.8598
22224 2 11.8917 137.153 75.8962
22383 2 11.0008 138.744 73.4138
16539 1 15.4835 137.157 74.8598
16637 1 12.7549 138.771 74.8516
22222 2 14.6193 138.768 75.888
22243 2 13.7293 137.131 73.422
16537 1 18.2112 138.771 74.8516
22166 2 17.3479 137.153 75.8962
22245 2 16.457 138.744 73.4138
16517 1 20.9398 137.157 74.8598
22168 2 20.0756 138.768 75.888
22170 2 19.1855 137.131 73.422
17070 1 1.84127 142.001 74.8322
22613 2 0.978236 140.383 75.8788
22618 2 2.81605 140.358 73.4046
22938 2 0.087481 141.972 73.3944
16808 1 4.57 140.386 74.8424
22615 2 3.70579 141.999 75.8685
22616 2 5.54372 141.972 73.3944
16810 1 7.29751 142.001 74.8322
22367 2 9.16203 141.999 75.8685
22369 2 6.43447 140.383 75.8788
22384 2 8.27229 140.358 73.4046
16624 1 10.0262 140.386 74.8424
22223 2 11.8907 140.383 75.8788
22386 2 11 141.972 73.3944
16538 1 15.4825 140.386 74.8424
16622 1 12.7537 142.001 74.8322
22225 2 14.6183 141.999 75.8685
22228 2 13.7285 140.358 73.4046
16540 1 18.21 142.001 74.8322
22159 2 17.347 140.383 75.8788
22226 2 16.4562 141.972 73.3944
16516 1 20.9387 140.386 74.8424
22157 2 20.0745 141.999 75.8685
22169 2 19.1848 140.358 73.4046
17071 1 1.83989 145.231 74.8084
22606 2 0.977054 143.614 75.8571
22617 2 2.81512 143.586 73.3831
22933 2 0.0864811 145.2 73.3707
16801 1 4.56872 143.616 74.8208
22604 2 3.70451 145.23 75.8447
22619 2 5.54272 145.2 73.3707
16799 1 7.29613 145.231 74.8084
22368 2 6.43329 143.614 75.8571
22370 2 9.16075 145.23 75.8447
22373 2 8.27136 143.586 73.3831
16623 1 10.025 143.616 74.8208
22216 2 11.8895 143.614 75.8571
22371 2 10.999 145.2 73.3707
16531 1 15.4812 143.616 74.8208
16625 1 12.7524 145.231 74.8084
22214 2 14.617 145.23 75.8447
22227 2 13.7276 143.586 73.3831
16529 1 18.2086 145.231 74.8084
22158 2 17.3458 143.614 75.8571
22229 2 16.4552 145.2 73.3707
16515 1 20.9374 143.616 74.8208
22160 2 20.0732 145.23 75.8447
22162 2 19.1838 143.586 73.3831
22605 2 0.975692 146.845 75.8312
22610 2 2.81406 146.814 73.3572
16800 1 4.56727 146.845 74.7949
22365 2 6.43193 146.845 75.8312
22372 2 8.2703 146.814 73.3572
16620 1 10.0235 146.845 74.7949
22215 2 11.8882 146.845 75.8312
16530 1 15.4797 146.845 74.7949
22220 2 13.7265 146.814 73.3572
22155 2 17.3444 146.845 75.8312
16514 1 20.936 146.845 74.7949
22161 2 19.1828 146.814 73.3572
17068 1 1.83838 148.46 74.7803
22934 2 0.0853729 148.428 73.3425
22603 2 0.974211 150.076 75.8008
22609 2 2.81291 150.042 73.3268
22607 2 3.70308 148.461 75.8165
22608 2 5.54161 148.428 73.3425
16798 1 4.56573 150.074 74.7645
16802 1 7.29462 148.46 74.7803
22363 2 9.15932 148.461 75.8165
22366 2 8.26915 150.042 73.3268
22364 2 6.43045 150.076 75.8008
22374 2 10.9978 148.428 73.3425
22213 2 11.8867 150.076 75.8008
16619 1 10.022 150.074 74.7645
16618 1 12.7509 148.46 74.7803
22217 2 14.6156 148.461 75.8165
22219 2 13.7254 150.042 73.3268
16528 1 15.4782 150.074 74.7645
16532 1 18.2071 148.46 74.7803
22218 2 16.4541 148.428 73.3425
22154 2 17.3429 150.076 75.8008
22153 2 20.0718 148.461 75.8165
22156 2 19.1816 150.042 73.3268
16513 1 20.9344 150.074 74.7645
