ITEM: TIMESTEP
3480
ITEM: NUMBER OF ATOMS
23952
ITEM: BOX BOUNDS pp pp ss
0.0000000000000000e+00 2.1824953608198122e+01
0.0000000000000000e+00 1.5120771408893131e+02
-4.0909317027830356e+00 7.5937726606026501e+01
ITEM: ATOMS id type x y z
8175 2 2.7181 1.09869 -3.52896
2048 1 1.79916 2.68206 -2.48475
2014 1 4.52526 1.11321 -2.46585
8176 2 5.44753 2.66659 -3.54766
8078 2 8.17434 1.09869 -3.52896
2012 1 7.25539 2.68206 -2.48475
1887 1 9.9815 1.11321 -2.46585
8076 2 10.9038 2.66659 -3.54766
1662 1 15.4377 1.11321 -2.46585
7887 2 13.6306 1.09869 -3.52896
1888 1 12.7116 2.68206 -2.48475
1660 1 18.1679 2.68206 -2.48475
7888 2 16.36 2.66659 -3.54766
1344 1 20.894 1.11321 -2.46585
7600 2 19.0868 1.09869 -3.52896
8190 2 21.8162 2.66659 -3.54766
8171 2 2.72078 4.23493 -3.56725
2013 1 4.52943 4.25134 -2.50456
8169 2 5.45032 5.80377 -3.58768
8077 2 8.17702 4.23493 -3.56725
1883 1 9.98567 4.25134 -2.50456
8079 2 10.9066 5.80377 -3.58768
1661 1 15.4419 4.25134 -2.50456
7883 2 13.6333 4.23493 -3.56725
7881 2 16.3628 5.80377 -3.58768
1343 1 20.8982 4.25134 -2.50456
7599 2 19.0895 4.23493 -3.56725
8191 2 21.819 5.80377 -3.58768
8170 2 2.72368 7.37317 -3.6089
2044 1 1.80362 5.82112 -2.52524
2006 1 4.5342 7.39143 -2.54674
8070 2 8.17992 7.37317 -3.6089
2015 1 7.25986 5.82112 -2.52524
1882 1 9.99044 7.39143 -2.54674
1654 1 15.4467 7.39143 -2.54674
1881 1 12.7161 5.82112 -2.52524
7882 2 13.6362 7.37317 -3.6089
1663 1 18.1723 5.82112 -2.52524
1342 1 20.9029 7.39143 -2.54674
7594 2 19.0924 7.37317 -3.6089
8160 2 2.72676 10.5139 -3.65347
2045 1 1.80868 8.96233 -2.56901
8172 2 5.45332 8.94319 -3.63085
2005 1 4.53954 10.5339 -2.59198
8069 2 8.183 10.5139 -3.65347
2004 1 7.26492 8.96233 -2.56901
8068 2 10.9096 8.94319 -3.63085
1871 1 9.99578 10.5339 -2.59198
1653 1 15.452 10.5339 -2.59198
1884 1 12.7212 8.96233 -2.56901
7871 2 13.6392 10.5139 -3.65347
1652 1 18.1774 8.96233 -2.56901
7884 2 16.3658 8.94319 -3.63085
8188 2 21.822 8.94319 -3.63085
1335 1 20.9083 10.5339 -2.59198
7593 2 19.0955 10.5139 -3.65347
8159 2 2.72998 13.6577 -3.70036
2040 1 1.81429 12.1061 -2.61556
8158 2 5.45648 12.0854 -3.67667
1991 1 4.5454 13.6791 -2.63967
2007 1 7.27053 12.1061 -2.61556
8054 2 8.18622 13.6577 -3.70036
8071 2 10.9127 12.0854 -3.67667
1870 1 10.0016 13.6791 -2.63967
1638 1 15.4579 13.6791 -2.63967
1869 1 12.7268 12.1061 -2.61556
7870 2 13.6425 13.6577 -3.70036
1655 1 18.183 12.1061 -2.61556
7869 2 16.369 12.0854 -3.67667
8189 2 21.8252 12.0854 -3.67667
1334 1 20.9141 13.6791 -2.63967
7580 2 19.0987 13.6577 -3.70036
8148 2 2.73328 16.805 -3.74883
2041 1 1.82038 15.253 -2.66422
8161 2 5.45974 15.2309 -3.72445
1990 1 4.55168 16.8276 -2.68908
1989 1 7.27661 15.253 -2.66422
8053 2 8.18952 16.805 -3.74883
1851 1 10.0079 16.8276 -2.68908
8052 2 10.916 15.2309 -3.72445
1637 1 15.4642 16.8276 -2.68908
1872 1 12.7329 15.253 -2.66422
7851 2 13.6458 16.805 -3.74883
1636 1 18.1891 15.253 -2.66422
7872 2 16.3722 15.2309 -3.72445
8186 2 21.8285 15.2309 -3.72445
1319 1 20.9204 16.8276 -2.68908
7579 2 19.102 16.805 -3.74883
8147 2 2.73659 19.9564 -3.79796
2036 1 1.82681 18.4032 -2.71414
8146 2 5.46306 18.3802 -3.77337
1975 1 4.55823 19.9797 -2.73927
1992 1 7.28305 18.4032 -2.71414
8031 2 8.19283 19.9564 -3.79796
1850 1 10.0145 19.9797 -2.73927
8055 2 10.9193 18.3802 -3.77337
1614 1 15.4707 19.9797 -2.73927
1849 1 12.7393 18.4032 -2.71414
7850 2 13.6491 19.9564 -3.79796
1639 1 18.1955 18.4032 -2.71414
7849 2 16.3755 18.3802 -3.77337
8187 2 21.8318 18.3802 -3.77337
1318 1 20.9269 19.9797 -2.73927
7558 2 19.1053 19.9564 -3.79796
8136 2 2.73987 23.1121 -3.84671
2037 1 1.83343 21.5572 -2.76433
8149 2 5.46636 21.5337 -3.82246
1974 1 4.56486 23.1357 -2.78916
1973 1 7.28967 21.5572 -2.76433
8030 2 8.19611 23.1121 -3.84671
1824 1 10.0211 23.1357 -2.78916
8029 2 10.9226 21.5337 -3.82246
1613 1 15.4773 23.1357 -2.78916
1852 1 12.7459 21.5572 -2.76433
7823 2 13.6523 23.1121 -3.84671
1612 1 18.2021 21.5572 -2.76433
7852 2 16.3788 21.5337 -3.82246
8184 2 21.8351 21.5337 -3.82246
1295 1 20.9336 23.1357 -2.78916
7557 2 19.1086 23.1121 -3.84671
2032 1 1.84003 24.7151 -2.81361
8135 2 2.74304 26.2726 -3.89391
8120 2 0.919733 26.3024 -1.39527
8134 2 5.46959 24.6918 -3.87058
1959 1 4.57138 26.2955 -2.83752
8133 2 3.64716 24.7228 -1.37131
1976 1 7.29627 24.7151 -2.81361
8007 2 8.19928 26.2726 -3.89391
8001 2 9.1034 24.7228 -1.37131
8002 2 6.37597 26.3024 -1.39527
8032 2 10.9258 24.6918 -3.87058
1823 1 10.0276 26.2955 -2.83752
7784 2 11.8322 26.3024 -1.39527
1822 1 12.7525 24.7151 -2.81361
1582 1 15.4839 26.2955 -2.83752
7822 2 13.6555 26.2726 -3.89391
7820 2 14.5596 24.7228 -1.37131
1615 1 18.2087 24.7151 -2.81361
7821 2 16.3821 24.6918 -3.87058
7524 2 17.2884 26.3024 -1.39527
8185 2 21.8383 24.6918 -3.87058
1294 1 20.9401 26.2955 -2.83752
7528 2 19.1118 26.2726 -3.89391
7523 2 20.0159 24.7228 -1.37131
2033 1 1.84641 27.877 -2.86072
8124 2 2.74606 29.4376 -3.9383
8119 2 0.921032 29.4647 -1.44092
8137 2 5.4727 27.8545 -3.91653
1958 1 4.57758 29.4593 -2.88305
8118 2 3.64852 27.883 -1.41853
1957 1 7.30265 27.877 -2.86072
8006 2 8.2023 29.4376 -3.9383
8004 2 9.10475 27.883 -1.41853
7979 2 6.37727 29.4647 -1.44092
8005 2 10.9289 27.8545 -3.91653
1796 1 10.0338 29.4593 -2.88305
7783 2 11.8335 29.4647 -1.44092
1825 1 12.7589 27.877 -2.86072
1581 1 15.4901 29.4593 -2.88305
7788 2 13.6585 29.4376 -3.9383
7782 2 14.561 27.883 -1.41853
1580 1 18.2151 27.877 -2.86072
7824 2 16.3852 27.8545 -3.91653
7487 2 17.2897 29.4647 -1.44092
8182 2 21.8414 27.8545 -3.91653
1263 1 20.9463 29.4593 -2.88305
7527 2 19.1148 29.4376 -3.9383
7526 2 20.0172 27.883 -1.41853
2028 1 1.85238 31.0426 -2.90433
8122 2 5.47561 31.0219 -3.95905
8121 2 3.64976 31.0473 -1.46226
1960 1 7.30861 31.0426 -2.90433
7977 2 9.106 31.0473 -1.46226
8008 2 10.9318 31.0219 -3.95905
1794 1 12.7649 31.0426 -2.90433
7785 2 14.5622 31.0473 -1.46226
1583 1 18.2211 31.0426 -2.90433
7786 2 16.3881 31.0219 -3.95905
8183 2 21.8443 31.0219 -3.95905
7485 2 20.0185 31.0473 -1.46226
8123 2 2.74885 32.6073 -3.97863
2029 1 1.85772 34.2117 -2.94315
8180 2 0.0220091 34.1937 -3.99688
8108 2 0.922223 32.631 -1.48241
8125 2 5.47825 34.1937 -3.99688
1943 1 4.58326 32.6267 -2.92442
8106 2 3.65089 34.2156 -1.5012
1941 1 7.31396 34.2117 -2.94315
7983 2 8.20509 32.6073 -3.97863
7978 2 6.37846 32.631 -1.48241
7980 2 9.10713 34.2156 -1.5012
1795 1 10.0395 32.6267 -2.92442
7981 2 10.9345 34.1937 -3.99688
7748 2 11.8347 32.631 -1.48241
1543 1 15.4957 32.6267 -2.92442
1797 1 12.7702 34.2117 -2.94315
7787 2 13.6613 32.6073 -3.97863
7746 2 14.5634 34.2156 -1.5012
1541 1 18.2264 34.2117 -2.94315
7789 2 16.3907 34.1937 -3.99688
7486 2 17.2909 32.631 -1.48241
1262 1 20.952 32.6267 -2.92442
7490 2 19.1176 32.6073 -3.97863
7488 2 20.0196 34.2156 -1.5012
8181 2 0.0242854 37.3693 -4.02885
8112 2 2.75132 35.781 -4.01366
2024 1 1.86226 37.3838 -2.97595
8107 2 0.923286 35.8011 -1.51848
8110 2 5.48052 37.3693 -4.02885
1942 1 4.58822 35.7974 -2.96038
8109 2 3.65187 37.3875 -1.53411
1944 1 7.31849 37.3838 -2.97595
7982 2 8.20756 35.781 -4.01366
7953 2 9.10811 37.3875 -1.53411
7955 2 6.37952 35.8011 -1.51848
1768 1 10.0445 35.7974 -2.96038
7984 2 10.9368 37.3693 -4.02885
7747 2 11.8358 35.8011 -1.51848
1542 1 15.5007 35.7974 -2.96038
1766 1 12.7747 37.3838 -2.97595
7752 2 13.6638 35.781 -4.01366
7749 2 14.5644 37.3875 -1.53411
1544 1 18.231 37.3838 -2.97595
7750 2 16.393 37.3693 -4.02885
7442 2 17.292 35.8011 -1.51848
1223 1 20.9569 35.7974 -2.96038
7489 2 19.12 35.781 -4.01366
7440 2 20.0206 37.3875 -1.53411
8178 2 0.0260811 40.5482 -4.05391
8111 2 2.75337 38.9584 -4.0423
2025 1 1.8658 40.5584 -3.00167
8096 2 0.924172 38.9746 -1.54796
8113 2 5.48232 40.5482 -4.05391
1927 1 4.59228 38.9708 -2.98976
8094 2 3.65265 40.5625 -1.55992
1925 1 7.32204 40.5584 -3.00167
7959 2 8.20961 38.9584 -4.0423
7954 2 6.38041 38.9746 -1.54796
7956 2 9.10888 40.5625 -1.55992
1767 1 10.0485 38.9708 -2.98976
7957 2 10.9386 40.5482 -4.05391
7712 2 11.8366 38.9746 -1.54796
1503 1 15.5048 38.9708 -2.98976
1769 1 12.7783 40.5584 -3.00167
7751 2 13.6658 38.9584 -4.0423
7710 2 14.5651 40.5625 -1.55992
1501 1 18.2345 40.5584 -3.00167
7753 2 16.3948 40.5482 -4.05391
7441 2 17.2929 38.9746 -1.54796
1222 1 20.961 38.9708 -2.98976
7445 2 19.1221 38.9584 -4.0423
7443 2 20.0214 40.5625 -1.55992
8179 2 0.0272762 43.7295 -4.07124
8100 2 2.75488 42.1386 -4.06359
8095 2 0.92481 42.1509 -1.56988
2020 1 1.86819 43.7347 -3.01947
8098 2 5.48351 43.7295 -4.07124
8097 2 3.65313 43.7398 -1.57776
1926 1 4.59527 42.1464 -3.01161
1928 1 7.32443 43.7347 -3.01947
7930 2 9.10937 43.7398 -1.57776
7932 2 6.38105 42.1509 -1.56988
7958 2 8.21112 42.1386 -4.06359
1740 1 10.0515 42.1464 -3.01161
7711 2 11.8373 42.1509 -1.56988
7960 2 10.9398 43.7295 -4.07124
1502 1 15.5077 42.1464 -3.01161
1738 1 12.7807 43.7347 -3.01947
7713 2 14.5656 43.7398 -1.57776
7716 2 13.6674 42.1386 -4.06359
1504 1 18.2369 43.7347 -3.01947
7396 2 17.2935 42.1509 -1.56988
7714 2 16.396 43.7295 -4.07124
1176 1 20.964 42.1464 -3.01161
7394 2 20.0218 43.7398 -1.57776
7444 2 19.1236 42.1386 -4.06359
8177 2 0.0277712 46.9123 -4.08023
8099 2 2.75574 45.3208 -4.0768
8088 2 0.925128 45.329 -1.58349
2021 1 1.8693 46.9122 -3.02873
8101 2 5.48401 46.9123 -4.08023
8086 2 3.65327 46.9186 -1.58702
1912 1 4.59703 45.3234 -3.02519
1910 1 7.32554 46.9122 -3.02873
7931 2 6.38137 45.329 -1.58349
7933 2 9.10951 46.9186 -1.58702
7936 2 8.21197 45.3208 -4.0768
1739 1 10.0533 45.3234 -3.02519
7680 2 11.8376 45.329 -1.58349
7934 2 10.9402 46.9123 -4.08023
1464 1 15.5095 45.3234 -3.02519
1741 1 12.7818 46.9122 -3.02873
7678 2 14.5657 46.9186 -1.58702
7715 2 13.6682 45.3208 -4.0768
1462 1 18.238 46.9122 -3.02873
7395 2 17.2938 45.329 -1.58349
7717 2 16.3965 46.9123 -4.08023
1175 1 20.9657 45.3234 -3.02519
7397 2 20.022 46.9186 -1.58702
7399 2 19.1245 45.3208 -4.0768
8089 2 2.75586 48.5041 -4.08148
8087 2 0.925069 48.5082 -1.58833
10368 2 0.0275134 50.0958 -4.08056
4095 1 1.86907 50.0902 -3.02915
1911 1 4.59748 48.5012 -3.03006
10350 2 5.48375 50.0958 -4.08056
10349 2 3.65301 50.0979 -1.58738
7913 2 6.38131 48.5082 -1.58833
7935 2 8.21209 48.5041 -4.08148
10249 2 9.10925 50.0979 -1.58738
4064 1 7.32531 50.0902 -3.02915
1713 1 10.0537 48.5012 -3.03006
7679 2 11.8375 48.5082 -1.58833
10256 2 10.94 50.0958 -4.08056
1463 1 15.51 48.5012 -3.03006
7681 2 13.6683 48.5041 -4.08148
3934 1 12.7815 50.0902 -3.02915
10061 2 14.5655 50.0979 -1.58738
7353 2 17.2938 48.5082 -1.58833
3712 1 18.2378 50.0902 -3.02915
10062 2 16.3962 50.0958 -4.08056
1128 1 20.9662 48.5012 -3.03006
7398 2 19.1246 48.5041 -4.08148
9772 2 20.0217 50.0979 -1.58738
8167 2 0.905602 1.12743 -1.02267
2010 1 2.72142 1.14205 0.200004
8164 2 1.81455 2.72759 1.51257
8165 2 3.63469 2.69645 -1.04162
2011 1 5.4507 2.71184 0.180969
8062 2 4.54158 1.15736 1.53168
8074 2 6.36184 1.12743 -1.02267
1879 1 8.17765 1.14205 0.200004
8075 2 9.09093 2.69645 -1.04162
8060 2 7.27079 2.72759 1.51257
7879 2 11.8181 1.12743 -1.02267
1877 1 10.9069 2.71184 0.180969
7875 2 9.99782 1.15736 1.53168
1658 1 13.6339 1.14205 0.200004
7877 2 14.5472 2.69645 -1.04162
7587 2 15.4541 1.15736 1.53168
7876 2 12.727 2.72759 1.51257
7597 2 17.2743 1.12743 -1.02267
1659 1 16.3632 2.71184 0.180969
7585 2 18.1833 2.72759 1.51257
1341 1 19.0901 1.14205 0.200004
7598 2 20.0034 2.69645 -1.04162
2042 1 21.8194 2.71184 0.180969
7232 2 20.9103 1.15736 1.53168
8166 2 0.90755 4.26582 -1.06149
2002 1 2.72377 4.28195 0.161009
8061 2 4.54379 4.29808 1.49254
8066 2 6.36379 4.26582 -1.06149
1878 1 8.18001 4.28195 0.161009
7878 2 11.82 4.26582 -1.06149
7863 2 10 4.29808 1.49254
1650 1 13.6362 4.28195 0.161009
7586 2 15.4563 4.29808 1.49254
7591 2 17.2763 4.26582 -1.06149
1340 1 19.0925 4.28195 0.161009
7231 2 20.9125 4.29808 1.49254
8156 2 0.909527 7.40579 -1.10379
2001 1 2.72625 7.4233 0.118484
8152 2 1.81681 5.86887 1.47161
8168 2 3.63666 5.83558 -1.08223
2000 1 5.45312 5.85242 0.140164
8046 2 4.54608 7.43999 1.44984
8065 2 6.36577 7.40579 -1.10379
8064 2 9.0929 5.83558 -1.08223
1867 1 8.18249 7.4233 0.118484
8063 2 7.27305 5.86887 1.47161
7867 2 11.822 7.40579 -1.10379
1880 1 10.9094 5.85242 0.140164
7862 2 10.0023 7.43999 1.44984
7880 2 14.5491 5.83558 -1.08223
1649 1 13.6387 7.4233 0.118484
7573 2 15.4586 7.43999 1.44984
7861 2 12.7293 5.86887 1.47161
7590 2 17.2782 7.40579 -1.10379
1648 1 16.3656 5.85242 0.140164
7588 2 18.1855 5.86887 1.47161
7589 2 20.0054 5.83558 -1.08223
2043 1 21.8218 5.85242 0.140164
1333 1 19.095 7.4233 0.118484
7230 2 20.9148 7.43999 1.44984
8155 2 0.911481 10.5477 -1.14915
1987 1 2.7288 10.5664 0.0728616
8153 2 1.81913 9.01149 1.42728
8154 2 3.63863 8.97649 -1.12612
2003 1 5.45564 8.99462 0.0960275
8045 2 4.54841 10.5834 1.404
8067 2 9.09487 8.97649 -1.12612
8050 2 6.36772 10.5477 -1.14915
1866 1 8.18504 10.5664 0.0728616
8044 2 7.27536 9.01149 1.42728
7866 2 11.824 10.5477 -1.14915
1865 1 10.9119 8.99462 0.0960275
7843 2 10.0046 10.5834 1.404
7865 2 14.5511 8.97649 -1.12612
1634 1 13.6413 10.5664 0.0728616
7572 2 15.4609 10.5834 1.404
7864 2 12.7316 9.01149 1.42728
7577 2 17.2802 10.5477 -1.14915
1651 1 16.3681 8.99462 0.0960275
7571 2 18.1878 9.01149 1.42728
7592 2 20.0073 8.97649 -1.12612
2038 1 21.8244 8.99462 0.0960275
1332 1 19.0975 10.5664 0.0728616
7223 2 20.9171 10.5834 1.404
8144 2 0.913366 13.6921 -1.19697
1986 1 2.73136 13.7118 0.0247282
8140 2 1.82144 12.1558 1.38008
8157 2 3.64055 12.1196 -1.1728
1985 1 5.4582 12.1388 0.0490654
8023 2 4.5507 13.7287 1.35561
8048 2 9.09679 12.1196 -1.1728
8049 2 6.3696 13.6921 -1.19697
1847 1 8.1876 13.7118 0.0247282
8047 2 7.27768 12.1558 1.38008
7847 2 11.8258 13.6921 -1.19697
1868 1 10.9144 12.1388 0.0490654
7842 2 10.0069 13.7287 1.35561
7868 2 14.553 12.1196 -1.1728
1633 1 13.6438 13.7118 0.0247282
7551 2 15.4632 13.7287 1.35561
7841 2 12.7339 12.1558 1.38008
7576 2 17.2821 13.6921 -1.19697
1632 1 16.3707 12.1388 0.0490654
7574 2 18.1902 12.1558 1.38008
7575 2 20.0093 12.1196 -1.1728
2039 1 21.8269 12.1388 0.0490654
1317 1 19.1001 13.7118 0.0247282
7222 2 20.9194 13.7287 1.35561
8143 2 0.915146 16.8394 -1.2465
1971 1 2.73389 16.8597 -0.0251544
8141 2 1.8237 15.3022 1.33068
8142 2 3.64239 15.2654 -1.22157
1988 1 5.46076 15.2854 -4.91166e-05
8022 2 4.55291 16.8762 1.30541
8027 2 6.37138 16.8394 -1.2465
8051 2 9.09863 15.2654 -1.22157
1846 1 8.19013 16.8597 -0.0251544
8021 2 7.27994 15.3022 1.33068
7846 2 11.8276 16.8394 -1.2465
1845 1 10.917 15.2854 -4.91166e-05
7815 2 10.0092 16.8762 1.30541
7845 2 14.5549 15.2654 -1.22157
1610 1 13.6464 16.8597 -0.0251544
7550 2 15.4654 16.8762 1.30541
7844 2 12.7362 15.3022 1.33068
7555 2 17.2839 16.8394 -1.2465
1635 1 16.3732 15.2854 -4.91166e-05
7549 2 18.1924 15.3022 1.33068
7578 2 20.0111 15.2654 -1.22157
2034 1 21.8295 15.2854 -4.91167e-05
1316 1 19.1026 16.8597 -0.0251544
7207 2 20.9216 16.8762 1.30541
8132 2 0.9168 19.99 -1.2968
8128 2 1.82585 18.4509 1.27992
1970 1 2.73634 20.0105 -0.0758455
8145 2 3.64411 18.4142 -1.27162
1969 1 5.46325 18.4347 -0.0504644
7999 2 4.555 20.0263 1.25434
8025 2 9.10035 18.4142 -1.27162
8026 2 6.37304 19.99 -1.2968
1820 1 8.19258 20.0105 -0.0758455
8024 2 7.28209 18.4509 1.27992
7819 2 11.8293 19.99 -1.2968
1848 1 10.9195 18.4347 -0.0504644
7814 2 10.0112 20.0263 1.25434
7848 2 14.5566 18.4142 -1.27162
1609 1 13.6488 20.0105 -0.0758455
7521 2 15.4675 20.0263 1.25434
7813 2 12.7383 18.4509 1.27992
7554 2 17.2855 19.99 -1.2968
1608 1 16.3757 18.4347 -0.0504644
7552 2 18.1946 18.4509 1.27992
7553 2 20.0128 18.4142 -1.27162
2035 1 21.832 18.4347 -0.0504644
1293 1 19.1051 20.0105 -0.0758455
7206 2 20.9237 20.0263 1.25434
8131 2 0.918327 23.1442 -1.3468
8129 2 1.82787 21.6024 1.22882
1955 1 2.73866 23.1645 -0.126239
8130 2 3.6457 21.5666 -1.32192
1972 1 5.46564 21.5871 -0.101154
7998 2 4.55693 23.1793 1.20351
8003 2 6.37456 23.1442 -1.3468
8028 2 9.10194 21.5666 -1.32192
1819 1 8.1949 23.1645 -0.126239
7997 2 7.2841 21.6024 1.22882
7818 2 11.8308 23.1442 -1.3468
1818 1 10.9219 21.5871 -0.101154
7780 2 10.0132 23.1793 1.20351
7817 2 14.5582 21.5666 -1.32192
1578 1 13.6511 23.1645 -0.126239
7520 2 15.4694 23.1793 1.20351
7816 2 12.7403 21.6024 1.22882
7525 2 17.287 23.1442 -1.3468
1611 1 16.3781 21.5871 -0.101154
7519 2 18.1966 21.6024 1.22882
7556 2 20.0144 21.5666 -1.32192
2030 1 21.8344 21.5871 -0.101154
1292 1 19.1074 23.1645 -0.126239
7183 2 20.9256 23.1793 1.20351
8116 2 1.82971 24.757 1.17857
1954 1 2.74083 26.322 -0.175095
1953 1 5.46788 24.7428 -0.150941
7975 2 4.55869 26.3356 1.15417
8000 2 7.28595 24.757 1.17857
1792 1 8.19707 26.322 -0.175095
1821 1 10.9241 24.7428 -0.150941
7779 2 10.0149 26.3356 1.15417
7778 2 12.7422 24.757 1.17857
1577 1 13.6533 26.322 -0.175095
7483 2 15.4712 26.3356 1.15417
1576 1 16.3804 24.7428 -0.150941
7522 2 18.1984 24.757 1.17857
2031 1 21.8366 24.7428 -0.150941
1261 1 19.1095 26.322 -0.175095
7182 2 20.9274 26.3356 1.15417
8117 2 1.83138 27.9149 1.13047
1939 1 2.74282 29.483 -0.221093
1956 1 5.46997 27.9021 -0.198536
7974 2 4.56027 29.4951 1.10765
7973 2 7.28762 27.9149 1.13047
1791 1 8.19906 29.483 -0.221093
1790 1 10.9262 27.9021 -0.198536
7744 2 10.0165 29.4951 1.10765
7781 2 12.7439 27.9149 1.13047
1539 1 13.6553 29.483 -0.221093
7482 2 15.4727 29.4951 1.10765
1579 1 16.3824 27.9021 -0.198536
7481 2 18.2001 27.9149 1.13047
2026 1 21.8387 27.9021 -0.198536
1260 1 19.1115 29.483 -0.221093
7151 2 20.929 29.4951 1.10765
8104 2 1.83288 31.0762 1.08587
1937 1 5.47187 31.0648 -0.242601
7976 2 7.28912 31.0762 1.08587
1793 1 10.9281 31.0648 -0.242601
7742 2 12.7454 31.0762 1.08587
1537 1 16.3843 31.0648 -0.242601
7484 2 18.2016 31.0762 1.08587
2027 1 21.8406 31.0648 -0.242601
8105 2 1.83419 34.2407 1.04613
1938 1 2.74462 32.6474 -0.262894
1940 1 5.47355 34.2308 -0.281814
7951 2 4.56168 32.658 1.06531
1764 1 8.20086 32.6474 -0.262894
7949 2 7.29043 34.2407 1.04613
1762 1 10.9298 34.2308 -0.281814
7743 2 10.0179 32.658 1.06531
1538 1 13.6571 32.6474 -0.262894
7438 2 15.4742 32.658 1.06531
7745 2 12.7467 34.2407 1.04613
1540 1 16.386 34.2308 -0.281814
7436 2 18.2029 34.2407 1.04613
2022 1 21.8423 34.2308 -0.281814
1221 1 19.1133 32.6474 -0.262894
7150 2 20.9304 32.658 1.06531
8092 2 1.83529 37.4082 1.01252
1923 1 2.74618 35.815 -0.299211
2023 1 0.0187425 37.3999 -0.314944
1921 1 5.47498 37.3999 -0.314944
7950 2 4.56289 35.8241 1.02848
1763 1 8.20242 35.815 -0.299211
7952 2 7.29153 37.4082 1.01252
1765 1 10.9312 37.3999 -0.314944
7708 2 10.0191 35.8241 1.02848
1499 1 13.6587 35.815 -0.299211
7437 2 15.4754 35.8241 1.02848
7706 2 12.7478 37.4082 1.01252
1497 1 16.3875 37.3999 -0.314944
7439 2 18.204 37.4082 1.01252
1220 1 19.1149 35.815 -0.299211
7111 2 20.9316 35.8241 1.02848
8093 2 1.83614 40.5783 0.986147
1922 1 2.74746 38.9854 -0.328884
2018 1 0.019848 40.5715 -0.340916
1924 1 5.47609 40.5715 -0.340916
7928 2 4.56387 38.993 0.998364
1736 1 8.2037 38.9854 -0.328884
7926 2 7.29238 40.5783 0.986147
1734 1 10.9323 40.5715 -0.340916
7707 2 10.0201 38.993 0.998364
1498 1 13.6599 38.9854 -0.328884
7392 2 15.4763 38.993 0.998364
7709 2 12.7486 40.5783 0.986147
1500 1 16.3886 40.5715 -0.340916
7390 2 18.2049 40.5783 0.986147
1174 1 19.1162 38.9854 -0.328884
7110 2 20.9326 38.993 0.998364
8084 2 1.83668 43.7504 0.967921
1908 1 2.74838 42.158 -0.350939
2019 1 0.0205612 43.745 -0.35887
1906 1 5.4768 43.745 -0.35887
7927 2 4.56457 42.1641 0.97597
1735 1 8.20462 42.158 -0.350939
7929 2 7.29292 43.7504 0.967921
1737 1 10.933 43.745 -0.35887
7676 2 10.0208 42.1641 0.97597
1460 1 13.6609 42.158 -0.350939
7391 2 15.477 42.1641 0.97597
7674 2 12.7492 43.7504 0.967921
1458 1 16.3893 43.745 -0.35887
7393 2 18.2054 43.7504 0.967921
1173 1 19.1171 42.158 -0.350939
7064 2 20.9333 42.1641 0.97597
8085 2 1.83685 46.9237 0.958464
1907 1 2.74887 45.3323 -0.364643
2017 1 0.02082 46.9197 -0.368208
1909 1 5.47706 46.9197 -0.368208
7912 2 4.56493 45.3369 0.962068
1712 1 8.20511 45.3323 -0.364643
7910 2 7.29309 46.9237 0.958464
1710 1 10.9333 46.9197 -0.368208
7675 2 10.0212 45.3369 0.962068
1459 1 13.6613 45.3323 -0.364643
7352 2 15.4774 45.3369 0.962068
7677 2 12.7493 46.9237 0.958464
1461 1 16.3895 46.9197 -0.368208
7350 2 18.2056 46.9237 0.958464
1127 1 19.1176 45.3323 -0.364643
7063 2 20.9336 45.3369 0.962068
1897 1 2.74889 48.5073 -0.369535
10339 2 1.83662 50.0974 0.958107
4094 1 0.020588 50.0949 -0.368612
7911 2 4.5649 48.5106 0.95714
4057 1 5.47683 50.0949 -0.368612
1711 1 8.20512 48.5073 -0.369535
10248 2 7.29286 50.0974 0.958107
7649 2 10.0211 48.5106 0.95714
3933 1 10.9331 50.0949 -0.368612
1425 1 13.6614 48.5073 -0.369535
7351 2 15.4774 48.5106 0.95714
10050 2 12.7491 50.0974 0.958107
3705 1 16.3893 50.0949 -0.368612
9771 2 18.2053 50.0974 0.958107
1126 1 19.1176 48.5073 -0.369535
7016 2 20.9336 48.5106 0.95714
1998 1 0.90287 1.17209 2.79799
8058 2 2.72131 1.18733 4.09905
1996 1 3.63217 2.74295 2.7788
8059 2 5.45063 2.75865 4.07986
1875 1 6.35911 1.17209 2.79799
7859 2 8.17755 1.18733 4.09905
1876 1 9.08841 2.74295 2.7788
1646 1 11.8153 1.17209 2.79799
7857 2 10.9069 2.75865 4.07986
7583 2 13.6338 1.18733 4.09905
1644 1 14.5446 2.74295 2.7788
1338 1 17.2716 1.17209 2.79799
7584 2 16.3631 2.75865 4.07986
7229 2 19.09 1.18733 4.09905
8150 2 21.8193 2.75865 4.07986
1339 1 20.0009 2.74295 2.7788
1997 1 0.905267 4.31405 2.75866
8042 2 2.72375 4.33015 4.05973
1863 1 6.36151 4.31405 2.75866
7858 2 8.17999 4.33015 4.05973
1645 1 11.8177 4.31405 2.75866
7569 2 13.6362 4.33015 4.05973
1330 1 17.274 4.31405 2.75866
7228 2 19.0925 4.33015 4.05973
1983 1 0.907791 7.45703 2.71571
8041 2 2.72632 7.47375 4.01678
1999 1 3.63464 5.88539 2.73762
8040 2 5.45314 5.90184 4.03869
1861 1 9.09087 5.88539 2.73762
1862 1 6.36403 7.45703 2.71571
7839 2 8.18256 7.47375 4.01678
1630 1 11.8203 7.45703 2.71571
7860 2 10.9094 5.90184 4.03869
1647 1 14.5471 5.88539 2.73762
7568 2 13.6388 7.47375 4.01678
1329 1 17.2765 7.45703 2.71571
7567 2 16.3656 5.90184 4.03869
8151 2 21.8219 5.90184 4.03869
1328 1 20.0034 5.88539 2.73762
7221 2 19.095 7.47375 4.01678
1982 1 0.910387 10.6013 2.66956
8019 2 2.72898 10.6184 3.9706
1981 1 3.6372 9.02898 2.693
8043 2 5.45577 9.04591 3.99406
1843 1 6.36663 10.6013 2.66956
1864 1 9.09344 9.02898 2.693
7838 2 8.18522 10.6184 3.9706
1629 1 11.8229 10.6013 2.66956
7837 2 10.912 9.04591 3.99406
1628 1 14.5497 9.02898 2.693
7547 2 13.6415 10.6184 3.9706
1314 1 17.2791 10.6013 2.66956
7570 2 16.3682 9.04591 3.99406
8138 2 21.8245 9.04591 3.99406
1331 1 20.0059 9.02898 2.693
7220 2 19.0977 10.6184 3.9706
1967 1 0.912993 13.7471 2.62077
8018 2 2.73166 13.7643 3.92176
1984 1 3.63981 12.174 2.64545
8017 2 5.45845 12.1911 3.94648
1841 1 9.09605 12.174 2.64545
1842 1 6.36923 13.7471 2.62077
7811 2 8.1879 13.7643 3.92176
1606 1 11.8255 13.7471 2.62077
7840 2 10.9147 12.1911 3.94648
1631 1 14.5523 12.174 2.64545
7546 2 13.6441 13.7643 3.92176
1313 1 17.2817 13.7471 2.62077
7545 2 16.3709 12.1911 3.94648
8139 2 21.8272 12.1911 3.94648
1312 1 20.0085 12.174 2.64545
7205 2 19.1004 13.7643 3.92176
1966 1 0.915545 16.8949 2.5701
7995 2 2.7343 16.9118 3.871
1965 1 3.6424 15.3208 2.59561
8020 2 5.46111 15.3378 3.89657
1816 1 6.37178 16.8949 2.5701
1844 1 9.09864 15.3208 2.59561
7810 2 8.19054 16.9118 3.871
1605 1 11.828 16.8949 2.5701
7809 2 10.9173 15.3378 3.89657
1604 1 14.5549 15.3208 2.59561
7517 2 13.6468 16.9118 3.871
1290 1 17.2843 16.8949 2.5701
7548 2 16.3736 15.3378 3.89657
8126 2 21.8298 15.3378 3.89657
1315 1 20.0111 15.3208 2.59561
7204 2 19.103 16.9118 3.871
1951 1 0.917983 20.0449 2.51851
7994 2 2.73681 20.0612 3.81924
1968 1 3.6449 18.4696 2.54435
7993 2 5.46369 18.4862 3.84518
1814 1 9.10114 18.4696 2.54435
1815 1 6.37422 20.0449 2.51851
7776 2 8.19305 20.0612 3.81924
1574 1 11.8305 20.0449 2.51851
7812 2 10.9199 18.4862 3.84518
1607 1 14.5574 18.4696 2.54435
7516 2 13.6493 20.0612 3.81924
1289 1 17.2867 20.0449 2.51851
7515 2 16.3762 18.4862 3.84518
8127 2 21.8324 18.4862 3.84518
1288 1 20.0136 18.4696 2.54435
7181 2 19.1055 20.0612 3.81924
1950 1 0.920261 23.1975 2.4671
7971 2 2.73916 23.2128 3.76761
1949 1 3.64726 21.6209 2.4927
7996 2 5.46613 21.6367 3.79333
1788 1 6.3765 23.1975 2.4671
1817 1 9.1035 21.6209 2.4927
7775 2 8.1954 23.2128 3.76761
1573 1 11.8327 23.1975 2.4671
7774 2 10.9224 21.6367 3.79333
1572 1 14.5597 21.6209 2.4927
7479 2 13.6516 23.2128 3.76761
1258 1 17.289 23.1975 2.4671
7518 2 16.3786 21.6367 3.79333
8114 2 21.8348 21.6367 3.79333
1291 1 20.016 21.6209 2.4927
7180 2 19.1079 23.2128 3.76761
1935 1 0.922347 26.3528 2.41717
7970 2 2.7413 26.367 3.71737
1952 1 3.64945 24.7748 2.44187
7969 2 5.46838 24.7896 3.74223
1786 1 9.10569 24.7748 2.44187
1787 1 6.37859 26.3528 2.41717
7740 2 8.19754 26.367 3.71737
7777 2 10.9246 24.7896 3.74223
1535 1 11.8348 26.3528 2.41717
1575 1 14.5619 24.7748 2.44187
7478 2 13.6538 26.367 3.71737
7477 2 16.3809 24.7896 3.74223
1257 1 17.2911 26.3528 2.41717
8115 2 21.8371 24.7896 3.74223
1256 1 20.0182 24.7748 2.44187
7149 2 19.11 26.367 3.71737
1934 1 0.924223 29.511 2.37007
7947 2 2.74322 29.5238 3.66991
1933 1 3.65143 27.9316 2.39318
7972 2 5.47041 27.9451 3.6932
1789 1 9.10767 27.9316 2.39318
1760 1 6.38046 29.511 2.37007
7739 2 8.19946 29.5238 3.66991
7738 2 10.9266 27.9451 3.6932
1534 1 11.8367 29.511 2.37007
1533 1 14.5639 27.9316 2.39318
7434 2 13.6557 29.5238 3.66991
7480 2 16.3829 27.9451 3.6932
1218 1 17.2929 29.511 2.37007
8102 2 21.8391 27.9451 3.6932
1259 1 20.0201 27.9316 2.39318
7148 2 19.1119 29.5238 3.66991
8103 2 0.0159763 31.1033 3.64766
1936 1 3.6532 31.0913 2.34802
7945 2 5.47221 31.1033 3.64766
1758 1 9.10944 31.0913 2.34802
7741 2 10.9285 31.1033 3.64766
1536 1 14.5657 31.0913 2.34802
7432 2 16.3847 31.1033 3.64766
1216 1 20.0219 31.0913 2.34802
1919 1 0.925878 32.6722 2.32721
7946 2 2.74491 32.6835 3.62664
8090 2 0.0175435 34.2643 3.60702
1917 1 3.65474 34.2538 2.30778
7948 2 5.47378 34.2643 3.60702
1759 1 6.38212 32.6722 2.32721
1761 1 9.11098 34.2538 2.30778
7704 2 8.20115 32.6835 3.62664
1495 1 11.8384 32.6722 2.32721
7702 2 10.93 34.2643 3.60702
1493 1 14.5672 34.2538 2.30778
7433 2 13.6574 32.6835 3.62664
1217 1 17.2946 32.6722 2.32721
7435 2 16.3863 34.2643 3.60702
1219 1 20.0235 34.2538 2.30778
7109 2 19.1136 32.6835 3.62664
8091 2 0.0188534 37.4278 3.57261
1918 1 0.927294 35.8361 2.28992
7924 2 2.74635 35.8457 3.58896
1920 1 3.65602 37.419 2.27375
7922 2 5.47509 37.4278 3.57261
1730 1 9.11226 37.419 2.27375
1732 1 6.38353 35.8361 2.28992
7703 2 8.20259 35.8457 3.58896
1494 1 11.8398 35.8361 2.28992
7705 2 10.9313 37.4278 3.57261
1496 1 14.5685 37.419 2.27375
7388 2 13.6588 35.8457 3.58896
1171 1 17.296 35.8361 2.28992
7386 2 16.3876 37.4278 3.57261
1169 1 20.0247 37.419 2.27375
7108 2 19.1151 35.8457 3.58896
8082 2 0.0198645 40.5935 3.54559
1904 1 0.928437 39.0024 2.25943
7923 2 2.74752 39.0104 3.55811
1902 1 3.65701 40.5864 2.24706
7925 2 5.4761 40.5935 3.54559
1731 1 6.38468 39.0024 2.25943
1733 1 9.11325 40.5864 2.24706
7672 2 8.20376 39.0104 3.55811
1456 1 11.8409 39.0024 2.25943
7670 2 10.9323 40.5935 3.54559
1454 1 14.5695 40.5864 2.24706
7387 2 13.66 39.0104 3.55811
1170 1 17.2972 39.0024 2.25943
7389 2 16.3886 40.5935 3.54559
1172 1 20.0257 40.5864 2.24706
7062 2 19.1162 39.0104 3.55811
8083 2 0.0205181 43.7609 3.52692
1903 1 0.929256 42.1707 2.23676
7908 2 2.74836 42.177 3.53517
1905 1 3.65765 43.7554 2.22861
7906 2 5.47676 43.7609 3.52692
1706 1 9.11388 43.7554 2.22861
1708 1 6.38549 42.1707 2.23676
7671 2 8.2046 42.177 3.53517
1455 1 11.8417 42.1707 2.23676
7673 2 10.933 43.7609 3.52692
1457 1 14.5701 43.7554 2.22861
7348 2 13.6608 42.177 3.53517
1124 1 17.298 42.1707 2.23676
7346 2 16.3892 43.7609 3.52692
1122 1 20.0264 43.7554 2.22861
7061 2 19.1171 42.177 3.53517
8081 2 0.0207568 46.9293 3.51726
1896 1 0.929695 45.3404 2.22268
7907 2 2.74881 45.345 3.52094
1894 1 3.65788 46.9256 2.21903
7909 2 5.477 46.9293 3.51726
1707 1 6.38593 45.3404 2.22268
1709 1 9.11411 46.9256 2.21903
7648 2 8.20505 45.345 3.52094
1424 1 11.8422 45.3404 2.22268
7646 2 10.9332 46.9293 3.51726
1422 1 14.5704 46.9256 2.21903
7347 2 13.6613 45.345 3.52094
1123 1 17.2984 45.3404 2.22268
7349 2 16.3895 46.9293 3.51726
1125 1 20.0266 46.9256 2.21903
7015 2 19.1175 45.345 3.52094
1895 1 0.929708 48.5109 2.21768
7897 2 2.74883 48.5137 3.51591
10338 2 0.0205509 50.0981 3.51693
4056 1 3.65767 50.0961 2.21863
10233 2 5.47679 50.0981 3.51693
1689 1 6.38595 48.5109 2.21768
7647 2 8.20507 48.5137 3.51591
3922 1 9.11391 50.0961 2.21863
1423 1 11.8422 48.5109 2.21768
10049 2 10.933 50.0981 3.51693
7313 2 13.6613 48.5137 3.51591
3704 1 14.5702 50.0961 2.21863
1081 1 17.2984 48.5109 2.21768
9758 2 16.3893 50.0981 3.51693
7014 2 19.1175 48.5137 3.51591
3385 1 20.0264 50.0961 2.21863
8038 2 0.901104 1.21729 6.67105
1995 1 1.81234 2.77444 5.36087
1859 1 4.5392 1.20257 5.38014
8036 2 3.63049 2.78963 6.65186
7855 2 6.35734 1.21729 6.67105
1857 1 7.26858 2.77444 5.36087
7856 2 9.08673 2.78963 6.65186
1642 1 9.99544 1.20257 5.38014
7565 2 11.8136 1.21729 6.67105
1326 1 15.4517 1.20257 5.38014
1643 1 12.7248 2.77444 5.36087
7563 2 14.543 2.78963 6.65186
7226 2 17.2698 1.21729 6.67105
1324 1 18.1811 2.77444 5.36087
960 1 20.9079 1.20257 5.38014
7227 2 19.9992 2.78963 6.65186
8037 2 0.903698 4.36203 6.6317
1858 1 4.54177 4.34643 5.34065
7835 2 6.35994 4.36203 6.6317
1626 1 9.99801 4.34643 5.34065
7564 2 11.8162 4.36203 6.6317
1325 1 15.4542 4.34643 5.34065
7218 2 17.2724 4.36203 6.6317
959 1 20.9105 4.34643 5.34065
1979 1 1.815 5.91857 5.31949
8015 2 0.906489 7.50711 6.58866
1839 1 4.54451 7.49087 5.29745
8039 2 3.63319 5.93452 6.61062
1860 1 7.27124 5.91857 5.31949
7833 2 9.08943 5.93452 6.61062
7834 2 6.36273 7.50711 6.58866
1625 1 10.0007 7.49087 5.29745
7543 2 11.819 7.50711 6.58866
1310 1 15.457 7.49087 5.29745
1624 1 12.7275 5.91857 5.31949
7566 2 14.5457 5.93452 6.61062
1327 1 18.1837 5.91857 5.31949
7217 2 17.2752 7.50711 6.58866
958 1 20.9132 7.49087 5.29745
7216 2 20.0019 5.93452 6.61062
1980 1 1.81781 9.06336 5.27458
8014 2 0.909425 10.6527 6.54229
1838 1 4.54737 10.6361 5.25094
8013 2 3.63606 9.07983 6.56586
1837 1 7.27405 9.06336 5.27458
7807 2 6.36566 10.6527 6.54229
7836 2 9.0923 9.07983 6.56586
1602 1 10.0036 10.6361 5.25094
7542 2 11.8219 10.6527 6.54229
1309 1 15.4598 10.6361 5.25094
1627 1 12.7303 9.06336 5.27458
7541 2 14.5485 9.07983 6.56586
1308 1 18.1865 9.06336 5.27458
7202 2 17.2781 10.6527 6.54229
951 1 20.9161 10.6361 5.25094
7219 2 20.0048 9.07983 6.56586
1963 1 1.8207 12.209 5.2266
7991 2 0.912438 13.799 6.49313
1812 1 4.55028 13.7823 5.20166
8016 2 3.63905 12.2257 6.51802
1840 1 7.27694 12.209 5.2266
7805 2 9.09528 12.2257 6.51802
7806 2 6.36868 13.799 6.49313
1601 1 10.0065 13.7823 5.20166
7513 2 11.8249 13.799 6.49313
1286 1 15.4628 13.7823 5.20166
1600 1 12.7332 12.209 5.2266
7544 2 14.5515 12.2257 6.51802
1311 1 18.1894 12.209 5.2266
7201 2 17.2812 13.799 6.49313
950 1 20.919 13.7823 5.20166
7200 2 20.0078 12.2257 6.51802
1964 1 1.82361 15.3558 5.1762
7990 2 0.915448 16.9462 6.44188
1811 1 4.55316 16.9298 5.15035
7989 2 3.64207 15.3725 6.46771
1810 1 7.27984 15.3558 5.1762
7772 2 6.37169 16.9462 6.44188
7808 2 9.09831 15.3725 6.46771
1570 1 10.0094 16.9298 5.15035
7512 2 11.8279 16.9462 6.44188
1285 1 15.4656 16.9298 5.15035
1603 1 12.7361 15.3558 5.1762
7511 2 14.5545 15.3725 6.46771
1284 1 18.1923 15.3558 5.1762
7178 2 17.2842 16.9462 6.44188
935 1 20.9219 16.9298 5.15035
7203 2 20.0108 15.3725 6.46771
1947 1 1.82644 18.5041 5.12421
7967 2 0.91837 20.0947 6.38946
1784 1 4.55593 20.0788 5.09794
7992 2 3.64504 18.5203 6.41575
1813 1 7.28268 18.5041 5.12421
7770 2 9.10128 18.5203 6.41575
7771 2 6.37461 20.0947 6.38946
1569 1 10.0122 20.0788 5.09794
7475 2 11.8308 20.0947 6.38946
1254 1 15.4684 20.0788 5.09794
1568 1 12.7389 18.5041 5.12421
7514 2 14.5575 18.5203 6.41575
1287 1 18.1952 18.5041 5.12421
7177 2 17.2871 20.0947 6.38946
934 1 20.9246 20.0788 5.09794
7176 2 20.0138 18.5203 6.41575
1948 1 1.82914 21.6541 5.07167
7966 2 0.921126 23.2449 6.33698
1783 1 4.55853 23.2298 5.04557
7965 2 3.64789 21.6696 6.36315
1782 1 7.28538 21.6541 5.07167
7736 2 6.37736 23.2449 6.33698
7773 2 9.10413 21.6696 6.36315
1531 1 10.0148 23.2298 5.04557
7474 2 11.8336 23.2449 6.33698
1253 1 15.471 23.2298 5.04557
1571 1 12.7416 21.6541 5.07167
7473 2 14.5604 21.6696 6.36315
1252 1 18.1979 21.6541 5.07167
7146 2 17.2898 23.2449 6.33698
911 1 20.9272 23.2298 5.04557
7179 2 20.0166 21.6696 6.36315
1931 1 1.83163 24.8061 5.0198
7943 2 0.923659 26.3969 6.28575
7968 2 3.65054 24.8206 6.31112
1756 1 4.5609 26.383 4.99454
1785 1 7.28786 24.8061 5.0198
7734 2 9.10678 24.8206 6.31112
7735 2 6.3799 26.3969 6.28575
1530 1 10.0171 26.383 4.99454
7430 2 11.8361 26.3969 6.28575
1529 1 12.7441 24.8061 5.0198
7476 2 14.563 24.8206 6.31112
1214 1 15.4734 26.383 4.99454
1255 1 18.2003 24.8061 5.0198
7145 2 17.2924 26.3969 6.28575
7144 2 20.0193 24.8206 6.31112
910 1 20.9296 26.383 4.99454
1932 1 1.83387 27.9605 4.96997
7942 2 0.925936 29.551 6.2372
7941 2 3.65295 27.9737 6.26104
1755 1 4.56302 29.5386 4.94627
1754 1 7.29011 27.9605 4.96997
7737 2 9.10919 27.9737 6.26104
7700 2 6.38217 29.551 6.2372
1491 1 10.0193 29.5386 4.94627
7429 2 11.8384 29.551 6.2372
1532 1 12.7463 27.9605 4.96997
7428 2 14.5654 27.9737 6.26104
1213 1 15.4755 29.5386 4.94627
1212 1 18.2026 27.9605 4.96997
7106 2 17.2947 29.551 6.2372
7147 2 20.0217 27.9737 6.26104
879 1 20.9317 29.5386 4.94627
1915 1 1.83586 31.1173 4.92363
7944 2 3.65509 31.129 6.21439
1757 1 7.2921 31.1173 4.92363
7698 2 9.11133 31.129 6.21439
1489 1 12.7483 31.1173 4.92363
7431 2 14.5676 31.129 6.21439
1215 1 18.2046 31.1173 4.92363
7104 2 20.0238 31.129 6.21439
1916 1 1.83758 34.2765 4.88226
7920 2 0.927946 32.7075 6.19282
1728 1 4.56487 32.6966 4.90224
7918 2 3.65697 34.2866 6.17266
1726 1 7.29382 34.2765 4.88226
7699 2 6.38418 32.7075 6.19282
7701 2 9.1132 34.2866 6.17266
1490 1 10.0211 32.6966 4.90224
7384 2 11.8404 32.7075 6.19282
1167 1 15.4773 32.6966 4.90224
1492 1 12.7501 34.2765 4.88226
7382 2 14.5694 34.2866 6.17266
1165 1 18.2063 34.2765 4.88226
7105 2 17.2967 32.7075 6.19282
878 1 20.9336 32.6966 4.90224
7107 2 20.0257 34.2866 6.17266
1900 1 1.83901 37.438 4.84721
7919 2 0.929676 35.8662 6.15408
1727 1 4.56645 35.8569 4.86386
7921 2 3.65855 37.4464 6.13726
1729 1 7.29525 37.438 4.84721
7666 2 9.11479 37.4464 6.13726
7668 2 6.38591 35.8662 6.15408
1452 1 10.0227 35.8569 4.86386
7383 2 11.8422 35.8662 6.15408
1166 1 15.4789 35.8569 4.86386
1450 1 12.7515 37.438 4.84721
7385 2 14.571 37.4464 6.13726
1168 1 18.2077 37.438 4.84721
7059 2 17.2984 35.8662 6.15408
839 1 20.9352 35.8569 4.86386
7057 2 20.0273 37.4464 6.13726
1901 1 1.84012 40.6014 4.8197
7904 2 0.931096 39.027 6.12233
1704 1 4.56773 39.0195 4.83245
7902 2 3.65979 40.6081 6.10944
1702 1 7.29636 40.6014 4.8197
7667 2 6.38733 39.027 6.12233
7669 2 9.11603 40.6081 6.10944
1451 1 10.024 39.0195 4.83245
7344 2 11.8436 39.027 6.12233
1120 1 15.4802 39.0195 4.83245
1453 1 12.7526 40.6014 4.8197
7342 2 14.5723 40.6081 6.10944
1118 1 18.2088 40.6014 4.8197
7058 2 17.2998 39.027 6.12233
838 1 20.9364 39.0195 4.83245
7060 2 20.0285 40.6081 6.10944
1892 1 1.84085 43.7664 4.80069
7903 2 0.932142 42.1896 6.0987
1703 1 4.56866 42.1837 4.80909
7905 2 3.66062 43.7713 6.09022
1705 1 7.29709 43.7664 4.80069
7642 2 9.11686 43.7713 6.09022
7644 2 6.38838 42.1896 6.0987
1420 1 10.0249 42.1837 4.80909
7343 2 11.8446 42.1896 6.0987
1119 1 15.4811 42.1837 4.80909
1418 1 12.7533 43.7664 4.80069
7345 2 14.5731 43.7713 6.09022
1121 1 18.2096 43.7664 4.80069
7012 2 17.3009 42.1896 6.0987
793 1 20.9374 42.1837 4.80909
7010 2 20.0293 43.7713 6.09022
1893 1 1.84113 46.9322 4.79086
7896 2 0.932732 45.3533 6.08406
1688 1 4.56917 45.3492 4.7946
7894 2 3.66095 46.9355 6.08029
1686 1 7.29737 46.9322 4.79086
7643 2 6.38897 45.3533 6.08406
7645 2 9.11719 46.9355 6.08029
1419 1 10.0254 45.3492 4.7946
7312 2 11.8452 45.3533 6.08406
1080 1 15.4816 45.3492 4.7946
1421 1 12.7536 46.9322 4.79086
7310 2 14.5734 46.9355 6.08029
1078 1 18.2098 46.9322 4.79086
7011 2 17.3014 45.3533 6.08406
792 1 20.9379 45.3492 4.7946
7013 2 20.0297 46.9355 6.08029
7895 2 0.932796 48.5177 6.07894
4042 1 1.84093 50.0984 4.79053
1687 1 4.56921 48.5153 4.7895
10232 2 3.66074 50.0999 6.08002
7625 2 6.38903 48.5177 6.07894
3921 1 7.29717 50.0984 4.79053
10030 2 9.11698 50.0999 6.08002
1393 1 10.0255 48.5153 4.7895
7311 2 11.8453 48.5177 6.07894
1079 1 15.4817 48.5153 4.7895
3689 1 12.7534 50.0984 4.79053
9757 2 14.5732 50.0999 6.08002
6969 2 17.3015 48.5177 6.07894
3384 1 18.2096 50.0984 4.79053
747 1 20.9379 48.5153 4.7895
9401 2 20.0295 50.0999 6.08002
1855 1 2.71905 1.23223 7.95714
8035 2 1.8103 2.82004 9.22552
7831 2 4.53712 1.24674 9.24463
1856 1 5.44848 2.80506 7.9379
1622 1 8.17529 1.23223 7.95714
7829 2 7.26654 2.82004 9.22552
7561 2 9.99336 1.24674 9.24463
1620 1 10.9047 2.80506 7.9379
1322 1 13.6315 1.23223 7.95714
7214 2 15.4496 1.24674 9.24463
7562 2 12.7228 2.82004 9.22552
1323 1 16.361 2.80506 7.9379
7212 2 18.179 2.82004 9.22552
957 1 19.0878 1.23223 7.95714
6848 2 20.9058 1.24674 9.24463
1977 1 21.8172 2.80506 7.9379
1835 1 2.72174 4.3779 7.91768
7830 2 4.53979 4.39331 9.20543
1621 1 8.17797 4.3779 7.91768
7539 2 9.99603 4.39331 9.20543
1306 1 13.6342 4.3779 7.91768
7213 2 15.4523 4.39331 9.20543
956 1 19.0905 4.3779 7.91768
6847 2 20.9085 4.39331 9.20543
1834 1 2.72465 7.52368 7.87446
8011 2 1.81311 5.96655 9.1844
1833 1 5.45129 5.95077 7.89652
7803 2 4.54272 7.53977 9.16247
1598 1 8.18089 7.52368 7.87446
7832 2 7.26935 5.96655 9.1844
1623 1 10.9075 5.95077 7.89652
7538 2 9.99896 7.53977 9.16247
1305 1 13.6371 7.52368 7.87446
7198 2 15.4552 7.53977 9.16247
7537 2 12.7256 5.96655 9.1844
1304 1 16.3638 5.95077 7.89652
7215 2 18.1818 5.96655 9.1844
1978 1 21.82 5.95077 7.89652
949 1 19.0934 7.52368 7.87446
6846 2 20.9114 7.53977 9.16247
1808 1 2.72775 10.6697 7.82781
8012 2 1.81615 9.11299 9.13968
1836 1 5.4543 9.09665 7.85153
7802 2 4.54586 10.6862 9.11609
1597 1 8.18399 10.6697 7.82781
7801 2 7.27239 9.11299 9.13968
1596 1 10.9105 9.09665 7.85153
7509 2 10.0021 10.6862 9.11609
1282 1 13.6402 10.6697 7.82781
7197 2 15.4583 10.6862 9.11609
7540 2 12.7286 9.11299 9.13968
1307 1 16.3668 9.09665 7.85153
7196 2 18.1849 9.11299 9.13968
1961 1 21.823 9.09665 7.85153
948 1 19.0965 10.6697 7.82781
6839 2 20.9146 10.6862 9.11609
1807 1 2.73096 13.8161 7.77825
7987 2 1.81937 12.2595 9.09176
1806 1 5.45746 12.2428 7.80336
7768 2 4.54915 13.8328 9.06676
1566 1 8.18719 13.8161 7.77825
7804 2 7.27561 12.2595 9.09176
1599 1 10.9137 12.2428 7.80336
7508 2 10.0054 13.8328 9.06676
1281 1 13.6434 13.8161 7.77825
7174 2 15.4616 13.8328 9.06676
7507 2 12.7318 12.2595 9.09176
1280 1 16.3699 12.2428 7.80336
7199 2 18.1881 12.2595 9.09176
1962 1 21.8262 12.2428 7.80336
933 1 19.0997 13.8161 7.77825
6838 2 20.9179 13.8328 9.06676
1780 1 2.73419 16.9632 7.72646
7988 2 1.8227 15.4061 9.04119
1809 1 5.46069 15.3896 7.75258
7767 2 4.5525 16.9796 9.01515
1565 1 8.19042 16.9632 7.72646
7766 2 7.27894 15.4061 9.04119
1564 1 10.9169 15.3896 7.75258
7471 2 10.0087 16.9796 9.01515
1250 1 13.6467 16.9632 7.72646
7173 2 15.465 16.9796 9.01515
7510 2 12.7352 15.4061 9.04119
1283 1 16.3732 15.3896 7.75258
7172 2 18.1914 15.4061 9.04119
1945 1 21.8294 15.3896 7.75258
932 1 19.1029 16.9632 7.72646
6823 2 20.9212 16.9796 9.01515
1779 1 2.73734 20.1112 7.67335
7963 2 1.82605 18.5533 8.98874
1778 1 5.4639 18.5371 7.7
7732 2 4.55581 20.1271 8.96211
1527 1 8.19358 20.1112 7.67335
7769 2 7.28229 18.5533 8.98874
1567 1 10.9201 18.5371 7.7
7470 2 10.0121 20.1271 8.96211
1249 1 13.6498 20.1112 7.67335
7142 2 15.4683 20.1271 8.96211
7469 2 12.7385 18.5533 8.98874
1248 1 16.3764 18.5371 7.7
7175 2 18.1948 18.5533 8.98874
1946 1 21.8326 18.5371 7.7
909 1 19.1061 20.1112 7.67335
6822 2 20.9245 20.1271 8.96211
1752 1 2.74033 23.2605 7.62004
7964 2 1.82931 21.7012 8.93539
1781 1 5.46698 21.6857 7.64664
7731 2 4.55899 23.2756 8.90875
1526 1 8.19657 23.2605 7.62004
7730 2 7.28555 21.7012 8.93539
1525 1 10.9232 21.6857 7.64664
7426 2 10.0152 23.2756 8.90875
1210 1 13.6528 23.2605 7.62004
7141 2 15.4715 23.2756 8.90875
7472 2 12.7418 21.7012 8.93539
1251 1 16.3795 21.6857 7.64664
7140 2 18.198 21.7012 8.93539
1929 1 21.8357 21.6857 7.64664
908 1 19.109 23.2605 7.62004
6799 2 20.9277 23.2756 8.90875
7939 2 1.83238 24.8503 8.88236
1751 1 2.74308 26.4115 7.56787
1750 1 5.46986 24.8358 7.59372
7696 2 4.56195 26.4254 8.8564
7733 2 7.28862 24.8503 8.88236
1487 1 8.19932 26.4115 7.56787
1528 1 10.9261 24.8358 7.59372
7425 2 10.0182 26.4254 8.8564
7424 2 12.7449 24.8503 8.88236
1209 1 13.6556 26.4115 7.56787
7102 2 15.4744 26.4254 8.8564
1208 1 16.3823 24.8358 7.59372
7143 2 18.2011 24.8503 8.88236
1930 1 21.8386 24.8358 7.59372
877 1 19.1118 26.4115 7.56787
6798 2 20.9307 26.4254 8.8564
7940 2 1.83521 28.0009 8.83106
1724 1 2.74554 29.5643 7.51833
1753 1 5.47247 27.9876 7.54268
7694 2 7.29145 28.0009 8.83106
1486 1 8.20178 29.5643 7.51833
1485 1 10.9287 27.9876 7.54268
7427 2 12.7477 28.0009 8.83106
1163 1 13.658 29.5643 7.51833
1211 1 16.3849 27.9876 7.54268
7100 2 18.2039 28.0009 8.83106
1913 1 21.8412 27.9876 7.54268
876 1 19.1143 29.5643 7.51833
7916 2 1.83776 31.1532 8.78307
1914 1 0.0185477 31.1415 7.49503
1722 1 5.47479 31.1415 7.49503
7695 2 4.56464 29.5768 8.80655
7697 2 7.294 31.1532 8.78307
1488 1 10.931 31.1415 7.49503
7380 2 10.0209 29.5768 8.80655
7101 2 15.4771 29.5768 8.80655
7378 2 12.7502 31.1532 8.78307
1161 1 16.3873 31.1415 7.49503
7103 2 18.2065 31.1532 8.78307
6767 2 20.9334 29.5768 8.80655
1723 1 2.74772 32.7192 7.47298
7917 2 1.84003 34.3076 8.73999
1898 1 0.0205734 34.2975 7.45236
1696 1 0.930463 32.741 10.0426
1725 1 5.47681 34.2975 7.45236
7664 2 4.56705 32.7302 8.76082
1694 1 3.65977 34.3177 10.0212
1448 1 8.20396 32.7192 7.47298
7662 2 7.29626 34.3076 8.73999
1443 1 6.3867 32.741 10.0426
1445 1 9.11601 34.3177 10.0212
1446 1 10.9331 34.2975 7.45236
7379 2 10.0233 32.7302 8.76082
1112 1 11.8429 32.741 10.0426
1162 1 13.6602 32.7192 7.47298
7055 2 15.4795 32.7302 8.76082
7381 2 12.7525 34.3076 8.73999
1110 1 14.5722 34.3177 10.0212
1164 1 16.3893 34.2975 7.45236
7053 2 18.2087 34.3076 8.73999
833 1 17.2992 32.741 10.0426
837 1 19.1164 32.7192 7.47298
6766 2 20.9358 32.7302 8.76082
835 1 20.0285 34.3177 10.0212
1700 1 2.74959 35.8763 7.43335
1899 1 0.0222918 37.4555 7.41613
7900 2 1.84198 37.4638 8.70335
1695 1 0.932765 35.8947 10.0014
1698 1 5.47853 37.4555 7.41613
7663 2 4.56916 35.8855 8.72077
1697 1 3.66191 37.4722 9.98351
1447 1 8.20583 35.8763 7.43335
7665 2 7.29822 37.4638 8.70335
1410 1 9.11815 37.4722 9.98351
1412 1 6.389 35.8947 10.0014
1449 1 10.9348 37.4555 7.41613
7340 2 10.0254 35.8855 8.72077
1111 1 11.8452 35.8947 10.0014
1116 1 13.6621 35.8763 7.43335
7054 2 15.4816 35.8855 8.72077
7338 2 12.7545 37.4638 8.70335
1113 1 14.5744 37.4722 9.98351
1114 1 16.391 37.4555 7.41613
7056 2 18.2107 37.4638 8.70335
788 1 17.3015 35.8947 10.0014
836 1 19.1183 35.8763 7.43335
6728 2 20.9379 35.8855 8.72077
786 1 20.0306 37.4722 9.98351
1699 1 2.75114 39.0352 7.40085
1890 1 0.0236561 40.6152 7.38766
7901 2 1.84356 40.6218 8.67452
1680 1 0.934732 39.0501 9.96759
1701 1 5.47989 40.6152 7.38766
7640 2 4.57094 39.0426 8.68788
1678 1 3.66368 40.6284 9.95385
1416 1 8.20738 39.0352 7.40085
7638 2 7.2998 40.6218 8.67452
1411 1 6.39097 39.0501 9.96759
1413 1 9.11992 40.6284 9.95385
1414 1 10.9361 40.6152 7.38766
7339 2 10.0272 39.0426 8.68788
1072 1 11.8472 39.0501 9.96759
1115 1 13.6636 39.0352 7.40085
7008 2 15.4834 39.0426 8.68788
7341 2 12.756 40.6218 8.67452
1070 1 14.5762 40.6284 9.95385
1117 1 16.3924 40.6152 7.38766
7006 2 18.2123 40.6218 8.67452
787 1 17.3034 39.0501 9.96759
791 1 19.1199 39.0352 7.40085
6727 2 20.9397 39.0426 8.68788
789 1 20.0324 40.6284 9.95385
1684 1 2.7523 42.1957 7.37667
1891 1 0.0245821 43.7764 7.36799
7892 2 1.84466 43.7812 8.65458
1679 1 0.936262 42.207 9.94239
1682 1 5.48082 43.7764 7.36799
7639 2 4.5723 42.2014 8.66338
1681 1 3.66493 43.7859 9.93335
1415 1 8.20854 42.1957 7.37667
7641 2 7.3009 43.7812 8.65458
1386 1 9.12117 43.7859 9.93335
1388 1 6.3925 42.207 9.94239
1417 1 10.9371 43.7764 7.36799
7308 2 10.0285 42.2014 8.66338
1071 1 11.8487 42.207 9.94239
1076 1 13.6648 42.1957 7.37667
7007 2 15.4848 42.2014 8.66338
7306 2 12.7571 43.7812 8.65458
1073 1 14.5774 43.7859 9.93335
1074 1 16.3933 43.7764 7.36799
7009 2 18.2134 43.7812 8.65458
743 1 17.305 42.207 9.94239
790 1 19.121 42.1957 7.37667
6688 2 20.941 42.2014 8.66338
741 1 20.0336 43.7859 9.93335
1683 1 2.75297 45.3573 7.36169
1889 1 0.0249748 46.9384 7.35784
7893 2 1.84515 46.9414 8.64432
1672 1 0.937199 45.365 9.92679
1685 1 5.48121 46.9384 7.35784
7624 2 4.57311 45.3612 8.64821
1670 1 3.66552 46.9442 9.9228
1392 1 8.20921 45.3573 7.36169
7622 2 7.30139 46.9414 8.64432
1387 1 6.39344 45.365 9.92679
1389 1 9.12176 46.9442 9.9228
1390 1 10.9375 46.9384 7.35784
7307 2 10.0293 45.3612 8.64821
1040 1 11.8497 45.365 9.92679
1075 1 13.6654 45.3573 7.36169
6968 2 15.4856 45.3612 8.64821
7309 2 12.7576 46.9414 8.64432
1038 1 14.578 46.9442 9.9228
1077 1 16.3937 46.9384 7.35784
6966 2 18.2139 46.9414 8.64432
742 1 17.3059 45.365 9.92679
746 1 19.1217 45.3573 7.36169
6687 2 20.9418 45.3612 8.64821
744 1 20.0342 46.9442 9.9228
1673 1 2.75307 48.5195 7.35647
4041 1 0.024774 50.1006 7.3576
10210 2 1.84495 50.1019 8.6441
1671 1 0.937401 48.5235 9.9214
7623 2 4.57326 48.5216 8.64294
3902 1 5.48101 50.1006 7.3576
3901 1 3.66533 50.1028 9.92261
1391 1 8.20931 48.5195 7.35647
3665 1 9.12156 50.1028 9.92261
10029 2 7.30119 50.1019 8.6441
1369 1 6.39364 48.5235 9.9214
7281 2 10.0295 48.5216 8.64294
3688 1 10.9373 50.1006 7.3576
1039 1 11.8499 48.5235 9.9214
1041 1 13.6655 48.5195 7.35647
6967 2 15.4857 48.5216 8.64294
3368 1 14.5778 50.1028 9.92261
9736 2 12.7574 50.1019 8.6441
3369 1 16.3935 50.1006 7.3576
9400 2 18.2137 50.1019 8.6441
702 1 17.3061 48.5235 9.9214
745 1 19.1218 48.5195 7.35647
6648 2 20.942 48.5216 8.64294
3001 1 20.034 50.1028 9.92261
1831 1 0.898803 1.2615 10.5324
7827 2 2.71684 1.27593 11.8187
1829 1 3.62825 2.83526 10.5133
7828 2 5.44625 2.8502 11.7998
1618 1 6.35504 1.2615 10.5324
7535 2 8.17308 1.27593 11.8187
1619 1 9.08448 2.83526 10.5133
1302 1 11.8113 1.2615 10.5324
7533 2 10.9025 2.8502 11.7998
7210 2 13.6293 1.27593 11.8187
1300 1 14.5407 2.83526 10.5133
954 1 17.2675 1.2615 10.5324
7211 2 16.3587 2.8502 11.7998
6845 2 19.0856 1.27593 11.8187
955 1 19.997 2.83526 10.5133
8009 2 21.815 2.8502 11.7998
1830 1 0.901525 4.40895 10.4932
7799 2 2.7195 4.42433 11.7798
1594 1 6.35776 4.40895 10.4932
7534 2 8.17574 4.42433 11.7798
1301 1 11.814 4.40895 10.4932
7194 2 13.632 4.42433 11.7798
946 1 17.2702 4.40895 10.4932
6844 2 19.0882 4.42433 11.7798
1804 1 0.904534 7.55606 10.4501
7798 2 2.72248 7.57219 11.7372
1832 1 3.63111 5.98254 10.4721
7797 2 5.44907 5.99833 11.759
1592 1 9.08735 5.98254 10.4721
1593 1 6.36077 7.55606 10.4501
7505 2 8.17871 7.57219 11.7372
1278 1 11.817 7.55606 10.4501
7536 2 10.9053 5.99833 11.759
1303 1 14.5436 5.98254 10.4721
7193 2 13.635 7.57219 11.7372
945 1 17.2732 7.55606 10.4501
7192 2 16.3615 5.99833 11.759
944 1 19.9998 5.98254 10.4721
8010 2 21.8178 5.99833 11.759
6837 2 19.0912 7.57219 11.7372
1803 1 0.907793 10.7029 10.4036
7764 2 2.72573 10.7195 11.691
1802 1 3.63425 9.12949 10.4273
7800 2 5.45219 9.14591 11.7145
1562 1 6.36403 10.7029 10.4036
1595 1 9.09049 9.12949 10.4273
7504 2 8.18197 10.7195 11.691
1277 1 11.8203 10.7029 10.4036
7503 2 10.9084 9.14591 11.7145
1276 1 14.5467 9.12949 10.4273
7170 2 13.6382 10.7195 11.691
930 1 17.2765 10.7029 10.4036
7195 2 16.3647 9.14591 11.7145
947 1 20.003 9.12949 10.4273
7985 2 21.8209 9.14591 11.7145
6836 2 19.0944 10.7195 11.691
1776 1 0.911243 13.8495 10.354
7763 2 2.72922 13.8663 11.6417
1805 1 3.63762 12.2762 10.3791
7762 2 5.45557 12.293 11.6667
1519 1 4.54732 13.883 12.9299
1560 1 9.09386 12.2762 10.3791
1561 1 6.36748 13.8495 10.354
7467 2 8.18546 13.8663 11.6417
1246 1 11.8237 13.8495 10.354
7506 2 10.9118 12.293 11.6667
1241 1 10.0036 13.883 12.9299
1279 1 14.5501 12.2762 10.3791
7169 2 13.6417 13.8663 11.6417
902 1 15.4598 13.883 12.9299
929 1 17.28 13.8495 10.354
7168 2 16.368 12.293 11.6667
928 1 20.0063 12.2762 10.3791
7986 2 21.8243 12.293 11.6667
6821 2 19.0979 13.8663 11.6417
582 1 20.916 13.883 12.9299
1775 1 0.914796 16.9961 10.3019
7728 2 2.73287 17.0128 11.5899
1773 1 1.82109 15.4562 12.9041
1774 1 3.64113 15.4228 10.3282
7765 2 5.45915 15.4396 11.616
1518 1 4.55115 17.0292 12.8777
1523 1 6.37103 16.9961 10.3019
1563 1 9.09737 15.4228 10.3282
7466 2 8.18911 17.0128 11.5899
1517 1 7.27733 15.4562 12.9041
1245 1 11.8273 16.9961 10.3019
7465 2 10.9154 15.4396 11.616
1202 1 10.0074 17.0292 12.8777
1244 1 14.5536 15.4228 10.3282
7138 2 13.6454 17.0128 11.5899
901 1 15.4636 17.0292 12.8777
1243 1 12.7336 15.4562 12.9041
906 1 17.2835 16.9961 10.3019
7171 2 16.3716 15.4396 11.616
900 1 18.1898 15.4562 12.9041
931 1 20.0098 15.4228 10.3282
7961 2 21.8279 15.4396 11.616
6820 2 19.1016 17.0128 11.5899
567 1 20.9199 17.0292 12.8777
1748 1 0.918341 20.143 10.2481
7727 2 2.73658 20.1592 11.5363
1744 1 1.82499 18.6021 12.8508
1777 1 3.6447 18.5695 10.2751
7726 2 5.46285 18.586 11.5632
1479 1 4.55507 20.175 12.8235
1521 1 9.10093 18.5695 10.2751
1522 1 6.37458 20.143 10.2481
7422 2 8.19281 20.1592 11.5363
1520 1 7.28123 18.6021 12.8508
1206 1 11.8308 20.143 10.2481
7468 2 10.9191 18.586 11.5632
1201 1 10.0113 20.175 12.8235
1247 1 14.5572 18.5695 10.2751
7137 2 13.6491 20.1592 11.5363
870 1 15.4676 20.175 12.8235
1200 1 12.7375 18.6021 12.8508
905 1 17.2871 20.143 10.2481
7136 2 16.3753 18.586 11.5632
903 1 18.1937 18.6021 12.8508
904 1 20.0134 18.5695 10.2751
7962 2 21.8316 18.586 11.5632
6797 2 19.1053 20.1592 11.5363
566 1 20.9238 20.175 12.8235
1747 1 0.92176 23.2905 10.1939
7692 2 2.74021 23.3059 11.482
1745 1 1.82891 21.7478 12.796
1746 1 3.64819 21.7166 10.221
7729 2 5.46653 21.7325 11.5092
1478 1 4.55896 23.3207 12.7683
1483 1 6.378 23.2905 10.1939
1524 1 9.10443 21.7166 10.221
7421 2 8.19644 23.3059 11.482
1477 1 7.28515 21.7478 12.796
1205 1 11.8342 23.2905 10.1939
7420 2 10.9228 21.7325 11.5092
1155 1 10.0152 23.3207 12.7683
1204 1 14.5607 21.7166 10.221
7098 2 13.6527 23.3059 11.482
869 1 15.4714 23.3207 12.7683
1203 1 12.7414 21.7478 12.796
874 1 17.2905 23.2905 10.1939
7139 2 16.379 21.7325 11.5092
868 1 18.1976 21.7478 12.796
907 1 20.0169 21.7166 10.221
7937 2 21.8352 21.7325 11.5092
6796 2 19.1089 23.3059 11.482
543 1 20.9277 23.3207 12.7683
1720 1 0.924953 26.4391 10.1405
7691 2 2.74365 26.4534 11.4284
1716 1 1.83273 24.8937 12.7408
1749 1 3.65151 24.8647 10.167
7690 2 5.47008 24.8795 11.455
1440 1 4.56268 26.4669 12.7136
1481 1 9.10775 24.8647 10.167
1482 1 6.38119 26.4391 10.1405
7376 2 8.19989 26.4534 11.4284
1480 1 7.28897 24.8937 12.7408
7423 2 10.9263 24.8795 11.455
1159 1 11.8374 26.4391 10.1405
1154 1 10.0189 26.4669 12.7136
1207 1 14.564 24.8647 10.167
7097 2 13.6561 26.4534 11.4284
1153 1 12.7452 24.8937 12.7408
830 1 15.4752 26.4669 12.7136
7096 2 16.3826 24.8795 11.455
873 1 17.2937 26.4391 10.1405
871 1 18.2014 24.8937 12.7408
872 1 20.0202 24.8647 10.167
7938 2 21.8388 24.8795 11.455
6765 2 19.1124 26.4534 11.4284
542 1 20.9314 26.4669 12.7136
1717 1 1.83632 28.0404 12.6868
1718 1 3.65456 28.014 10.1146
7693 2 5.4734 28.0275 11.4023
1484 1 9.1108 28.014 10.1146
1438 1 7.29256 28.0404 12.6868
7374 2 10.9296 28.0275 11.4023
1157 1 14.567 28.014 10.1146
1156 1 12.7488 28.0404 12.6868
7099 2 16.3859 28.0275 11.4023
828 1 18.205 28.0404 12.6868
875 1 20.0233 28.014 10.1146
7914 2 21.8421 28.0275 11.4023
1719 1 0.927859 29.5892 10.0895
1692 1 1.83963 31.1882 12.6358
7660 2 2.74685 29.602 11.377
7915 2 0.0202208 31.1769 11.3527
1721 1 3.65732 31.1649 10.0654
7658 2 5.47646 31.1769 11.3527
1439 1 4.56613 29.6141 12.6608
1442 1 9.11356 31.1649 10.0654
1444 1 6.3841 29.5892 10.0895
1441 1 7.29587 31.1882 12.6358
7375 2 8.20309 29.602 11.377
1158 1 11.8403 29.5892 10.0895
7377 2 10.9327 31.1769 11.3527
1108 1 10.0224 29.6141 12.6608
1160 1 14.5698 31.1649 10.0654
1106 1 12.7521 31.1882 12.6358
7051 2 13.6593 29.602 11.377
829 1 15.4786 29.6141 12.6608
834 1 17.2966 29.5892 10.0895
831 1 18.2083 31.1882 12.6358
7049 2 16.3889 31.1769 11.3527
832 1 20.026 31.1649 10.0654
6764 2 19.1156 29.602 11.377
511 1 20.9348 29.6141 12.6608
1693 1 1.84266 34.3377 12.5897
7659 2 2.74976 32.7522 11.3296
7898 2 0.0229964 34.328 11.308
1408 1 4.5693 32.7628 12.612
7661 2 5.47923 34.328 11.308
1406 1 7.2989 34.3377 12.5897
7336 2 8.206 32.7522 11.3296
1107 1 10.0255 32.7628 12.612
7334 2 10.9355 34.328 11.308
784 1 15.4818 32.7628 12.612
1109 1 12.7551 34.3377 12.5897
7050 2 13.6622 32.7522 11.3296
782 1 18.2114 34.3377 12.5897
7052 2 16.3917 34.328 11.308
510 1 20.938 32.7628 12.612
6726 2 19.1185 32.7522 11.3296
1676 1 1.84541 37.4888 12.5502
7636 2 2.75239 35.9042 11.288
7899 2 0.0254718 37.4808 11.2698
1407 1 4.57219 35.9131 12.569
7634 2 5.48171 37.4808 11.2698
1409 1 7.30164 37.4888 12.5502
7335 2 8.20863 35.9042 11.288
1068 1 10.0284 35.9131 12.569
7337 2 10.9379 37.4808 11.2698
783 1 15.4847 35.9131 12.569
1066 1 12.7579 37.4888 12.5502
7004 2 13.6649 35.9042 11.288
785 1 18.2141 37.4888 12.5502
7002 2 16.3942 37.4808 11.2698
475 1 20.9409 35.9131 12.569
6725 2 19.1211 35.9042 11.288
1677 1 1.84777 40.6415 12.5191
7635 2 2.75469 39.0578 11.2536
7890 2 0.0275564 40.6352 11.2397
1384 1 4.57477 39.065 12.5335
7637 2 5.48379 40.6352 11.2397
1382 1 7.30401 40.6415 12.5191
7304 2 8.21093 39.0578 11.2536
1067 1 10.031 39.065 12.5335
7302 2 10.94 40.6352 11.2397
739 1 15.4872 39.065 12.5335
1069 1 12.7602 40.6415 12.5191
7003 2 13.6672 39.0578 11.2536
737 1 18.2165 40.6415 12.5191
7005 2 16.3963 40.6352 11.2397
474 1 20.9435 39.065 12.5335
6686 2 19.1234 39.0578 11.2536
1668 1 1.84954 43.7954 12.4975
7620 2 2.75652 42.2128 11.228
7891 2 0.029071 43.7908 11.2188
1383 1 4.57687 42.2183 12.507
7618 2 5.48531 43.7908 11.2188
1385 1 7.30578 43.7954 12.4975
7303 2 8.21276 42.2128 11.228
1036 1 10.0331 42.2183 12.507
7305 2 10.9415 43.7908 11.2188
738 1 15.4893 42.2183 12.507
1034 1 12.762 43.7954 12.4975
6964 2 13.669 42.2128 11.228
740 1 18.2183 43.7954 12.4975
6962 2 16.3978 43.7908 11.2188
439 1 20.9456 42.2183 12.507
6685 2 19.1252 42.2128 11.228
1669 1 1.85042 46.95 12.4865
7619 2 2.75767 45.3689 11.2122
7889 2 0.0298028 46.9472 11.2081
1368 1 4.57822 45.3726 12.4906
7621 2 5.48604 46.9472 11.2081
1366 1 7.30666 46.95 12.4865
7280 2 8.2139 45.3689 11.2122
1035 1 10.0345 45.3726 12.4906
7278 2 10.9423 46.9472 11.2081
701 1 15.4907 45.3726 12.4906
1037 1 12.7629 46.95 12.4865
6963 2 13.6701 45.3689 11.2122
699 1 18.2191 46.95 12.4865
6965 2 16.3985 46.9472 11.2081
438 1 20.9469 45.3726 12.4906
6647 2 19.1264 45.3689 11.2122
7609 2 2.75794 48.5256 11.2067
3875 1 1.85023 50.1049 12.4863
10209 2 0.0296099 50.1039 11.208
1367 1 4.57858 48.5275 12.485
10002 2 5.48585 50.1039 11.208
7279 2 8.21418 48.5256 11.2067
3664 1 7.30647 50.1049 12.4863
1009 1 10.0348 48.5275 12.485
9735 2 10.9421 50.1039 11.208
700 1 15.4911 48.5275 12.485
6929 2 13.6704 48.5256 11.2067
3345 1 12.7627 50.1049 12.4863
3000 1 18.2189 50.1049 12.4863
9385 2 16.3983 50.1039 11.208
403 1 20.9473 48.5275 12.485
6646 2 19.1267 48.5256 11.2067
7795 2 0.896503 1.30513 14.3929
1586 1 2.71432 1.31993 15.6813
1828 1 1.80788 2.86538 13.0881
1590 1 4.53471 1.29064 13.107
7793 2 3.62585 2.8804 14.3742
7531 2 6.35274 1.30513 14.3929
1270 1 8.17056 1.31993 15.6813
1588 1 7.26412 2.86538 13.0881
7532 2 9.08209 2.8804 14.3742
1298 1 9.99095 1.29064 13.107
7190 2 11.809 1.30513 14.3929
942 1 15.4472 1.29064 13.107
938 1 13.6268 1.31993 15.6813
1299 1 12.7204 2.86538 13.0881
7188 2 14.5383 2.8804 14.3742
6842 2 17.2652 1.30513 14.3929
940 1 18.1766 2.86538 13.0881
592 1 20.9034 1.29064 13.107
589 1 19.083 1.31993 15.6813
6843 2 19.9946 2.8804 14.3742
7794 2 0.899054 4.45545 14.3545
1554 1 2.71681 4.47121 15.6432
1589 1 4.53737 4.43994 13.0682
1587 1 5.44364 2.8957 15.6627
7501 2 6.35529 4.45545 14.3545
1269 1 8.17305 4.47121 15.6432
1274 1 9.99361 4.43994 13.0682
7189 2 11.8115 4.45545 14.3545
1268 1 10.8999 2.8957 15.6627
941 1 15.4499 4.43994 13.0682
922 1 13.6293 4.47121 15.6432
6834 2 17.2678 4.45545 14.3545
939 1 16.3561 2.8957 15.6627
591 1 20.9061 4.43994 13.0682
1798 1 21.8124 2.8957 15.6627
588 1 19.0855 4.47121 15.6432
1800 1 1.81071 6.0143 13.0474
7760 2 0.901962 7.60483 14.3124
1553 1 2.71969 7.62133 15.6012
1558 1 4.54037 7.58846 13.0256
7796 2 3.62858 6.03027 14.3339
1552 1 5.44632 6.04643 15.6227
1591 1 7.26695 6.0143 13.0474
7499 2 9.08482 6.03027 14.3339
7500 2 6.3582 7.60483 14.3124
1238 1 8.17593 7.62133 15.6012
1273 1 9.99661 7.58846 13.0256
7166 2 11.8144 7.60483 14.3124
1271 1 10.9026 6.04643 15.6227
926 1 15.4529 7.58846 13.0256
1272 1 12.7232 6.0143 13.0474
7191 2 14.5411 6.03027 14.3339
921 1 13.6322 7.62133 15.6012
943 1 18.1794 6.0143 13.0474
6833 2 17.2707 7.60483 14.3124
920 1 16.3588 6.04643 15.6227
590 1 20.9091 7.58846 13.0256
6832 2 19.9973 6.03027 14.3339
1799 1 21.815 6.04643 15.6227
581 1 19.0884 7.62133 15.6012
1801 1 1.81388 9.16242 13.003
7759 2 0.90523 10.7532 14.2666
1515 1 2.72297 10.7701 15.5556
1557 1 4.5437 10.7362 12.9794
7758 2 3.63167 9.17913 14.2899
1555 1 5.4494 9.1959 15.5789
1556 1 7.27012 9.16242 13.003
7463 2 6.36147 10.7532 14.2666
7502 2 9.08791 9.17913 14.2899
1237 1 8.17921 10.7701 15.5556
1242 1 9.99994 10.7362 12.9794
7165 2 11.8177 10.7532 14.2666
1236 1 10.9056 9.1959 15.5789
925 1 15.4562 10.7362 12.9794
1275 1 12.7264 9.16242 13.003
7164 2 14.5441 9.17913 14.2899
898 1 13.6354 10.7701 15.5556
924 1 18.1826 9.16242 13.003
6818 2 17.2739 10.7532 14.2666
923 1 16.3619 9.1959 15.5789
583 1 20.9124 10.7362 12.9794
6835 2 20.0004 9.17913 14.2899
1770 1 21.8181 9.1959 15.5789
580 1 19.0917 10.7701 15.5556
1772 1 1.81736 12.3097 12.9551
7724 2 0.908837 13.9004 14.2176
1514 1 2.72665 13.9175 15.5065
7761 2 3.63511 12.3269 14.2425
1513 1 5.45288 12.344 15.5315
1559 1 7.2736 12.3097 12.9551
7461 2 9.09135 12.3269 14.2425
7462 2 6.36508 13.9004 14.2176
1198 1 8.18288 13.9175 15.5065
7134 2 11.8213 13.9004 14.2176
1239 1 10.9091 12.344 15.5315
1240 1 12.7298 12.3097 12.9551
7167 2 14.5476 12.3269 14.2425
897 1 13.6391 13.9175 15.5065
927 1 18.1861 12.3097 12.9551
6817 2 17.2776 13.9004 14.2176
896 1 16.3654 12.344 15.5315
6816 2 20.0038 12.3269 14.2425
1771 1 21.8216 12.344 15.5315
565 1 19.0954 13.9175 15.5065
7723 2 0.912726 17.0466 14.1657
1475 1 2.73068 17.0635 15.4544
7722 2 3.63887 15.4736 14.192
1516 1 5.45674 15.4907 15.4808
7418 2 6.36896 17.0466 14.1657
7464 2 9.09511 15.4736 14.192
1197 1 8.18691 17.0635 15.4544
7133 2 11.8252 17.0466 14.1657
1196 1 10.913 15.4907 15.4808
7132 2 14.5513 15.4736 14.192
866 1 13.6432 17.0635 15.4544
6794 2 17.2814 17.0466 14.1657
899 1 16.3692 15.4907 15.4808
6819 2 20.0076 15.4736 14.192
1742 1 21.8255 15.4907 15.4808
564 1 19.0994 17.0635 15.4544
7688 2 0.916794 20.192 14.1117
1474 1 2.73496 20.2082 15.3999
7725 2 3.64286 18.6194 14.1389
1473 1 5.46091 18.636 15.4274
7416 2 9.0991 18.6194 14.1389
7417 2 6.37303 20.192 14.1117
1151 1 8.1912 20.2082 15.3999
7094 2 11.8293 20.192 14.1117
1199 1 10.9172 18.636 15.4274
7135 2 14.5553 18.6194 14.1389
865 1 13.6474 20.2082 15.3999
6793 2 17.2855 20.192 14.1117
864 1 16.3734 18.636 15.4274
6792 2 20.0116 18.6194 14.1389
1743 1 21.8296 18.636 15.4274
541 1 19.1037 20.2082 15.3999
7687 2 0.920907 23.337 14.0566
1436 1 2.73935 23.3522 15.3439
7686 2 3.64697 21.7645 14.0842
1476 1 5.46527 21.7803 15.372
7372 2 6.37715 23.337 14.0566
7419 2 9.10321 21.7645 14.0842
1150 1 8.19559 23.3522 15.3439
7093 2 11.8334 23.337 14.0566
1149 1 10.9215 21.7803 15.372
7092 2 14.5595 21.7645 14.0842
826 1 13.6518 23.3522 15.3439
6762 2 17.2896 23.337 14.0566
867 1 16.3777 21.7803 15.372
6795 2 20.0157 21.7645 14.0842
1714 1 21.834 21.7803 15.372
540 1 19.1081 23.3522 15.3439
7656 2 0.924919 26.482 14.0016
1435 1 2.74368 26.4958 15.2876
7689 2 3.65105 24.9095 14.029
1434 1 5.46965 24.924 15.3157
7370 2 9.10729 24.9095 14.029
7371 2 6.38116 26.482 14.0016
1104 1 8.19992 26.4958 15.2876
1152 1 10.9259 24.924 15.3157
7047 2 11.8374 26.482 14.0016
7095 2 14.5635 24.9095 14.029
825 1 13.6562 26.4958 15.2876
824 1 16.3821 24.924 15.3157
6761 2 17.2936 26.482 14.0016
6760 2 20.0198 24.9095 14.029
1715 1 21.8384 24.924 15.3157
509 1 19.1124 26.4958 15.2876
7654 2 3.65497 28.0548 13.9746
1437 1 5.47389 28.0678 15.2599
7373 2 9.11121 28.0548 13.9746
1102 1 10.9301 28.0678 15.2599
7045 2 14.5674 28.0548 13.9746
827 1 16.3864 28.0678 15.2599
6763 2 20.0237 28.0548 13.9746
1690 1 21.8426 28.0678 15.2599
7655 2 0.928726 29.6278 13.9484
1404 1 2.74781 29.64 15.2329
1691 1 0.0216594 31.2125 15.2067
7657 2 3.65866 31.2011 13.9231
1402 1 5.4779 31.2125 15.2067
7330 2 9.1149 31.2011 13.9231
7332 2 6.38496 29.6278 13.9484
1103 1 8.20404 29.64 15.2329
7046 2 11.8412 29.6278 13.9484
1105 1 10.9341 31.2125 15.2067
7048 2 14.5711 31.2011 13.9231
780 1 13.6603 29.64 15.2329
6723 2 17.2974 29.6278 13.9484
778 1 16.3904 31.2125 15.2067
6721 2 20.0274 31.2011 13.9231
508 1 19.1165 29.64 15.2329
7632 2 0.932293 32.7747 13.899
1403 1 2.75169 32.7853 15.1817
1674 1 0.0254372 34.3585 15.1582
7630 2 3.66211 34.3487 13.8763
1405 1 5.48168 34.3585 15.1582
7331 2 6.38853 32.7747 13.899
7333 2 9.11834 34.3487 13.8763
1064 1 8.20793 32.7853 15.1817
7000 2 11.8448 32.7747 13.899
1062 1 10.9379 34.3585 15.1582
6998 2 14.5746 34.3487 13.8763
779 1 13.6642 32.7853 15.1817
6722 2 17.301 32.7747 13.899
781 1 16.3942 34.3585 15.1582
6724 2 20.0308 34.3487 13.8763
473 1 19.1204 32.7853 15.1817
7631 2 0.935619 35.9231 13.8553
1380 1 2.75537 35.932 15.1363
1675 1 0.0290041 37.506 15.1165
7633 2 3.6653 37.4979 13.8362
1378 1 5.48524 37.506 15.1165
7298 2 9.12154 37.4979 13.8362
7300 2 6.39186 35.9231 13.8553
1063 1 8.21161 35.932 15.1363
6999 2 11.8481 35.9231 13.8553
1065 1 10.9415 37.506 15.1165
7001 2 14.5778 37.4979 13.8362
735 1 13.6678 35.932 15.1363
6683 2 17.3043 35.9231 13.8553
733 1 16.3977 37.506 15.1165
6681 2 20.034 37.4979 13.8362
472 1 19.1241 35.932 15.1363
7616 2 0.938648 39.0731 13.8192
1379 1 2.7588 39.0803 15.0988
1666 1 0.0322388 40.655 15.0835
7614 2 3.66811 40.6486 13.8045
1381 1 5.48848 40.655 15.0835
7299 2 6.39489 39.0731 13.8192
7301 2 9.12435 40.6486 13.8045
1032 1 8.21504 39.0803 15.0988
6960 2 11.8511 39.0731 13.8192
1030 1 10.9447 40.655 15.0835
6958 2 14.5806 40.6486 13.8045
734 1 13.6713 39.0803 15.0988
6682 2 17.3074 39.0731 13.8192
736 1 16.401 40.655 15.0835
6684 2 20.0368 40.6486 13.8045
437 1 19.1275 39.0803 15.0988
7615 2 0.941169 42.2244 13.7922
1364 1 2.76175 42.2299 15.0708
1667 1 0.0347809 43.805 15.0607
7617 2 3.67025 43.8005 13.7825
1362 1 5.49102 43.805 15.0607
7274 2 9.12649 43.8005 13.7825
7276 2 6.39741 42.2244 13.7922
1031 1 8.21798 42.2299 15.0708
6959 2 11.8536 42.2244 13.7922
1033 1 10.9473 43.805 15.0607
6961 2 14.5827 43.8005 13.7825
697 1 13.6742 42.2299 15.0708
6644 2 17.3099 42.2244 13.7922
695 1 16.4035 43.805 15.0607
6642 2 20.039 43.8005 13.7825
436 1 19.1305 42.2299 15.0708
7608 2 0.942833 45.3767 13.7755
1363 1 2.76375 45.3804 15.0534
1665 1 0.0361325 46.9558 15.049
7606 2 3.67135 46.953 13.7713
1365 1 5.49237 46.9558 15.049
7275 2 6.39907 45.3767 13.7755
7277 2 9.12759 46.953 13.7713
1008 1 8.21999 45.3804 15.0534
6928 2 11.8553 45.3767 13.7755
1006 1 10.9486 46.9558 15.049
6926 2 14.5838 46.953 13.7713
696 1 13.6762 45.3804 15.0534
6643 2 17.3115 45.3767 13.7755
698 1 16.4048 46.9558 15.049
6645 2 20.0401 46.953 13.7713
402 1 19.1325 45.3804 15.0534
7607 2 0.943303 48.5294 13.7698
1353 1 2.76435 48.5313 15.0476
3874 1 0.0359313 50.1068 15.049
10001 2 3.67116 50.1058 13.7712
3633 1 5.49217 50.1068 15.049
7257 2 6.39954 48.5294 13.7698
1007 1 8.22059 48.5313 15.0476
9706 2 9.12739 50.1058 13.7712
6927 2 11.8558 48.5294 13.7698
3344 1 10.9484 50.1068 15.049
664 1 13.6768 48.5313 15.0476
9384 2 14.5836 50.1058 13.7712
6609 2 17.312 48.5294 13.7698
2985 1 16.4046 50.1068 15.049
401 1 19.1331 48.5313 15.0476
9017 2 20.0399 50.1058 13.7712
1550 1 0.893917 1.34955 18.2553
7497 2 4.53237 1.33457 16.9669
1266 1 6.35016 1.34955 18.2553
7186 2 9.98861 1.33457 16.9669
918 1 11.8064 1.34955 18.2553
6830 2 15.4448 1.33457 16.9669
586 1 17.2626 1.34955 18.2553
6528 2 20.9011 1.33457 16.9669
7792 2 1.80537 2.91092 16.9486
1549 1 0.896131 4.50303 18.218
7496 2 4.5347 4.48698 16.9293
1548 1 3.6231 2.92646 18.2372
7495 2 7.26161 2.91092 16.9486
1234 1 6.35237 4.50303 18.218
1267 1 9.07933 2.92646 18.2372
7162 2 9.99094 4.48698 16.9293
917 1 11.8086 4.50303 18.218
6829 2 15.4472 4.48698 16.9293
7187 2 12.7178 2.91092 16.9486
916 1 14.5356 2.92646 18.2372
6828 2 18.1741 2.91092 16.9486
578 1 17.2648 4.50303 18.218
6527 2 20.9034 4.48698 16.9293
587 1 19.9918 2.92646 18.2372
7756 2 1.8079 6.06271 16.909
1511 1 0.898756 7.65503 18.1769
7459 2 4.53743 7.63809 16.8878
1551 1 3.62551 6.07923 18.1979
7498 2 7.26413 6.06271 16.909
1232 1 9.08175 6.07923 18.1979
1233 1 6.35499 7.65503 18.1769
7161 2 9.99367 7.63809 16.8878
894 1 11.8112 7.65503 18.1769
6814 2 15.4499 7.63809 16.8878
7160 2 12.7204 6.06271 16.909
919 1 14.538 6.07923 18.1979
6831 2 18.1766 6.06271 16.909
577 1 17.2675 7.65503 18.1769
6526 2 20.9061 7.63809 16.8878
576 1 19.9942 6.07923 18.1979
7757 2 1.81083 9.21309 16.8657
1510 1 0.901847 10.8053 18.1321
7458 2 4.54058 10.7877 16.8428
1509 1 3.62836 9.23038 18.155
7457 2 7.26707 9.21309 16.8657
1194 1 6.35808 10.8053 18.1321
1235 1 9.0846 9.23038 18.155
7130 2 9.99682 10.7877 16.8428
893 1 11.8143 10.8053 18.1321
6813 2 15.4531 10.7877 16.8428
7163 2 12.7233 9.21309 16.8657
892 1 14.5408 9.23038 18.155
6812 2 18.1795 9.21309 16.8657
562 1 17.2706 10.8053 18.1321
6519 2 20.9093 10.7877 16.8428
579 1 19.9971 9.23038 18.155
7720 2 1.81421 12.3619 16.8189
1471 1 0.905444 13.9535 18.0838
7414 2 4.54418 13.9356 16.7942
1512 1 3.6317 12.3797 18.1084
7460 2 7.27045 12.3619 16.8189
1192 1 9.08794 12.3797 18.1084
1193 1 6.36168 13.9535 18.0838
7129 2 10.0004 13.9356 16.7942
862 1 11.8179 13.9535 18.0838
6790 2 15.4567 13.9356 16.7942
7128 2 12.7267 12.3619 16.8189
895 1 14.5442 12.3797 18.1084
6815 2 18.1829 12.3619 16.8189
561 1 17.2742 13.9535 18.0838
6518 2 20.9129 13.9356 16.7942
560 1 20.0004 12.3797 18.1084
7721 2 1.81803 15.509 16.7688
1470 1 0.909553 17.0997 18.0321
7413 2 4.54821 17.0819 16.7426
1469 1 3.63556 15.5269 18.0583
7412 2 7.27427 15.509 16.7688
1147 1 6.36579 17.0997 18.0321
1195 1 9.09179 15.5269 18.0583
7090 2 10.0045 17.0819 16.7426
861 1 11.822 17.0997 18.0321
6789 2 15.4607 17.0819 16.7426
7131 2 12.7305 15.509 16.7688
860 1 14.548 15.5269 18.0583
6788 2 18.1867 15.509 16.7688
538 1 17.2783 17.0997 18.0321
6503 2 20.9169 17.0819 16.7426
563 1 20.0043 15.5269 18.0583
7684 2 1.82225 18.6544 16.7158
1432 1 0.914121 20.2437 17.9775
7368 2 4.5526 20.2265 16.6884
1472 1 3.63991 18.6719 18.0051
7415 2 7.27849 18.6544 16.7158
1145 1 9.09614 18.6719 18.0051
1146 1 6.37036 20.2437 17.9775
7089 2 10.0088 20.2265 16.6884
822 1 11.8266 20.2437 17.9775
6758 2 15.4651 20.2265 16.6884
7088 2 12.7347 18.6544 16.7158
863 1 14.5524 18.6719 18.0051
6791 2 18.191 18.6544 16.7158
537 1 17.2828 20.2437 17.9775
6502 2 20.9213 20.2265 16.6884
536 1 20.0086 18.6719 18.0051
7685 2 1.82677 21.7983 16.6606
1431 1 0.919013 23.386 17.9208
7367 2 4.55721 23.3698 16.6325
1430 1 3.64466 21.815 17.9494
7366 2 7.283 21.7983 16.6606
1100 1 6.37525 23.386 17.9208
1148 1 9.1009 21.815 17.9494
7043 2 10.0134 23.3698 16.6325
821 1 11.8315 23.386 17.9208
6757 2 15.4697 23.3698 16.6325
7091 2 12.7392 21.7983 16.6606
820 1 14.5571 21.815 17.9494
6756 2 18.1955 21.7983 16.6606
506 1 17.2877 23.386 17.9208
6479 2 20.9259 23.3698 16.6325
539 1 20.0134 21.815 17.9494
7652 2 1.83142 24.9412 16.6042
1400 1 0.924028 26.5271 17.863
1433 1 3.64964 24.9567 17.8919
7328 2 4.56186 26.5124 16.576
7369 2 7.28766 24.9412 16.6042
1098 1 9.10588 24.9567 17.8919
1099 1 6.38027 26.5271 17.863
7042 2 10.0181 26.5124 16.576
776 1 11.8365 26.5271 17.863
7041 2 12.7439 24.9412 16.6042
823 1 14.5621 24.9567 17.8919
6719 2 15.4743 26.5124 16.576
6759 2 18.2001 24.9412 16.6042
505 1 17.2927 26.5271 17.863
504 1 20.0184 24.9567 17.8919
6478 2 20.9306 26.5124 16.576
7653 2 1.83604 28.0837 16.5481
1398 1 3.65464 28.0976 17.8342
7326 2 7.29228 28.0837 16.5481
1101 1 9.11087 28.0976 17.8342
7044 2 12.7485 28.0837 16.5481
774 1 14.5671 28.0976 17.8342
6717 2 18.2048 28.0837 16.5481
507 1 20.0234 28.0976 17.8342
7628 2 1.84051 31.2267 16.4942
1399 1 0.928971 29.6681 17.8059
7327 2 4.56641 29.6551 16.5207
1401 1 3.6595 31.2387 17.7783
7329 2 7.29674 31.2267 16.4942
1058 1 9.11574 31.2387 17.7783
1060 1 6.38521 29.6681 17.8059
6996 2 10.0226 29.6551 16.5207
775 1 11.8414 29.6681 17.8059
6718 2 15.4789 29.6551 16.5207
6994 2 12.753 31.2267 16.4942
777 1 14.572 31.2387 17.7783
6720 2 18.2092 31.2267 16.4942
470 1 17.2977 29.6681 17.8059
6451 2 20.9351 29.6551 16.5207
468 1 20.0282 31.2387 17.7783
7629 2 1.84481 34.3707 16.4449
1376 1 0.93376 32.8097 17.7519
7296 2 4.5708 32.7985 16.4688
1374 1 3.66423 34.381 17.7269
7294 2 7.30105 34.3707 16.4449
1059 1 6.39 32.8097 17.7519
1061 1 9.12047 34.381 17.7269
6995 2 10.027 32.7985 16.4688
731 1 11.8462 32.8097 17.7519
6679 2 15.4833 32.7985 16.4688
6997 2 12.7573 34.3707 16.4449
729 1 14.5767 34.381 17.7269
6677 2 18.2135 34.3707 16.4449
469 1 17.3025 32.8097 17.7519
6450 2 20.9395 32.7985 16.4688
471 1 20.0329 34.381 17.7269
7612 2 1.84897 37.5161 16.4024
1375 1 0.93845 35.9526 17.7036
7295 2 4.57503 35.9432 16.4226
1377 1 3.66889 37.5246 17.6824
7297 2 7.30521 37.5161 16.4024
1026 1 9.12513 37.5246 17.6824
1028 1 6.39469 35.9526 17.7036
6956 2 10.0313 35.9432 16.4226
730 1 11.8509 35.9526 17.7036
6678 2 15.4875 35.9432 16.4226
6954 2 12.7614 37.5161 16.4024
732 1 14.5814 37.5246 17.6824
6680 2 18.2177 37.5161 16.4024
434 1 17.3072 35.9526 17.7036
6423 2 20.9437 35.9432 16.4226
432 1 20.0376 37.5246 17.6824
7613 2 1.85282 40.6629 16.3687
1360 1 0.943052 39.097 17.6636
7272 2 4.57907 39.0894 16.3843
1358 1 3.67335 40.6696 17.6473
7270 2 7.30905 40.6629 16.3687
1027 1 6.39929 39.097 17.6636
1029 1 9.12959 40.6696 17.6473
6955 2 10.0353 39.0894 16.3843
693 1 11.8555 39.097 17.6636
6640 2 15.4915 39.0894 16.3843
6957 2 12.7653 40.6629 16.3687
691 1 14.5858 40.6696 17.6473
6638 2 18.2215 40.6629 16.3687
433 1 17.3118 39.097 17.6636
6422 2 20.9478 39.0894 16.3843
435 1 20.0421 40.6696 17.6473
7604 2 1.85589 43.8107 16.3455
1359 1 0.947235 42.2424 17.6337
7271 2 4.58261 42.2367 16.3558
1361 1 3.67706 43.8155 17.623
7273 2 7.31213 43.8107 16.3455
1002 1 9.1333 43.8155 17.623
1004 1 6.40347 42.2424 17.6337
6924 2 10.0388 42.2367 16.3558
692 1 11.8597 42.2424 17.6337
6639 2 15.4951 42.2367 16.3558
6922 2 12.7684 43.8107 16.3455
694 1 14.5895 43.8155 17.623
6641 2 18.2246 43.8107 16.3455
399 1 17.316 42.2424 17.6337
6395 2 20.9513 42.2367 16.3558
397 1 20.0458 43.8155 17.623
7605 2 1.85755 46.959 16.3336
1352 1 0.950237 45.3886 17.6153
7256 2 4.58505 45.3848 16.3381
1350 1 3.67914 46.9618 17.6106
7254 2 7.31379 46.959 16.3336
1003 1 6.40648 45.3886 17.6153
1005 1 9.13538 46.9618 17.6106
6923 2 10.0413 45.3848 16.3381
663 1 11.8627 45.3886 17.6153
6608 2 15.4975 45.3848 16.3381
6925 2 12.77 46.959 16.3336
661 1 14.5916 46.9618 17.6106
6606 2 18.2263 46.959 16.3336
398 1 17.319 45.3886 17.6153
6394 2 20.9538 45.3848 16.3381
400 1 20.0479 46.9618 17.6106
1351 1 0.951211 48.535 17.6091
9967 2 1.85734 50.1074 16.3336
7255 2 4.58581 48.5332 16.3321
3632 1 3.67891 50.1082 17.6107
985 1 6.40745 48.535 17.6091
9705 2 7.31358 50.1074 16.3336
3313 1 9.13515 50.1082 17.6107
6897 2 10.0421 48.5332 16.3321
662 1 11.8637 48.535 17.6091
6607 2 15.4983 48.5332 16.3321
9361 2 12.7698 50.1074 16.3336
2984 1 14.5914 50.1082 17.6107
368 1 17.3199 48.535 17.6091
9016 2 18.2261 50.1074 16.3336
6367 2 20.9545 48.5332 16.3321
2633 1 20.0476 50.1082 17.6107
7493 2 2.71203 1.36441 19.5407
1230 1 4.52981 1.37965 20.8289
7158 2 8.16826 1.36441 19.5407
914 1 9.98605 1.37965 20.8289
574 1 15.4423 1.37965 20.8289
6826 2 13.6245 1.36441 19.5407
304 1 20.8985 1.37965 20.8289
6525 2 19.0807 1.36441 19.5407
1547 1 1.80256 2.95783 20.8112
7455 2 2.71404 4.51916 19.5039
1229 1 4.53164 4.53562 20.7926
7494 2 5.4411 2.94196 19.5228
1228 1 7.2588 2.95783 20.8112
7157 2 8.17028 4.51916 19.5039
890 1 9.98788 4.53562 20.7926
7156 2 10.8973 2.94196 19.5228
573 1 15.4441 4.53562 20.7926
915 1 12.715 2.95783 20.8112
6810 2 13.6265 4.51916 19.5039
572 1 18.1713 2.95783 20.8112
6827 2 16.3536 2.94196 19.5228
7754 2 21.8098 2.94196 19.5228
303 1 20.9004 4.53562 20.7926
6524 2 19.0828 4.51916 19.5039
1507 1 1.80459 6.11297 20.773
7454 2 2.71645 7.67231 19.4634
1190 1 4.53389 7.68984 20.7525
7453 2 5.44331 6.09595 19.4841
1231 1 7.26083 6.11297 20.773
7126 2 8.17269 7.67231 19.4634
889 1 9.99012 7.68984 20.7525
7159 2 10.8995 6.09595 19.4841
558 1 15.4464 7.68984 20.7525
888 1 12.7171 6.11297 20.773
6809 2 13.6289 7.67231 19.4634
575 1 18.1733 6.11297 20.773
6808 2 16.3558 6.09595 19.4841
7755 2 21.812 6.09595 19.4841
302 1 20.9026 7.68984 20.7525
6517 2 19.0852 7.67231 19.4634
1508 1 1.80707 9.2662 20.7311
7410 2 2.71935 10.8236 19.4192
1189 1 4.53663 10.842 20.7088
7456 2 5.44595 9.2482 19.4417
1188 1 7.26331 9.2662 20.7311
7125 2 8.17559 10.8236 19.4192
858 1 9.99287 10.842 20.7088
7124 2 10.9022 9.2482 19.4417
557 1 15.4491 10.842 20.7088
891 1 12.7195 9.2662 20.7311
6786 2 13.6318 10.8236 19.4192
556 1 18.1758 9.2662 20.7311
6811 2 16.3584 9.2482 19.4417
7718 2 21.8147 9.2482 19.4417
295 1 20.9053 10.842 20.7088
6516 2 19.0881 10.8236 19.4192
1467 1 1.8101 12.4171 20.6855
7409 2 2.72278 13.9727 19.3715
1143 1 4.53997 13.9916 20.6614
7408 2 5.44911 12.3984 19.3958
1191 1 7.26634 12.4171 20.6855
7086 2 8.17902 13.9727 19.3715
857 1 9.99621 13.9916 20.6614
7127 2 10.9054 12.3984 19.3958
534 1 15.4524 13.9916 20.6614
856 1 12.7226 12.4171 20.6855
6785 2 13.6353 13.9727 19.3715
559 1 18.1788 12.4171 20.6855
6784 2 16.3616 12.3984 19.3958
7719 2 21.8178 12.3984 19.3958
294 1 20.9087 13.9916 20.6614
6501 2 19.0915 13.9727 19.3715
1468 1 1.81377 15.5654 20.6364
7364 2 2.72681 17.1194 19.3204
1142 1 4.54398 17.1385 20.6106
7411 2 5.45284 15.5463 19.3464
1141 1 7.27001 15.5654 20.6364
7085 2 8.18305 17.1194 19.3204
818 1 10.0002 17.1385 20.6106
7084 2 10.9091 15.5463 19.3464
533 1 15.4565 17.1385 20.6106
859 1 12.7262 15.5654 20.6364
6754 2 13.6393 17.1194 19.3204
532 1 18.1825 15.5654 20.6364
6787 2 16.3653 15.5463 19.3464
7682 2 21.8216 15.5463 19.3464
279 1 20.9127 17.1385 20.6106
6500 2 19.0955 17.1194 19.3204
1428 1 1.81813 18.7108 20.5839
7363 2 2.7314 20.2636 19.2663
1096 1 4.54869 20.2824 20.5564
7362 2 5.45716 18.6918 19.2937
1144 1 7.27437 18.7108 20.5839
7039 2 8.18764 20.2636 19.2663
817 1 10.0049 20.2824 20.5564
7087 2 10.9134 18.6918 19.2937
502 1 15.4612 20.2824 20.5564
816 1 12.7306 18.7108 20.5839
6753 2 13.6439 20.2636 19.2663
535 1 18.1868 18.7108 20.5839
6752 2 16.3696 18.6918 19.2937
7683 2 21.8259 18.6918 19.2937
278 1 20.9174 20.2824 20.5564
6477 2 19.1001 20.2636 19.2663
1429 1 1.82316 21.8533 20.5281
7324 2 2.73647 23.4056 19.2098
1095 1 4.55401 23.4235 20.4992
7365 2 5.46201 21.8349 19.2383
1094 1 7.2794 21.8533 20.5281
7038 2 8.19271 23.4056 19.2098
772 1 10.0103 23.4235 20.4992
7037 2 10.9182 21.8349 19.2383
501 1 15.4665 23.4235 20.4992
819 1 12.7356 21.8533 20.5281
6715 2 13.6489 23.4056 19.2098
500 1 18.1919 21.8533 20.5281
6755 2 16.3745 21.8349 19.2383
7650 2 21.8307 21.8349 19.2383
256 1 20.9227 23.4235 20.4992
6476 2 19.1052 23.4056 19.2098
1396 1 1.82873 24.993 20.4698
7323 2 2.74183 26.5458 19.1518
7322 2 5.46725 24.9759 19.1809
1056 1 4.55976 26.5622 20.44
1097 1 7.28497 24.993 20.4698
6992 2 8.19806 26.5458 19.1518
7040 2 10.9235 24.9759 19.1809
771 1 10.016 26.5622 20.44
770 1 12.7412 24.993 20.4698
466 1 15.4722 26.5622 20.44
6714 2 13.6543 26.5458 19.1518
503 1 18.1974 24.993 20.4698
6713 2 16.3797 24.9759 19.1809
7651 2 21.836 24.9759 19.1809
255 1 20.9285 26.5622 20.44
6449 2 19.1105 26.5458 19.1518
1397 1 1.83458 28.131 20.41
7325 2 5.47266 28.1156 19.1228
1054 1 7.29082 28.131 20.41
6990 2 10.9289 28.1156 19.1228
773 1 12.7471 28.131 20.41
464 1 18.2033 28.131 20.41
6716 2 16.3851 28.1156 19.1228
7626 2 21.8414 28.1156 19.1228
1372 1 1.84048 31.2683 20.3511
7292 2 2.74726 29.6853 19.0942
7627 2 0.021837 31.255 19.0663
1055 1 4.56565 29.6996 20.3803
7290 2 5.47808 31.255 19.0663
1057 1 7.29672 31.2683 20.3511
6991 2 8.20349 29.6853 19.0942
727 1 10.0219 29.6996 20.3803
6993 2 10.9343 31.255 19.0663
465 1 15.4781 29.6996 20.3803
725 1 12.753 31.2683 20.3511
6675 2 13.6597 29.6853 19.0942
467 1 18.2092 31.2683 20.3511
6673 2 16.3906 31.255 19.0663
232 1 20.9344 29.6996 20.3803
6448 2 19.116 29.6853 19.0942
1373 1 1.84639 34.4064 20.296
7291 2 2.75265 32.8249 19.0393
7610 2 0.027222 34.3951 19.0138
1024 1 4.57155 32.8372 20.3229
7293 2 5.48346 34.3951 19.0138
1022 1 7.30263 34.4064 20.296
6952 2 8.20889 32.8249 19.0393
726 1 10.0278 32.8372 20.3229
6950 2 10.9397 34.3951 19.0138
430 1 15.484 32.8372 20.3229
728 1 12.7589 34.4064 20.296
6674 2 13.6651 32.8249 19.0393
428 1 18.2151 34.4064 20.296
6676 2 16.3959 34.3951 19.0138
231 1 20.9403 32.8372 20.3229
6421 2 19.1214 32.8249 19.0393
1356 1 1.85245 37.5457 20.2482
7268 2 2.75805 35.9655 18.9901
7611 2 0.0326394 37.5364 18.9684
1023 1 4.57751 35.9759 20.271
7266 2 5.48888 37.5364 18.9684
1025 1 7.30869 37.5457 20.2482
6951 2 8.21428 35.9655 18.9901
689 1 10.0337 35.9759 20.271
6953 2 10.9451 37.5364 18.9684
429 1 15.49 35.9759 20.271
687 1 12.7649 37.5457 20.2482
6636 2 13.6705 35.9655 18.9901
431 1 18.2212 37.5457 20.2482
6634 2 16.4014 37.5364 18.9684
208 1 20.9462 35.9759 20.271
6420 2 19.1268 35.9655 18.9901
1357 1 1.85861 40.6862 20.2104
7267 2 2.76345 39.1075 18.9492
7602 2 0.0379238 40.6788 18.9325
1000 1 4.58367 39.1159 20.2279
7269 2 5.49416 40.6788 18.9325
7246 2 3.67961 40.6973 21.4959
998 1 7.31485 40.6862 20.2104
6920 2 8.21969 39.1075 18.9492
6917 2 9.13585 40.6973 21.4959
688 1 10.0399 39.1159 20.2279
6918 2 10.9504 40.6788 18.9325
395 1 15.4961 39.1159 20.2279
690 1 12.7711 40.6862 20.2104
6635 2 13.6759 39.1075 18.9492
6598 2 14.5921 40.6973 21.4959
393 1 18.2273 40.6862 20.2104
6637 2 16.4066 40.6788 18.9325
207 1 20.9524 39.1159 20.2279
6393 2 19.1322 39.1075 18.9492
6391 2 20.0483 40.6973 21.4959
1348 1 1.86405 43.8272 20.1846
7252 2 2.76844 42.2503 18.9187
7603 2 0.0423762 43.8219 18.9078
7247 2 0.954936 42.2661 21.4812
999 1 4.58963 42.2567 20.1959
7250 2 5.49861 43.8219 18.9078
7249 2 3.6861 43.8349 21.4698
1001 1 7.32029 43.8272 20.1846
6919 2 8.22468 42.2503 18.9187
6890 2 9.14233 43.8349 21.4698
6892 2 6.41117 42.2661 21.4812
659 1 10.0459 42.2567 20.1959
6921 2 10.9549 43.8219 18.9078
6599 2 11.8674 42.2661 21.4812
394 1 15.5021 42.2567 20.1959
657 1 12.7765 43.8272 20.1846
6604 2 13.6809 42.2503 18.9187
6601 2 14.5986 43.8349 21.4698
396 1 18.2328 43.8272 20.1846
6602 2 16.4111 43.8219 18.9078
6363 2 17.3237 42.2661 21.4812
184 1 20.9583 42.2567 20.1959
6392 2 19.1372 42.2503 18.9187
6361 2 20.0548 43.8349 21.4698
1349 1 1.86726 46.9681 20.1716
7251 2 2.77207 45.3935 18.9
7601 2 0.0449021 46.9652 18.8953
7240 2 0.960354 45.4035 21.4616
984 1 4.59415 45.3977 20.1765
7253 2 5.50114 46.9652 18.8953
7238 2 3.68995 46.9719 21.4568
982 1 7.3235 46.9681 20.1716
6896 2 8.2283 45.3935 18.9
6891 2 6.41659 45.4035 21.4616
6893 2 9.14619 46.9719 21.4568
658 1 10.0504 45.3977 20.1765
6894 2 10.9574 46.9652 18.8953
6576 2 11.8728 45.4035 21.4616
367 1 15.5066 45.3977 20.1765
660 1 12.7797 46.9681 20.1716
6603 2 13.6845 45.3935 18.9
6574 2 14.6024 46.9719 21.4568
365 1 18.236 46.9681 20.1716
6605 2 16.4136 46.9652 18.8953
6362 2 17.3291 45.4035 21.4616
183 1 20.9629 45.3977 20.1765
6366 2 19.1408 45.3935 18.9
6364 2 20.0587 46.9719 21.4568
7241 2 2.77327 48.5368 18.8938
3594 1 1.86699 50.109 20.1718
9966 2 0.0446655 50.1085 18.8954
7239 2 0.962249 48.5403 21.4552
983 1 4.59571 48.5385 20.17
9668 2 5.5009 50.1085 18.8954
9667 2 3.68967 50.1087 21.4569
6895 2 8.22951 48.5368 18.8938
3312 1 7.32323 50.109 20.1718
9329 2 9.1459 50.1087 21.4569
6873 2 6.41849 48.5403 21.4552
634 1 10.052 48.5385 20.17
9360 2 10.9571 50.1085 18.8954
6575 2 11.8747 48.5403 21.4552
366 1 15.5082 48.5385 20.17
6577 2 13.6857 48.5368 18.8938
2961 1 12.7795 50.109 20.1718
9000 2 14.6021 50.1087 21.4569
2632 1 18.2357 50.109 20.1718
9001 2 16.4134 50.1085 18.8954
6340 2 17.331 48.5403 21.4552
160 1 20.9644 48.5385 20.17
6365 2 19.142 48.5368 18.8938
8697 2 20.0584 50.1087 21.4569
1226 1 2.70963 1.41035 23.402
7451 2 0.8918 1.3948 22.114
886 1 8.16587 1.41035 23.402
7154 2 6.34804 1.3948 22.114
6806 2 11.8043 1.3948 22.114
570 1 13.6221 1.41035 23.402
6522 2 17.2605 1.3948 22.114
301 1 19.0784 1.41035 23.402
1186 1 2.71099 4.56909 23.3666
7450 2 0.893391 4.55216 22.0781
1227 1 5.43839 2.98993 23.3847
7449 2 3.62067 2.97368 22.0965
885 1 8.16723 4.56909 23.3666
7122 2 6.34963 4.55216 22.0781
7155 2 9.07691 2.97368 22.0965
884 1 10.8946 2.98993 23.3847
6805 2 11.8059 4.55216 22.0781
554 1 13.6235 4.56909 23.3666
6804 2 14.5331 2.97368 22.0965
571 1 16.3509 2.98993 23.3847
6514 2 17.2621 4.55216 22.0781
1505 1 21.8071 2.98993 23.3847
300 1 19.0797 4.56909 23.3666
6523 2 19.9894 2.97368 22.0965
1185 1 2.71273 7.72597 23.3277
7406 2 0.895372 7.70775 22.0387
1184 1 5.43993 6.14779 23.3476
7452 2 3.62245 6.1302 22.0588
854 1 8.16897 7.72597 23.3277
7120 2 9.07868 6.1302 22.0588
7121 2 6.35161 7.70775 22.0387
887 1 10.8962 6.14779 23.3476
6782 2 11.8078 7.70775 22.0387
553 1 13.6252 7.72597 23.3277
6807 2 14.5349 6.1302 22.0588
552 1 16.3524 6.14779 23.3476
6513 2 17.2641 7.70775 22.0387
1506 1 21.8086 6.14779 23.3476
293 1 19.0814 7.72597 23.3277
6512 2 19.9912 6.1302 22.0588
1139 1 2.71496 10.8805 23.2852
7405 2 0.897848 10.8612 21.9956
1187 1 5.44189 9.30358 23.3069
7404 2 3.62466 9.28475 22.0176
853 1 8.1712 10.8805 23.2852
7082 2 6.35409 10.8612 21.9956
7123 2 9.0809 9.28475 22.0176
852 1 10.8981 9.30358 23.3069
6781 2 11.8103 10.8612 21.9956
530 1 13.6274 10.8805 23.2852
6780 2 14.5371 9.28475 22.0176
555 1 16.3544 9.30358 23.3069
6498 2 17.2666 10.8612 21.9956
1465 1 21.8106 9.30358 23.3069
292 1 19.0837 10.8805 23.2852
6515 2 19.9934 9.28475 22.0176
1138 1 2.71784 14.0323 23.2392
7360 2 0.900935 14.012 21.949
1137 1 5.44443 12.4568 23.2627
7407 2 3.62743 12.4369 21.9728
814 1 8.17408 14.0323 23.2392
7080 2 9.08367 12.4369 21.9728
7081 2 6.35717 14.012 21.949
855 1 10.9007 12.4568 23.2627
6750 2 11.8134 14.012 21.949
529 1 13.6303 14.0323 23.2392
6783 2 14.5399 12.4369 21.9728
528 1 16.3569 12.4568 23.2627
6497 2 17.2696 14.012 21.949
1466 1 21.8131 12.4568 23.2627
277 1 19.0866 14.0323 23.2392
6496 2 19.9961 12.4369 21.9728
1092 1 2.72151 17.1807 23.1896
7359 2 0.904745 17.1598 21.8989
1140 1 5.44769 15.607 23.2149
7358 2 3.63086 15.5863 21.9244
813 1 8.17775 17.1807 23.1896
7035 2 6.36098 17.1598 21.8989
7083 2 9.0871 15.5863 21.9244
812 1 10.9039 15.607 23.2149
6749 2 11.8172 17.1598 21.8989
498 1 13.634 17.1807 23.1896
6748 2 14.5433 15.5863 21.9244
531 1 16.3602 15.607 23.2149
6474 2 17.2735 17.1598 21.8989
1426 1 21.8164 15.607 23.2149
276 1 19.0902 17.1807 23.1896
6499 2 19.9996 15.5863 21.9244
1091 1 2.72611 20.3253 23.1363
7320 2 0.909357 20.3043 21.8453
1090 1 5.45181 18.7535 23.1634
7361 2 3.63507 18.7325 21.8725
768 1 8.18235 20.3253 23.1363
7033 2 9.09131 18.7325 21.8725
7034 2 6.3656 20.3043 21.8453
815 1 10.908 18.7535 23.1634
6711 2 11.8218 20.3043 21.8453
497 1 13.6386 20.3253 23.1363
6751 2 14.5475 18.7325 21.8725
496 1 16.3643 18.7535 23.1634
6473 2 17.2781 20.3043 21.8453
1427 1 21.8205 18.7535 23.1634
254 1 19.0948 20.3253 23.1363
6472 2 20.0038 18.7325 21.8725
1052 1 2.73169 23.4659 23.0792
7319 2 0.914762 23.4455 21.7886
1093 1 5.4569 21.8961 23.1082
7318 2 3.64009 21.8753 21.8173
7036 2 9.09632 21.8753 21.8173
767 1 8.18792 23.4659 23.0792
6988 2 6.371 23.4455 21.7886
766 1 10.9131 21.8961 23.1082
6710 2 11.8272 23.4455 21.7886
6709 2 14.5526 21.8753 21.8173
462 1 13.6442 23.4659 23.0792
499 1 16.3694 21.8961 23.1082
6446 2 17.2835 23.4455 21.7886
1394 1 21.8256 21.8961 23.1082
6475 2 20.0088 21.8753 21.8173
253 1 19.1004 23.4659 23.0792
7284 2 1.82321 25.0599 24.3391
1050 1 5.46293 25.0347 23.0494
7321 2 3.64584 25.0149 21.7592
6986 2 9.10208 25.0149 21.7592
6985 2 7.27945 25.0599 24.3391
769 1 10.9192 25.0347 23.0494
6712 2 14.5583 25.0149 21.7592
6665 2 12.7357 25.0599 24.3391
460 1 16.3754 25.0347 23.0494
6443 2 18.1919 25.0599 24.3391
1395 1 21.8316 25.0347 23.0494
6444 2 20.0146 25.0149 21.7592
1051 1 2.73811 26.6026 23.0189
7288 2 0.920812 26.5837 21.7293
7285 2 1.8303 28.1946 24.2776
1053 1 5.46967 28.1698 22.9879
7286 2 3.65212 28.1519 21.6992
6944 2 4.55476 26.6277 24.3087
723 1 8.19435 26.6026 23.0189
6987 2 6.37705 26.5837 21.7293
6989 2 9.10836 28.1519 21.6992
6942 2 7.28653 28.1946 24.2776
721 1 10.9259 28.1698 22.9879
6671 2 11.8333 26.5837 21.7293
6666 2 10.011 26.6277 24.3087
461 1 13.6506 26.6026 23.0189
6669 2 14.5646 28.1519 21.6992
6414 2 15.4672 26.6277 24.3087
6668 2 12.7428 28.1946 24.2776
463 1 16.3821 28.1698 22.9879
6445 2 17.2895 26.5837 21.7293
6412 2 18.199 28.1946 24.2776
1370 1 21.8384 28.1698 22.9879
230 1 19.1068 26.6026 23.0189
6447 2 20.0208 28.1519 21.6992
6263 2 20.9235 26.6277 24.3087
1020 1 2.74507 29.7365 22.9566
7287 2 0.927242 29.7198 21.6692
7260 2 1.83808 31.3262 24.2146
1018 1 5.47677 31.3029 22.9255
7289 2 3.65864 31.2875 21.6396
6943 2 4.56225 29.7607 24.2462
722 1 8.20131 29.7365 22.9566
6946 2 9.11488 31.2875 21.6396
6948 2 6.38348 29.7198 21.6692
6945 2 7.29432 31.3262 24.2146
724 1 10.933 31.3029 22.9255
6670 2 11.8397 29.7198 21.6692
6628 2 10.0185 29.7607 24.2462
426 1 13.6575 29.7365 22.9566
6672 2 14.5711 31.2875 21.6396
6413 2 15.4747 29.7607 24.2462
6626 2 12.7506 31.3262 24.2146
424 1 16.3892 31.3029 22.9255
6418 2 17.296 29.7198 21.6692
6415 2 18.2068 31.3262 24.2146
1371 1 21.8455 31.3029 22.9255
229 1 19.1138 29.7365 22.9566
6416 2 20.0274 31.2875 21.6396
6248 2 20.931 29.7607 24.2462
1019 1 2.75228 32.8694 22.8951
7264 2 0.933846 32.8552 21.6108
1354 1 0.0278568 34.4361 22.8659
7261 2 1.84634 34.4567 24.1538
1021 1 5.4841 34.4361 22.8659
7262 2 3.66534 34.4231 21.5834
6912 2 4.57027 32.8915 24.1836
685 1 8.20851 32.8694 22.8951
6947 2 6.39008 32.8552 21.6108
6949 2 9.12158 34.4231 21.5834
6910 2 7.30258 34.4567 24.1538
683 1 10.9403 34.4361 22.8659
6632 2 11.8463 32.8552 21.6108
6627 2 10.0265 32.8915 24.1836
425 1 13.6648 32.8694 22.8951
6630 2 14.5778 34.4231 21.5834
6386 2 15.4827 32.8915 24.1836
6629 2 12.7588 34.4567 24.1538
427 1 16.3966 34.4361 22.8659
6417 2 17.3026 32.8552 21.6108
6384 2 18.2151 34.4567 24.1538
206 1 19.121 32.8694 22.8951
6419 2 20.0341 34.4231 21.5834
6247 2 20.939 32.8915 24.1836
996 1 2.7598 36.0031 22.8386
7263 2 0.940682 35.9913 21.5577
7244 2 1.85534 37.5878 24.1003
1355 1 0.0356807 37.5706 22.8137
994 1 5.49192 37.5706 22.8137
7265 2 3.67236 37.5597 21.5344
6911 2 4.57884 36.0221 24.1258
684 1 8.21604 36.0031 22.8386
6914 2 9.1286 37.5597 21.5344
6916 2 6.39692 35.9913 21.5577
6913 2 7.31158 37.5878 24.1003
686 1 10.9482 37.5706 22.8137
6631 2 11.8532 35.9913 21.5577
6596 2 10.0351 36.0221 24.1258
391 1 13.6723 36.0031 22.8386
6633 2 14.5848 37.5597 21.5344
6385 2 15.4913 36.0221 24.1258
6594 2 12.7678 37.5878 24.1003
389 1 16.4044 37.5706 22.8137
6390 2 17.3094 35.9913 21.5577
6387 2 18.2241 37.5878 24.1003
205 1 19.1285 36.0031 22.8386
6388 2 20.0411 37.5597 21.5344
6232 2 20.9476 36.0221 24.1258
995 1 2.76798 39.1382 22.7918
7248 2 0.947873 39.1284 21.5137
1346 1 0.0441472 40.706 22.773
7245 2 1.86523 40.7196 24.0588
997 1 5.50039 40.706 22.773
6888 2 4.58833 39.1536 24.0778
655 1 8.22422 39.1382 22.7918
6915 2 6.40411 39.1284 21.5137
6886 2 7.32147 40.7196 24.0588
653 1 10.9566 40.706 22.773
6600 2 11.8604 39.1284 21.5137
6595 2 10.0446 39.1536 24.0778
390 1 13.6805 39.1382 22.7918
6359 2 15.5008 39.1536 24.0778
6597 2 12.7777 40.7196 24.0588
392 1 16.4129 40.706 22.773
6389 2 17.3166 39.1284 21.5137
6357 2 18.2339 40.7196 24.0588
182 1 19.1367 39.1382 22.7918
6231 2 20.957 39.1536 24.0778
980 1 2.77647 42.2738 22.7577
7236 2 1.87469 43.8505 24.0317
1347 1 0.0521491 43.8412 22.7459
978 1 5.50839 43.8412 22.7459
6887 2 4.5983 42.2853 24.0434
654 1 8.23271 42.2738 22.7577
6889 2 7.33093 43.8505 24.0317
656 1 10.9646 43.8412 22.7459
6572 2 10.0545 42.2853 24.0434
363 1 13.6889 42.2738 22.7577
6570 2 12.7872 43.8505 24.0317
6358 2 15.5108 42.2853 24.0434
361 1 16.4209 43.8412 22.7459
6360 2 18.2434 43.8505 24.0317
181 1 19.1452 42.2738 22.7577
6216 2 20.967 42.2853 24.0434
979 1 2.78332 45.4084 22.7376
1345 1 0.0571258 46.9752 22.7327
7237 2 1.88061 46.9796 24.0189
981 1 5.51336 46.9752 22.7327
6872 2 4.60643 45.4153 24.0236
633 1 8.23956 45.4084 22.7376
6870 2 7.33685 46.9796 24.0189
631 1 10.9696 46.9752 22.7327
6571 2 10.0627 45.4153 24.0236
362 1 13.6958 45.4084 22.7376
6339 2 15.5189 45.4153 24.0236
6573 2 12.7931 46.9796 24.0189
364 1 16.4258 46.9752 22.7327
6337 2 18.2493 46.9796 24.0189
159 1 19.152 45.4084 22.7376
6215 2 20.9751 45.4153 24.0236
969 1 2.7858 48.5419 22.7311
3593 1 0.0567846 50.1086 22.7329
9623 2 1.88024 50.1075 24.0191
6871 2 4.6094 48.5435 24.0174
3273 1 5.51302 50.1086 22.7329
632 1 8.24204 48.5419 22.7311
9328 2 7.33648 50.1075 24.0191
6553 2 10.0656 48.5435 24.0174
2960 1 10.9693 50.1086 22.7329
340 1 13.6983 48.5419 22.7311
6338 2 15.5219 48.5435 24.0174
8977 2 12.7927 50.1075 24.0191
2617 1 16.4255 50.1086 22.7329
8696 2 18.249 50.1075 24.0191
158 1 19.1545 48.5419 22.7311
6200 2 20.9781 48.5435 24.0174
1182 1 0.889755 1.44167 25.9742
7114 2 2.70842 1.45743 27.2582
7118 2 4.52805 1.4258 24.6866
882 1 6.34599 1.44167 25.9742
6774 2 8.16466 1.45743 27.2582
550 1 11.8022 1.44167 25.9742
6802 2 9.98429 1.4258 24.6866
6510 2 15.4405 1.4258 24.6866
6506 2 13.6209 1.45743 27.2582
298 1 17.2585 1.44167 25.9742
6304 2 20.8968 1.4258 24.6866
6301 2 19.0771 1.45743 27.2582
1181 1 0.890572 4.60352 25.9398
7448 2 1.80044 3.00615 24.6696
7074 2 2.70897 4.62097 27.2244
1180 1 3.61825 3.0228 25.9574
7117 2 4.52914 4.58609 24.6517
7115 2 5.43679 3.0394 27.2417
850 1 6.34681 4.60352 25.9398
883 1 9.07449 3.0228 25.9574
7116 2 7.25668 3.00615 24.6696
6773 2 8.16521 4.62097 27.2244
549 1 11.803 4.60352 25.9398
6778 2 9.98538 4.58609 24.6517
6772 2 10.893 3.0394 27.2417
548 1 14.5307 3.0228 25.9574
6509 2 15.4416 4.58609 24.6517
6803 2 12.7129 3.00615 24.6696
6490 2 13.6214 4.62097 27.2244
290 1 17.2593 4.60352 25.9398
6508 2 18.1692 3.00615 24.6696
6507 2 16.3493 3.0394 27.2417
299 1 19.987 3.0228 25.9574
6303 2 20.8979 4.58609 24.6517
7400 2 21.8055 3.0394 27.2417
6300 2 19.0777 4.62097 27.2244
1135 1 0.891699 7.76349 25.9022
7402 2 1.80169 6.16557 24.633
7073 2 2.70978 7.78271 27.1873
1183 1 3.61921 6.18377 25.9214
7078 2 4.53058 7.74453 24.6134
7072 2 5.43745 6.20209 27.2062
848 1 9.07545 6.18377 25.9214
849 1 6.34794 7.76349 25.9022
7119 2 7.25793 6.16557 24.633
6742 2 8.16602 7.78271 27.1873
526 1 11.8042 7.76349 25.9022
6777 2 9.98681 7.74453 24.6134
6775 2 10.8937 6.20209 27.2062
551 1 14.5317 6.18377 25.9214
6494 2 15.4431 7.74453 24.6134
6776 2 12.7142 6.16557 24.633
6489 2 13.6223 7.78271 27.1873
289 1 17.2604 7.76349 25.9022
6511 2 18.1704 6.16557 24.633
6488 2 16.3499 6.20209 27.2062
288 1 19.9879 6.18377 25.9214
6302 2 20.8993 7.74453 24.6134
7401 2 21.8062 6.20209 27.2062
6293 2 19.0785 7.78271 27.1873
1134 1 0.893272 10.9211 25.8611
7403 2 1.80334 9.32292 24.593
7027 2 2.71098 10.9421 27.1469
1133 1 3.62054 9.34263 25.8821
7077 2 4.53248 10.9007 24.5717
7075 2 5.43844 9.36275 27.1675
810 1 6.34951 10.9211 25.8611
851 1 9.07678 9.34263 25.8821
7076 2 7.25958 9.32292 24.593
6741 2 8.16722 10.9421 27.1469
525 1 11.8057 10.9211 25.8611
6746 2 9.98872 10.9007 24.5717
6740 2 10.8947 9.36275 27.1675
524 1 14.533 9.34263 25.8821
6493 2 15.445 10.9007 24.5717
6779 2 12.7158 9.32292 24.593
6466 2 13.6235 10.9421 27.1469
274 1 17.262 10.9211 25.8611
6492 2 18.1721 9.32292 24.593
6491 2 16.3509 9.36275 27.1675
291 1 19.9893 9.34263 25.8821
6295 2 20.9012 10.9007 24.5717
7354 2 21.8072 9.36275 27.1675
6292 2 19.0797 10.9421 27.1469
1088 1 0.895471 14.0758 25.8167
7356 2 1.80554 12.4777 24.5495
7026 2 2.71276 14.0987 27.1032
1136 1 3.6224 12.4988 25.8393
7031 2 4.53501 14.0539 24.5264
7025 2 5.4399 12.5208 27.1255
808 1 9.07864 12.4988 25.8393
809 1 6.35171 14.0758 25.8167
7079 2 7.26177 12.4777 24.5495
6703 2 8.169 14.0987 27.1032
494 1 11.8079 14.0758 25.8167
6745 2 9.99125 14.0539 24.5264
6743 2 10.8961 12.5208 27.1255
527 1 14.5349 12.4988 25.8393
6470 2 15.4475 14.0539 24.5264
6744 2 12.718 12.4777 24.5495
6465 2 13.6252 14.0987 27.1032
273 1 17.2642 14.0758 25.8167
6495 2 18.1743 12.4777 24.5495
6464 2 16.3524 12.5208 27.1255
272 1 19.9911 12.4988 25.8393
6294 2 20.9037 14.0539 24.5264
7355 2 21.8086 12.5208 27.1255
6278 2 19.0815 14.0987 27.1032
1087 1 0.898517 17.2267 25.7686
7357 2 1.80844 15.6293 24.5025
6980 2 2.71534 17.2516 27.056
1086 1 3.62499 15.6518 25.7931
7030 2 4.53835 17.2038 24.4776
7028 2 5.44205 15.6757 27.0801
764 1 6.35476 17.2267 25.7686
811 1 9.08123 15.6518 25.7931
7029 2 7.26468 15.6293 24.5025
6702 2 8.17158 17.2516 27.056
493 1 11.811 17.2267 25.7686
6707 2 9.99458 17.2038 24.4776
6701 2 10.8983 15.6757 27.0801
492 1 14.5375 15.6518 25.7931
6469 2 15.4508 17.2038 24.4776
6747 2 12.7209 15.6293 24.5025
6438 2 13.6278 17.2516 27.056
251 1 17.2672 17.2267 25.7686
6468 2 18.1772 15.6293 24.5025
6467 2 16.3545 15.6757 27.0801
275 1 19.9937 15.6518 25.7931
6280 2 20.9071 17.2038 24.4776
6277 2 19.0841 17.2516 27.056
7314 2 21.8108 15.6757 27.0801
1048 1 0.902663 20.3733 25.7167
7316 2 1.81226 18.7772 24.4518
6979 2 2.71903 20.4 27.0051
1089 1 3.62856 18.8006 25.7432
6984 2 4.54268 20.3496 24.4251
6978 2 5.44515 18.8264 27.031
762 1 9.08479 18.8006 25.7432
763 1 6.3589 20.3733 25.7167
7032 2 7.2685 18.7772 24.4518
6663 2 8.17526 20.4 27.0051
458 1 11.8151 20.3733 25.7167
6706 2 9.99892 20.3496 24.4251
6704 2 10.9014 18.8264 27.031
495 1 14.541 18.8006 25.7432
6442 2 15.4552 20.3496 24.4251
6705 2 12.7247 18.7772 24.4518
6437 2 13.6315 20.4 27.0051
250 1 17.2714 20.3733 25.7167
6471 2 18.181 18.7772 24.4518
6436 2 16.3576 18.8264 27.031
249 1 19.9973 18.8006 25.7432
6279 2 20.9114 20.3496 24.4251
7315 2 21.8139 18.8264 27.031
6262 2 19.0877 20.4 27.0051
7317 2 1.81716 21.9208 24.3974
1047 1 0.908132 23.5146 25.6606
6940 2 2.72413 23.543 26.9498
1046 1 3.63334 21.9446 25.6892
6981 2 5.4495 21.9722 26.978
6983 2 4.54816 23.4909 24.3687
765 1 9.08958 21.9446 25.6892
6982 2 7.27339 21.9208 24.3974
719 1 6.36437 23.5146 25.6606
6662 2 8.18036 23.543 26.9498
6661 2 10.9057 21.9722 26.978
457 1 11.8206 23.5146 25.6606
6667 2 10.0044 23.4909 24.3687
456 1 14.5458 21.9446 25.6892
6708 2 12.7296 21.9208 24.3974
6441 2 15.4606 23.4909 24.3687
6410 2 13.6366 23.543 26.9498
6440 2 18.1859 21.9208 24.3974
6439 2 16.362 21.9722 26.978
227 1 17.2768 23.5146 25.6606
252 1 20.0021 21.9446 25.6892
7282 2 21.8182 21.9722 26.978
6264 2 20.9169 23.4909 24.3687
6261 2 19.0928 23.543 26.9498
1049 1 3.63951 25.0832 25.6309
6938 2 5.45541 25.1122 26.9205
717 1 9.09575 25.0832 25.6309
6664 2 10.9116 25.1122 26.9205
459 1 14.552 25.0832 25.6309
6408 2 16.3679 25.1122 26.9205
225 1 20.0082 25.0832 25.6309
7283 2 21.8241 25.1122 26.9205
1016 1 0.914996 26.6503 25.6001
6939 2 2.73089 26.6798 26.89
1014 1 3.64701 28.2162 25.5683
6941 2 5.46302 28.2459 26.8583
718 1 6.37123 26.6503 25.6001
720 1 9.10325 28.2162 25.5683
6624 2 8.18712 26.6798 26.89
422 1 11.8275 26.6503 25.6001
6622 2 10.9193 28.2459 26.8583
420 1 14.5595 28.2162 25.5683
6409 2 13.6434 26.6798 26.89
226 1 17.2837 26.6503 25.6001
6411 2 16.3755 28.2459 26.8583
228 1 20.0157 28.2162 25.5683
7258 2 21.8317 28.2459 26.8583
6246 2 19.0996 26.6798 26.89
1015 1 0.923023 29.7809 25.5356
6908 2 2.73928 29.8104 26.8255
1017 1 3.65544 31.3449 25.5025
6906 2 5.47209 31.3738 26.7921
679 1 9.11167 31.3449 25.5025
681 1 6.37926 29.7809 25.5356
6623 2 8.19552 29.8104 26.8255
421 1 11.8355 29.7809 25.5356
6625 2 10.9283 31.3738 26.7921
423 1 14.5679 31.3449 25.5025
6382 2 13.6518 29.8104 26.8255
203 1 17.2917 29.7809 25.5356
6380 2 16.3846 31.3738 26.7921
201 1 20.0242 31.3449 25.5025
7259 2 21.8408 31.3738 26.7921
6245 2 19.108 29.8104 26.8255
992 1 0.931737 32.9085 25.4694
6907 2 2.74889 32.9362 26.7585
990 1 3.66443 34.4722 25.4372
6909 2 5.48216 34.4982 26.7256
680 1 6.38797 32.9085 25.4694
682 1 9.12067 34.4722 25.4372
6592 2 8.20513 32.9362 26.7585
387 1 11.8442 32.9085 25.4694
6590 2 10.9384 34.4982 26.7256
385 1 14.5769 34.4722 25.4372
6381 2 13.6614 32.9362 26.7585
202 1 17.3005 32.9085 25.4694
6383 2 16.3946 34.4982 26.7256
204 1 20.0331 34.4722 25.4372
7242 2 21.8509 34.4982 26.7256
6230 2 19.1176 32.9362 26.7585
991 1 0.941136 36.0362 25.4069
6884 2 2.7595 36.0602 26.6944
7243 2 0.0372951 37.6224 26.666
993 1 3.67441 37.6007 25.3793
6882 2 5.49353 37.6224 26.666
649 1 9.13065 37.6007 25.3793
651 1 6.39737 36.0362 25.4069
6591 2 8.21574 36.0602 26.6944
386 1 11.8536 36.0362 25.4069
6593 2 10.9498 37.6224 26.666
388 1 14.5869 37.6007 25.3793
6355 2 13.672 36.0602 26.6944
179 1 17.3099 36.0362 25.4069
6353 2 16.406 37.6224 26.666
177 1 20.0431 37.6007 25.3793
6229 2 19.1282 36.0602 26.6944
976 1 0.951907 39.1655 25.3552
6883 2 2.77186 39.1848 26.6414
7234 2 0.0506826 40.7472 26.621
974 1 3.68598 40.7304 25.3352
6885 2 5.50692 40.7472 26.621
650 1 6.40814 39.1655 25.3552
652 1 9.14222 40.7304 25.3352
6568 2 8.22809 39.1848 26.6414
359 1 11.8644 39.1655 25.3552
6566 2 10.9632 40.7472 26.621
357 1 14.5985 40.7304 25.3352
6354 2 13.6843 39.1848 26.6414
178 1 17.3206 39.1655 25.3552
6356 2 16.4194 40.7472 26.621
180 1 20.0547 40.7304 25.3352
6214 2 19.1406 39.1848 26.6414
975 1 0.963962 42.2949 25.3194
6868 2 2.78588 42.309 26.6054
7235 2 0.0644739 43.87 26.5941
977 1 3.69776 43.8587 25.3077
6866 2 5.52071 43.87 26.5941
627 1 9.154 43.8587 25.3077
629 1 6.4202 42.2949 25.3194
6567 2 8.24212 42.309 26.6054
358 1 11.8764 42.2949 25.3194
6569 2 10.977 43.87 26.5941
360 1 14.6102 43.8587 25.3077
6335 2 13.6984 42.309 26.6054
156 1 17.3327 42.2949 25.3194
6333 2 16.4332 43.87 26.5941
154 1 20.0665 43.8587 25.3077
6213 2 19.1546 42.309 26.6054
968 1 0.97437 45.4216 25.2999
6867 2 2.79809 45.4298 26.587
7233 2 0.0735659 46.9885 26.5832
966 1 3.70551 46.9836 25.2955
6869 2 5.5298 46.9885 26.5832
628 1 6.43061 45.4216 25.2999
630 1 9.16175 46.9836 25.2955
6552 2 8.25433 45.4298 26.587
339 1 11.8868 45.4216 25.2999
6550 2 10.986 46.9885 26.5832
337 1 14.618 46.9836 25.2955
6334 2 13.7106 45.4298 26.587
155 1 17.3431 45.4216 25.2999
6336 2 16.4423 46.9885 26.5832
157 1 20.0742 46.9836 25.2955
6199 2 19.1668 45.4298 26.587
967 1 0.978305 48.545 25.2941
6857 2 2.8028 48.5465 26.5822
9622 2 0.073045 50.1045 26.5835
3272 1 3.70504 50.1065 25.2958
9289 2 5.52928 50.1045 26.5835
612 1 6.43454 48.545 25.2941
6551 2 8.25903 48.5465 26.5822
2929 1 9.16128 50.1065 25.2958
338 1 11.8908 48.545 25.2941
8976 2 10.9855 50.1045 26.5835
6320 2 13.7153 48.5465 26.5822
2616 1 14.6175 50.1065 25.2958
137 1 17.347 48.545 25.2941
8681 2 16.4418 50.1045 26.5835
6198 2 19.1715 48.5465 26.5822
2345 1 20.0738 50.1065 25.2958
7070 2 0.88931 1.48968 29.8288
846 1 4.52655 1.47362 28.5453
6770 2 6.34555 1.48968 29.8288
546 1 9.98279 1.47362 28.5453
6486 2 11.8018 1.48968 29.8288
286 1 15.439 1.47362 28.5453
6298 2 17.258 1.48968 29.8288
112 1 20.8953 1.47362 28.5453
1179 1 1.79854 3.05644 28.5291
7069 2 0.889298 4.65676 29.7959
845 1 4.5268 4.63888 28.512
7068 2 3.61741 3.0734 29.8127
844 1 7.25477 3.05644 28.5291
6738 2 6.34554 4.65676 29.7959
6771 2 9.07365 3.0734 29.8127
522 1 9.98303 4.63888 28.512
6485 2 11.8018 4.65676 29.7959
285 1 15.4393 4.63888 28.512
547 1 12.711 3.05644 28.5291
6484 2 14.5299 3.0734 29.8127
284 1 18.1673 3.05644 28.5291
6290 2 17.258 4.65676 29.7959
111 1 20.8955 4.63888 28.512
6299 2 19.9861 3.0734 29.8127
1131 1 1.79887 6.22088 28.4942
7023 2 0.889445 7.8222 29.7599
806 1 4.52725 7.80238 28.4755
7071 2 3.61746 6.23971 29.7783
847 1 7.25511 6.22088 28.4942
6736 2 9.0737 6.23971 29.7783
6737 2 6.34568 7.8222 29.7599
521 1 9.98349 7.80238 28.4755
6462 2 11.8019 7.8222 29.7599
270 1 15.4397 7.80238 28.4755
520 1 12.7113 6.22088 28.4942
6487 2 14.5299 6.23971 29.7783
287 1 18.1676 6.22088 28.4942
6289 2 17.2582 7.8222 29.7599
110 1 20.896 7.80238 28.4755
6288 2 19.9862 6.23971 29.7783
1132 1 1.79948 9.38333 28.4561
7022 2 0.88987 10.9856 29.7208
805 1 4.52805 10.9636 28.4359
7021 2 3.61773 9.40417 29.7407
804 1 7.25572 9.38333 28.4561
6699 2 6.34611 10.9856 29.7208
6739 2 9.07397 9.40417 29.7407
490 1 9.98429 10.9636 28.4359
6461 2 11.8023 10.9856 29.7208
269 1 15.4405 10.9636 28.4359
523 1 12.712 9.38333 28.4561
6460 2 14.5302 9.40417 29.7407
268 1 18.1682 9.38333 28.4561
6275 2 17.2586 10.9856 29.7208
103 1 20.8968 10.9636 28.4359
6291 2 19.9864 9.40417 29.7407
1084 1 1.80052 12.5433 28.4149
6976 2 0.890746 14.1462 29.6787
760 1 4.52938 14.122 28.3931
7024 2 3.61836 12.5663 29.7002
807 1 7.25675 12.5433 28.4149
6697 2 9.0746 12.5663 29.7002
6698 2 6.34698 14.1462 29.6787
489 1 9.98562 14.122 28.3931
6434 2 11.8032 14.1462 29.6787
247 1 15.4419 14.122 28.3931
488 1 12.713 12.5433 28.4149
6463 2 14.5308 12.5663 29.7002
271 1 18.1692 12.5433 28.4149
6274 2 17.2595 14.1462 29.6787
102 1 20.8981 14.122 28.3931
6273 2 19.9871 12.5663 29.7002
1085 1 1.80221 15.6999 28.3705
6975 2 0.892323 17.3033 29.6333
759 1 4.53151 17.2767 28.347
6974 2 3.61955 15.7253 29.6565
758 1 7.25845 15.6999 28.3705
6659 2 6.34856 17.3033 29.6333
6700 2 9.07579 15.7253 29.6565
454 1 9.98775 17.2767 28.347
6433 2 11.8048 17.3033 29.6333
246 1 15.444 17.2767 28.347
491 1 12.7147 15.6999 28.3705
6432 2 14.532 15.7253 29.6565
245 1 18.1709 15.6999 28.3705
6259 2 17.261 17.3033 29.6333
91 1 20.9002 17.2767 28.347
6276 2 19.9883 15.7253 29.6565
1044 1 1.80485 18.8524 28.3225
6936 2 0.89495 20.4559 29.5843
715 1 4.53478 20.4267 28.2971
6977 2 3.6216 18.8802 29.6093
761 1 7.26109 18.8524 28.3225
6657 2 9.07784 18.8802 29.6093
6658 2 6.35119 20.4559 29.5843
453 1 9.99101 20.4267 28.2971
6406 2 11.8074 20.4559 29.5843
223 1 15.4473 20.4267 28.2971
452 1 12.7173 18.8524 28.3225
6435 2 14.5341 18.8802 29.6093
248 1 18.1736 18.8524 28.3225
6258 2 17.2637 20.4559 29.5843
90 1 20.9035 20.4267 28.2971
6257 2 19.9903 18.8802 29.6093
1045 1 1.80885 21.9995 28.2705
6935 2 0.899091 23.6025 29.531
6934 2 3.62492 22.03 29.5583
714 1 4.5396 23.5707 28.2428
713 1 7.26509 21.9995 28.2705
6660 2 9.08116 22.03 29.5583
6620 2 6.35533 23.6025 29.531
418 1 9.99584 23.5707 28.2428
6405 2 11.8116 23.6025 29.531
455 1 12.7213 21.9995 28.2705
6404 2 14.5374 22.03 29.5583
222 1 15.4521 23.5707 28.2428
221 1 18.1776 21.9995 28.2705
6243 2 17.2678 23.6025 29.531
6260 2 19.9936 22.03 29.5583
79 1 20.9083 23.5707 28.2428
1012 1 1.81461 25.14 28.2138
6937 2 3.63002 25.1731 29.5025
716 1 7.27084 25.14 28.2138
6618 2 9.08626 25.1731 29.5025
416 1 12.7271 25.14 28.2138
6407 2 14.5425 25.1731 29.5025
224 1 18.1833 25.14 28.2138
6241 2 19.9987 25.1731 29.5025
1013 1 1.82242 28.2728 28.1514
6904 2 0.90529 26.7416 29.4724
677 1 4.54637 26.7074 28.1833
6902 2 3.63743 28.308 29.4408
675 1 7.27866 28.2728 28.1514
6619 2 6.36153 26.7416 29.4724
6621 2 9.09367 28.308 29.4408
417 1 10.0026 26.7074 28.1833
6378 2 11.8178 26.7416 29.4724
199 1 15.4588 26.7074 28.1833
419 1 12.7349 28.2728 28.1514
6376 2 14.5499 28.308 29.4408
197 1 18.1911 28.2728 28.1514
6242 2 17.274 26.7416 29.4724
78 1 20.9151 26.7074 28.1833
6244 2 20.0061 28.308 29.4408
988 1 1.83209 31.3977 28.0831
6903 2 0.913988 29.872 29.4075
676 1 4.55518 29.8361 28.118
6905 2 3.6474 31.4338 29.3726
678 1 7.28833 31.3977 28.0831
6586 2 9.10363 31.4338 29.3726
6588 2 6.37023 29.872 29.4075
383 1 10.0114 29.8361 28.118
6377 2 11.8265 29.872 29.4075
198 1 15.4677 29.8361 28.118
381 1 12.7446 31.3977 28.0831
6379 2 14.5599 31.4338 29.3726
200 1 18.2008 31.3977 28.0831
6227 2 17.2827 29.872 29.4075
67 1 20.9239 29.8361 28.118
6225 2 20.0161 31.4338 29.3726
989 1 1.84294 34.5176 28.0115
6880 2 0.925085 32.9935 29.3364
647 1 4.56552 32.9579 28.0474
6878 2 3.65944 34.5517 29.2997
645 1 7.29917 34.5176 28.0115
6587 2 6.38132 32.9935 29.3364
6589 2 9.11568 34.5517 29.2997
382 1 10.0218 32.9579 28.0474
6351 2 11.8376 32.9935 29.3364
175 1 15.478 32.9579 28.0474
384 1 12.7554 34.5176 28.0115
6349 2 14.5719 34.5517 29.2997
173 1 18.2117 34.5176 28.0115
6226 2 17.2938 32.9935 29.3364
66 1 20.9342 32.9579 28.0474
6228 2 20.0282 34.5517 29.2997
972 1 1.85551 37.6383 27.9456
6879 2 0.938 36.1091 29.264
646 1 4.57701 36.0776 27.977
6881 2 3.67358 37.6666 29.2315
648 1 7.31174 37.6383 27.9456
6562 2 9.12982 37.6666 29.2315
6564 2 6.39424 36.1091 29.264
355 1 10.0333 36.0776 27.977
6350 2 11.8505 36.1091 29.264
174 1 15.4895 36.0776 27.977
353 1 12.768 37.6383 27.9456
6352 2 14.5861 37.6666 29.2315
176 1 18.2242 37.6383 27.9456
6211 2 17.3067 36.1091 29.264
55 1 20.9457 36.0776 27.977
6209 2 20.0423 37.6666 29.2315
973 1 1.87127 40.761 27.8971
6864 2 0.953857 39.2242 29.2036
625 1 4.59107 39.1995 27.9185
6862 2 3.69156 40.7819 29.1818
623 1 7.32751 40.761 27.8971
6563 2 6.4101 39.2242 29.2036
6565 2 9.1478 40.7819 29.1818
354 1 10.0473 39.1995 27.9185
6331 2 11.8663 39.2242 29.2036
152 1 15.5035 39.1995 27.9185
356 1 12.7838 40.761 27.8971
6329 2 14.604 40.7819 29.1818
150 1 18.24 40.761 27.8971
6210 2 17.3226 39.2242 29.2036
54 1 20.9598 39.1995 27.9185
6212 2 20.0603 40.7819 29.1818
964 1 1.88872 43.881 27.8713
6863 2 0.973627 42.3387 29.1666
624 1 4.60833 42.3217 27.8813
6865 2 3.7118 43.894 29.1574
626 1 7.34496 43.881 27.8713
6546 2 9.16803 43.894 29.1574
6548 2 6.42987 42.3387 29.1666
335 1 10.0646 42.3217 27.8813
6330 2 11.8861 42.3387 29.1666
151 1 15.5208 42.3217 27.8813
333 1 12.8012 43.881 27.8713
6332 2 14.6243 43.894 29.1574
153 1 18.2574 43.881 27.8713
6196 2 17.3423 42.3387 29.1666
43 1 20.977 42.3217 27.8813
6194 2 20.0805 43.894 29.1575
6856 2 0.991967 45.4471 29.1534
965 1 1.90084 46.9938 27.8631
611 1 4.62406 45.4385 27.8654
6854 2 3.72567 46.9984 29.1526
6547 2 6.4482 45.4471 29.1534
609 1 7.35707 46.9938 27.8631
6549 2 9.18191 46.9984 29.1526
334 1 10.0803 45.4385 27.8654
6319 2 11.9044 45.4471 29.1534
136 1 15.5365 45.4385 27.8654
336 1 12.8133 46.9938 27.8631
6317 2 14.6382 46.9984 29.1526
6195 2 17.3607 45.4471 29.1534
134 1 18.2696 46.9938 27.8631
42 1 20.9928 45.4385 27.8654
6197 2 20.0944 46.9984 29.1526
6855 2 0.999192 48.549 29.1526
3226 1 1.90013 50.1018 27.8632
610 1 4.63053 48.5477 27.8627
9288 2 3.72491 50.0997 29.1526
6537 2 6.45543 48.549 29.1526
2928 1 7.35637 50.1018 27.8632
8945 2 9.18115 50.0997 29.1526
320 1 10.0868 48.5477 27.8627
6318 2 11.9117 48.549 29.1526
135 1 15.543 48.5477 27.8627
2593 1 12.8126 50.1018 27.8632
8680 2 14.6374 50.0997 29.1526
6185 2 17.3679 48.549 29.1526
2344 1 18.2688 50.1018 27.8632
31 1 20.9992 48.5477 27.8627
8473 2 20.0936 50.0997 29.1526
842 1 2.7077 1.50615 31.1153
6734 2 4.52708 1.5225 32.398
518 1 8.16393 1.50615 31.1153
6482 2 9.98332 1.5225 32.398
282 1 13.6202 1.50615 31.1153
6286 2 15.4396 1.5225 32.398
109 1 19.0764 1.50615 31.1153
6176 2 20.8958 1.5225 32.398
802 1 2.70737 4.67509 31.0828
7067 2 1.79869 3.10808 32.3823
843 1 5.43565 3.09079 31.0994
6733 2 4.52654 4.69336 32.3659
517 1 8.16361 4.67509 31.0828
6732 2 7.25493 3.10808 32.3823
516 1 10.8919 3.09079 31.0994
6458 2 9.98278 4.69336 32.3659
266 1 13.6198 4.67509 31.0828
6285 2 15.439 4.69336 32.3659
6483 2 12.7112 3.10808 32.3823
283 1 16.3481 3.09079 31.0994
6284 2 18.1674 3.10808 32.3823
1129 1 21.8044 3.09079 31.0994
108 1 19.0761 4.67509 31.0828
6175 2 20.8953 4.69336 32.3659
801 1 2.70714 7.84253 31.0474
7019 2 1.79816 6.27831 32.3487
800 1 5.43536 6.25902 31.0655
6695 2 4.52604 7.86287 32.3308
486 1 8.16338 7.84253 31.0474
6735 2 7.2544 6.27831 32.3487
519 1 10.8916 6.25902 31.0655
6457 2 9.98228 7.86287 32.3308
265 1 13.6196 7.84253 31.0474
6271 2 15.4385 7.86287 32.3308
6456 2 12.7106 6.27831 32.3487
264 1 16.3478 6.25902 31.0655
6287 2 18.1669 6.27831 32.3487
1130 1 21.8041 6.25902 31.0655
101 1 19.0759 7.84253 31.0474
6174 2 20.8948 7.86287 32.3308
756 1 2.70712 11.008 31.0091
7020 2 1.79772 9.44701 32.3122
803 1 5.43522 9.42554 31.0287
6694 2 4.52568 11.0307 32.2929
485 1 8.16336 11.008 31.0091
6693 2 7.25396 9.44701 32.3122
484 1 10.8915 9.42554 31.0287
6430 2 9.98192 11.0307 32.2929
243 1 13.6196 11.008 31.0091
6270 2 15.4382 11.0307 32.2929
6459 2 12.7102 9.44701 32.3122
267 1 16.3477 9.42554 31.0287
6269 2 18.1664 9.44701 32.3122
1082 1 21.8039 9.42554 31.0287
100 1 19.0758 11.008 31.0091
6171 2 20.8944 11.0307 32.2929
755 1 2.70747 14.171 30.968
6972 2 1.79748 12.6137 32.273
754 1 5.43535 12.5898 30.9889
6655 2 4.5256 14.1962 32.2523
450 1 8.16371 14.171 30.968
6696 2 7.25372 12.6137 32.273
487 1 10.8916 12.5898 30.9889
6429 2 9.98184 14.1962 32.2523
242 1 13.6199 14.171 30.968
6255 2 15.4381 14.1962 32.2523
6428 2 12.71 12.6137 32.273
241 1 16.3478 12.5898 30.9889
6272 2 18.1662 12.6137 32.273
1083 1 21.8041 12.5898 30.9889
89 1 19.0762 14.171 30.968
6170 2 20.8943 14.1962 32.2523
711 1 2.70844 17.3306 30.9238
6973 2 1.79762 15.7778 32.2308
757 1 5.43598 15.7512 30.9463
6654 2 4.52602 17.3586 32.2086
449 1 8.16468 17.3306 30.9238
6653 2 7.25385 15.7778 32.2308
448 1 10.8922 15.7512 30.9463
6402 2 9.98226 17.3586 32.2086
219 1 13.6209 17.3306 30.9238
6254 2 15.4385 17.3586 32.2086
6431 2 12.7101 15.7778 32.2308
244 1 16.3485 15.7512 30.9463
6253 2 18.1663 15.7778 32.2308
1042 1 21.8047 15.7512 30.9463
88 1 19.0772 17.3306 30.9238
6167 2 20.8947 17.3586 32.2086
710 1 2.71041 20.4857 30.8762
6932 2 1.7984 18.9384 32.1856
709 1 5.43739 18.9088 30.9004
6616 2 4.52728 20.517 32.1618
414 1 8.16665 20.4857 30.8762
6656 2 7.25464 18.9384 32.1856
451 1 10.8936 18.9088 30.9004
6401 2 9.98351 20.517 32.1618
218 1 13.6229 20.4857 30.8762
6239 2 15.4398 20.517 32.1618
6400 2 12.7109 18.9384 32.1856
217 1 16.3499 18.9088 30.9004
6256 2 18.1671 18.9384 32.1856
1043 1 21.8061 18.9088 30.9004
77 1 19.0791 20.4857 30.8762
6166 2 20.896 20.517 32.1618
6933 2 1.80025 22.0942 32.1369
673 1 2.71394 23.6348 30.8246
712 1 5.44006 22.0611 30.851
6614 2 7.25648 22.0942 32.1369
413 1 8.17017 23.6348 30.8246
412 1 10.8963 22.0611 30.851
6403 2 12.7127 22.0942 32.1369
195 1 13.6264 23.6348 30.8246
220 1 16.3525 22.0611 30.851
6237 2 18.169 22.0942 32.1369
1010 1 21.8088 22.0611 30.851
76 1 19.0827 23.6348 30.8246
6900 2 1.80377 25.2432 32.0836
6615 2 4.52987 23.6697 32.1109
671 1 5.44462 25.2064 30.7969
6617 2 7.26001 25.2432 32.0836
6374 2 9.98611 23.6697 32.1109
415 1 10.9009 25.2064 30.7969
6238 2 15.4423 23.6697 32.1109
6372 2 12.7163 25.2432 32.0836
193 1 16.3571 25.2064 30.7969
6240 2 18.1725 25.2432 32.0836
6163 2 20.8986 23.6697 32.1109
1011 1 21.8133 25.2064 30.7969
672 1 2.71973 26.7757 30.7677
6901 2 1.80986 28.3829 32.024
674 1 5.45183 28.3423 30.7368
6584 2 4.53455 26.8144 32.0547
379 1 8.17597 26.7757 30.7677
6582 2 7.2661 28.3829 32.024
377 1 10.9081 28.3423 30.7368
6373 2 9.99079 26.8144 32.0547
194 1 13.6322 26.7757 30.7677
6223 2 15.447 26.8144 32.0547
6375 2 12.7223 28.3829 32.024
196 1 16.3643 28.3423 30.7368
6221 2 18.1786 28.3829 32.024
986 1 21.8205 28.3423 30.7368
65 1 19.0884 26.7757 30.7677
6162 2 20.9033 26.8144 32.0547
643 1 2.72848 29.9059 30.7039
6876 2 1.81946 31.5103 31.9559
641 1 5.46214 31.4663 30.6688
6583 2 4.54229 29.9484 31.9912
378 1 8.18472 29.9059 30.7039
6585 2 7.2757 31.5103 31.9559
380 1 10.9184 31.4663 30.6688
6347 2 9.99853 29.9484 31.9912
171 1 13.641 29.9059 30.7039
6222 2 15.4548 29.9484 31.9912
6345 2 12.7319 31.5103 31.9559
169 1 16.3746 31.4663 30.6688
6224 2 18.1882 31.5103 31.9559
987 1 21.8309 31.4663 30.6688
64 1 19.0972 29.9059 30.7039
6159 2 20.911 29.9484 31.9912
642 1 2.74019 33.0236 30.6314
6877 2 1.83296 34.6234 31.8774
644 1 5.47491 34.5785 30.592
6560 2 4.55387 33.0687 31.9179
351 1 8.19643 33.0236 30.6314
6558 2 7.2892 34.6234 31.8774
349 1 10.9311 34.5785 30.592
6346 2 10.0101 33.0687 31.9179
170 1 13.6527 33.0236 30.6314
6207 2 15.4663 33.0687 31.9179
6348 2 12.7454 34.6234 31.8774
172 1 16.3874 34.5785 30.592
6205 2 18.2017 34.6234 31.8774
970 1 21.8436 34.5785 30.592
53 1 19.1089 33.0236 30.6314
6158 2 20.9226 33.0687 31.9179
621 1 2.75377 36.1321 30.552
6860 2 1.84998 37.7251 31.7957
619 1 5.48985 37.687 30.5148
6559 2 4.56909 36.1751 31.8357
350 1 8.21001 36.1321 30.552
6561 2 7.30622 37.7251 31.7957
352 1 10.9461 37.687 30.5148
6327 2 10.0253 36.1751 31.8357
148 1 13.6662 36.1321 30.552
6206 2 15.4816 36.1751 31.8357
6325 2 12.7625 37.7251 31.7957
146 1 16.4023 37.687 30.5148
6208 2 18.2187 37.7251 31.7957
971 1 21.8586 37.687 30.5148
52 1 19.1225 36.1321 30.552
6155 2 20.9378 36.1751 31.8357
620 1 2.77191 39.2432 30.4833
6861 2 1.87388 40.8255 31.7384
962 1 0.0552108 40.7998 30.4594
622 1 5.51145 40.7998 30.4594
6544 2 4.58908 39.2755 31.7629
331 1 8.22815 39.2432 30.4833
6542 2 7.33012 40.8255 31.7384
329 1 10.9677 40.7998 30.4594
6326 2 10.0453 39.2756 31.7629
147 1 13.6844 39.2432 30.4833
6192 2 15.5016 39.2756 31.7629
6328 2 12.7863 40.8255 31.7384
149 1 16.4239 40.7998 30.4594
6190 2 18.2426 40.8255 31.7384
41 1 19.1406 39.2432 30.4833
6154 2 20.9578 39.2755 31.7629
607 1 2.79719 42.3557 30.445
6852 2 1.90441 43.9212 31.7215
963 1 0.0811251 43.9097 30.4385
605 1 5.53736 43.9097 30.4385
6543 2 4.61728 42.3746 31.7256
330 1 8.25343 42.3557 30.445
6545 2 7.36065 43.9212 31.7215
332 1 10.9936 43.9097 30.4385
6315 2 10.0735 42.3746 31.7256
132 1 13.7097 42.3557 30.445
6191 2 15.5298 42.3746 31.7256
6313 2 12.8169 43.9212 31.7215
130 1 16.4498 43.9097 30.4385
6193 2 18.2731 43.9212 31.7214
40 1 19.1659 42.3557 30.445
6151 2 20.986 42.3746 31.7256
606 1 2.82154 45.4589 30.4384
961 1 0.101141 47.0044 30.4408
6853 2 1.92545 47.0077 31.7306
6536 2 4.64557 45.4644 31.7267
608 1 5.55738 47.0044 30.4408
595 1 3.76273 47.012 33.0296
319 1 8.27778 45.459 30.4384
6534 2 7.38169 47.0077 31.7306
316 1 9.21896 47.012 33.0296
6314 2 10.1018 45.4644 31.7267
317 1 11.0136 47.0044 30.4408
131 1 13.734 45.4589 30.4384
6184 2 15.558 45.4644 31.7267
6316 2 12.8379 47.0077 31.7306
118 1 14.6752 47.012 33.0296
133 1 16.4699 47.0044 30.4408
6182 2 18.2942 47.0077 31.7306
30 1 19.1903 45.4589 30.4384
6150 2 21.0143 45.4644 31.7267
28 1 20.1314 47.012 33.0296
598 1 2.83116 48.5501 30.4411
596 1 1.03679 48.5525 33.0302
9242 2 1.92438 50.0949 31.7298
3225 1 0.100037 50.0958 30.4403
6535 2 4.65596 48.5513 31.7314
2889 1 5.55627 50.0958 30.4403
2888 1 3.76168 50.0927 33.0292
318 1 8.2874 48.5501 30.4411
308 1 6.49303 48.5525 33.0302
8944 2 7.38062 50.0949 31.7298
2561 1 9.21792 50.0927 33.0292
6308 2 10.1122 48.5513 31.7314
119 1 11.9493 48.5525 33.0302
2592 1 11.0125 50.0958 30.4403
121 1 13.7436 48.5501 30.4411
6183 2 15.5684 48.5513 31.7314
8657 2 12.8369 50.0949 31.7298
2328 1 14.6742 50.0927 33.0292
20 1 17.4055 48.5525 33.0302
2329 1 16.4688 50.0958 30.4403
8472 2 18.2931 50.0949 31.7298
29 1 19.1999 48.5501 30.4411
6147 2 21.0247 48.5513 31.7314
2153 1 20.1304 50.0927 33.0292
798 1 0.889556 1.53921 33.6838
6730 2 2.70939 1.5558 34.9658
514 1 6.34579 1.53921 33.6838
6454 2 8.16562 1.5558 34.9658
262 1 11.802 1.53921 33.6838
6282 2 13.6219 1.5558 34.9658
106 1 17.2583 1.53921 33.6838
6173 2 19.0781 1.5558 34.9658
797 1 0.888718 4.71206 33.6521
6691 2 2.70838 4.73064 34.9342
796 1 3.61726 3.12576 33.6683
6731 2 5.43702 3.14333 34.9503
482 1 6.34496 4.71206 33.6521
515 1 9.0735 3.12576 33.6683
6453 2 8.16462 4.73064 34.9342
261 1 11.8012 4.71206 33.6521
6452 2 10.8933 3.14333 34.9503
260 1 14.5297 3.12576 33.6683
6267 2 13.6209 4.73064 34.9342
98 1 17.2574 4.71206 33.6521
6283 2 16.3495 3.14333 34.9503
7017 2 21.8057 3.14333 34.9503
107 1 19.986 3.12576 33.6683
6172 2 19.0771 4.73064 34.9342
752 1 0.887855 7.88373 33.6175
6690 2 2.70732 7.90451 34.8998
799 1 3.61641 6.29806 33.6351
6689 2 5.43598 6.31771 34.9173
480 1 9.07264 6.29806 33.6351
481 1 6.34409 7.88373 33.6175
6426 2 8.16356 7.90451 34.8998
239 1 11.8003 7.88373 33.6175
6455 2 10.8922 6.31771 34.9173
263 1 14.5289 6.29806 33.6351
6266 2 13.6198 7.90451 34.8998
97 1 17.2566 7.88373 33.6175
6265 2 16.3485 6.31771 34.9173
7018 2 21.8047 6.31771 34.9173
96 1 19.9851 6.29806 33.6351
6169 2 19.076 7.90451 34.8998
751 1 0.88704 11.0539 33.5803
6651 2 2.70625 11.0771 34.8628
750 1 3.61555 9.46904 33.5992
6692 2 5.4349 9.49099 34.8816
446 1 6.34328 11.0539 33.5803
483 1 9.07179 9.46904 33.5992
6425 2 8.16249 11.0771 34.8628
238 1 11.7995 11.0539 33.5803
6424 2 10.8911 9.49099 34.8816
237 1 14.528 9.46904 33.5992
6251 2 13.6187 11.0771 34.8628
86 1 17.2558 11.0539 33.5803
6268 2 16.3474 9.49099 34.8816
6970 2 21.8036 9.49099 34.8816
99 1 19.9843 9.46904 33.5992
6168 2 19.075 11.0771 34.8628
707 1 0.886397 14.2221 33.5405
6650 2 2.70527 14.2481 34.8232
753 1 3.61481 12.6383 33.5607
6649 2 5.43386 12.6629 34.8433
444 1 9.07104 12.6383 33.5607
445 1 6.34264 14.2221 33.5405
6398 2 8.16151 14.2481 34.8232
215 1 11.7989 14.2221 33.5405
6427 2 10.8901 12.6629 34.8433
240 1 14.5273 12.6383 33.5607
6250 2 13.6177 14.2481 34.8232
85 1 17.2551 14.2221 33.5405
6249 2 16.3463 12.6629 34.8433
6971 2 21.8026 12.6629 34.8433
84 1 19.9835 12.6383 33.5607
6165 2 19.074 14.2481 34.8232
706 1 0.886118 17.3877 33.498
6612 2 2.70454 17.4169 34.781
705 1 3.61431 15.8053 33.5196
6652 2 5.43298 15.8328 34.8024
410 1 6.34236 17.3877 33.498
447 1 9.07055 15.8053 33.5196
6397 2 8.16078 17.4169 34.781
214 1 11.7986 17.3877 33.498
6396 2 10.8892 15.8328 34.8024
213 1 14.5268 15.8053 33.5196
6235 2 13.617 17.4169 34.781
74 1 17.2548 17.3877 33.498
6252 2 16.3455 15.8328 34.8024
6930 2 21.8017 15.8328 34.8024
87 1 19.983 15.8053 33.5196
6164 2 19.0733 17.4169 34.781
669 1 0.886523 20.5497 33.4528
6611 2 2.70431 20.5826 34.736
708 1 3.61433 18.9693 33.4758
6610 2 5.43246 19.0002 34.7589
408 1 9.07057 18.9693 33.4758
409 1 6.34276 20.5497 33.4528
6370 2 8.16055 20.5826 34.736
191 1 11.799 20.5497 33.4528
6399 2 10.8887 19.0002 34.7589
216 1 14.5268 18.9693 33.4758
6234 2 13.6168 20.5826 34.736
73 1 17.2552 20.5497 33.4528
6233 2 16.3449 19.0002 34.7589
6931 2 21.8012 19.0002 34.7589
72 1 19.983 18.9693 33.4758
6161 2 19.073 20.5826 34.736
667 1 3.61525 22.1289 33.4289
6613 2 5.43262 22.1639 34.7122
411 1 9.07149 22.1289 33.4289
6368 2 10.8889 22.1639 34.7122
189 1 14.5277 22.1289 33.4289
6236 2 16.3451 22.1639 34.7122
6898 2 21.8013 22.1639 34.7122
75 1 19.984 22.1289 33.4289
668 1 0.88814 23.7066 33.4041
6580 2 2.705 23.7438 34.6875
670 1 3.61778 25.2824 33.3782
6578 2 5.43402 25.3221 34.6615
375 1 6.34438 23.7066 33.4041
6369 2 8.16124 23.7438 34.6875
373 1 9.07402 25.2824 33.3782
190 1 11.8006 23.7066 33.4041
6371 2 10.8903 25.3221 34.6615
6219 2 13.6175 23.7438 34.6875
192 1 14.5303 25.2824 33.3782
6217 2 16.3465 25.3221 34.6615
62 1 17.2569 23.7066 33.4041
60 1 19.9865 25.2824 33.3782
6899 2 21.8027 25.3221 34.6615
6160 2 19.0737 23.7438 34.6875
6579 2 2.70733 26.8981 34.6342
639 1 0.891845 26.856 33.3511
6581 2 5.43759 28.4715 34.605
637 1 3.62299 28.4267 33.3224
6343 2 8.16357 26.8981 34.6342
376 1 9.07923 28.4267 33.3224
374 1 6.34808 26.856 33.3511
6341 2 10.8938 28.4715 34.605
167 1 11.8043 26.856 33.3511
6218 2 13.6198 26.8981 34.6342
165 1 14.5355 28.4267 33.3224
6220 2 16.3501 28.4715 34.605
61 1 17.2606 26.856 33.3511
6157 2 19.076 26.8981 34.6342
63 1 19.9917 28.4267 33.3224
6874 2 21.8063 28.4715 34.605
6556 2 2.71252 30.0415 34.5736
638 1 0.898927 29.994 33.2919
6554 2 5.44485 31.6072 34.5392
640 1 3.63227 31.557 33.259
6342 2 8.16876 30.0415 34.5736
347 1 6.35517 29.994 33.2919
345 1 9.08851 31.557 33.259
6344 2 10.9011 31.6072 34.5392
166 1 11.8114 29.994 33.2919
6203 2 13.625 30.0415 34.5736
168 1 14.5447 31.557 33.259
6201 2 16.3573 31.6072 34.5392
50 1 17.2676 29.994 33.2919
6156 2 19.0812 30.0415 34.5736
48 1 20.001 31.557 33.259
6875 2 21.8136 31.6072 34.5392
6555 2 2.72225 33.1677 34.501
617 1 0.910559 33.1148 33.2232
6557 2 5.45733 34.7221 34.4584
615 1 3.64616 34.6666 33.1838
6323 2 8.17849 33.1677 34.501
348 1 9.1024 34.6666 33.1838
346 1 6.3668 33.1148 33.2232
6321 2 10.9136 34.7221 34.4584
144 1 11.823 33.1148 33.2232
6202 2 13.6347 33.1677 34.501
142 1 14.5586 34.6666 33.1838
6204 2 16.3698 34.7221 34.4584
49 1 17.2793 33.1148 33.2232
6153 2 19.091 33.1677 34.501
51 1 20.0149 34.6666 33.1839
6858 2 21.826 34.7221 34.4584
6540 2 2.73792 36.2691 34.4106
616 1 0.926128 36.2127 33.1407
599 1 1.82046 37.8892 35.7091
6538 2 5.47648 37.8092 34.359
618 1 3.66202 37.756 33.0948
322 1 4.54171 36.3532 35.7509
6322 2 8.19416 36.2691 34.4106
327 1 6.38237 36.2127 33.1407
325 1 9.11826 37.756 33.0948
324 1 7.2767 37.8892 35.7091
6324 2 10.9327 37.8092 34.359
143 1 11.8386 36.2127 33.1407
124 1 9.99795 36.3532 35.7509
6188 2 13.6504 36.2691 34.4106
145 1 14.5745 37.756 33.0948
33 1 15.4542 36.3532 35.7509
122 1 12.7329 37.8892 35.7091
6186 2 16.389 37.8092 34.359
38 1 17.2948 36.2127 33.1407
35 1 18.1892 37.8892 35.7091
6152 2 19.1066 36.2691 34.4106
36 1 20.0307 37.756 33.0948
6859 2 21.8452 37.8092 34.359
5 1 20.9104 36.3532 35.7509
6539 2 2.75976 39.3446 34.3129
603 1 0.946025 39.3025 33.0544
600 1 1.84248 40.9475 35.6173
6541 2 5.50891 40.8813 34.2861
601 1 3.69068 40.8515 33.0288
311 1 4.55616 39.4076 35.654
6311 2 8.21601 39.3446 34.3129
328 1 9.14692 40.8515 33.0288
326 1 6.40226 39.3025 33.0544
309 1 7.29871 40.9475 35.6172
6309 2 10.9652 40.8812 34.2861
128 1 11.8585 39.3025 33.0544
123 1 10.0124 39.4075 35.654
6187 2 13.6722 39.3446 34.3129
126 1 14.6032 40.8515 33.0288
23 1 15.4687 39.4075 35.654
125 1 12.755 40.9474 35.6172
6189 2 16.4214 40.8812 34.2861
37 1 17.3147 39.3025 33.0544
21 1 18.2112 40.9474 35.6172
6149 2 19.1285 39.3446 34.3129
39 1 20.0594 40.8515 33.0288
6850 2 21.8776 40.8813 34.2861
4 1 20.9249 39.4076 35.654
6532 2 2.80032 42.4137 34.2768
602 1 0.983109 42.4013 33.012
6851 2 0.100455 43.9399 34.2953
593 1 1.93775 43.9344 35.6492
6530 2 5.55671 43.9399 34.2953
604 1 3.73439 43.9405 33.0208
310 1 4.63902 42.4399 35.6226
6310 2 8.25649 42.4138 34.2769
315 1 6.43935 42.4013 33.012
313 1 9.19062 43.9406 33.0208
312 1 7.39399 43.9344 35.6491
6312 2 11.0129 43.94 34.2954
127 1 11.8956 42.4013 33.012
116 1 10.0951 42.44 35.6228
6180 2 13.7127 42.4138 34.2769
129 1 14.6469 43.9406 33.0208
22 1 15.5514 42.44 35.6228
114 1 12.8502 43.9344 35.6491
6178 2 16.4691 43.94 34.2954
27 1 17.3518 42.4013 33.012
24 1 18.3065 43.9344 35.6492
6148 2 19.169 42.4137 34.2768
25 1 20.1031 43.9405 33.0208
3 1 21.0077 42.4399 35.6226
6531 2 2.84906 45.4746 34.3101
597 1 1.02651 45.4728 33.0287
594 1 1.96482 47.014 35.6225
6849 2 0.135369 47.0137 34.3171
307 1 4.68326 45.4778 35.627
6533 2 5.59162 47.0137 34.3171
6307 2 8.30531 45.4746 34.31
314 1 6.48275 45.4728 33.0287
305 1 7.42104 47.014 35.6224
120 1 11.939 45.4728 33.0287
115 1 10.1395 45.4778 35.627
6305 2 11.0478 47.0137 34.3171
6179 2 13.7616 45.4746 34.31
19 1 15.5957 45.4778 35.6269
117 1 12.8773 47.014 35.6224
26 1 17.3952 45.4728 33.0287
6181 2 16.5041 47.0137 34.3171
17 1 18.3335 47.014 35.6225
6146 2 19.2178 45.4747 34.3101
2 1 21.052 45.4778 35.627
6529 2 2.86823 48.5537 34.3198
2842 1 1.96501 50.094 35.6241
9241 2 0.133716 50.0935 34.3159
306 1 4.69408 48.5555 35.6267
8905 2 5.58995 50.0935 34.3159
6306 2 8.32446 48.5537 34.3198
2560 1 7.42125 50.094 35.6241
113 1 10.1503 48.5555 35.6267
8656 2 11.0462 50.0935 34.3159
6177 2 13.7807 48.5537 34.3198
18 1 15.6065 48.5555 35.6267
2305 1 12.8775 50.094 35.624
8457 2 16.5024 50.0935 34.3159
2152 1 18.3337 50.094 35.6241
6145 2 19.237 48.5537 34.3198
1 1 21.0628 48.5555 35.6267
8318 2 0.892553 1.5895 37.5319
8320 2 3.62129 -0.00016445 37.5465
478 1 4.52848 1.57271 36.2508
8286 2 9.07753 -0.00016445 37.5465
8287 2 6.34879 1.5895 37.5319
8254 2 11.805 1.5895 37.5319
258 1 9.98472 1.57271 36.2508
8256 2 14.5338 -0.00016445 37.5465
94 1 15.441 1.57271 36.2508
8223 2 17.2613 1.5895 37.5319
8222 2 19.99 -0.00016445 37.5465
16 1 20.8972 1.57271 36.2508
8317 2 0.891194 4.76845 37.5006
795 1 1.79975 3.16126 36.2355
8316 2 3.62001 3.17904 37.5166
477 1 4.52722 4.74963 36.2195
8284 2 6.34743 4.76845 37.5006
8288 2 9.07625 3.17904 37.5166
476 1 7.25599 3.16126 36.2355
8253 2 11.8037 4.76845 37.5006
235 1 9.98346 4.74963 36.2195
8252 2 14.5325 3.17904 37.5166
93 1 15.4397 4.74963 36.2195
259 1 12.7122 3.16126 36.2355
8220 2 17.2599 4.76845 37.5006
92 1 18.1685 3.16126 36.2355
8224 2 19.9887 3.17904 37.5166
15 1 20.8959 4.74963 36.2195
8314 2 0.889683 7.94685 37.4666
748 1 1.79842 6.33781 36.2028
8319 2 3.61858 6.35773 37.484
442 1 4.52583 7.92578 36.1855
8282 2 9.07481 6.35773 37.484
8283 2 6.34592 7.94685 37.4666
479 1 7.25466 6.33781 36.2028
8250 2 11.8022 7.94685 37.4666
234 1 9.98206 7.92578 36.1855
8255 2 14.5311 6.35773 37.484
82 1 15.4383 7.92578 36.1855
233 1 12.7109 6.33781 36.2028
8219 2 17.2584 7.94685 37.4666
95 1 18.1671 6.33781 36.2028
8218 2 19.9873 6.35773 37.484
14 1 20.8945 7.92578 36.1855
8313 2 0.888051 11.1246 37.4301
749 1 1.79697 9.51352 36.1675
8312 2 3.617 9.53581 37.4487
441 1 4.52434 11.101 36.149
8280 2 6.34429 11.1246 37.4301
8285 2 9.07324 9.53581 37.4487
440 1 7.25321 9.51352 36.1675
8249 2 11.8005 11.1246 37.4301
211 1 9.98058 11.101 36.149
8248 2 14.5295 9.53581 37.4487
81 1 15.4368 11.101 36.149
236 1 12.7094 9.51352 36.1675
8216 2 17.2568 11.1246 37.4301
80 1 18.1657 9.51352 36.1675
8221 2 19.9857 9.53581 37.4487
13 1 20.8931 11.101 36.149
8310 2 0.886349 14.3015 37.391
703 1 1.79546 12.6882 36.1298
14559 1 2.7046 14.3291 38.6763
8315 2 3.61532 12.7132 37.4108
406 1 4.52282 14.275 36.1101
8278 2 9.07156 12.7132 37.4108
8279 2 6.34259 14.3015 37.391
443 1 7.2517 12.6882 36.1298
14454 1 8.16084 14.3291 38.6763
8246 2 11.7988 14.3015 37.391
210 1 9.97906 14.275 36.1101
8251 2 14.5278 12.7132 37.4108
70 1 15.4353 14.275 36.1101
209 1 12.7079 12.6882 36.1298
14270 1 13.6171 14.3291 38.6763
8215 2 17.2551 14.3015 37.391
83 1 18.1642 12.6882 36.1298
8214 2 19.984 12.7132 37.4108
12 1 20.8915 14.275 36.1101
13980 1 19.0733 14.3291 38.6763
8309 2 0.884663 17.4773 37.3496
704 1 1.79396 15.8615 36.0898
14548 1 2.70229 17.5089 38.6355
8308 2 3.61362 15.8895 37.3706
405 1 4.52138 17.4475 36.0689
14561 1 5.43158 15.919 38.6562
8276 2 6.3409 17.4773 37.3496
8281 2 9.06985 15.8895 37.3706
404 1 7.2502 15.8615 36.0898
14453 1 8.15853 17.5089 38.6355
8245 2 11.7971 17.4773 37.3496
187 1 9.97762 17.4475 36.0689
14452 1 10.8878 15.919 38.6562
8244 2 14.5261 15.8895 37.3706
69 1 15.4339 17.4475 36.0689
212 1 12.7064 15.8615 36.0898
14251 1 13.6148 17.5089 38.6355
8212 2 17.2534 17.4773 37.3496
68 1 18.1627 15.8615 36.0898
14272 1 16.3441 15.919 38.6562
8217 2 19.9823 15.8895 37.3706
11 1 20.8901 17.4475 36.0689
14586 1 21.8003 15.919 38.6562
13979 1 19.071 17.5089 38.6355
8306 2 0.883139 20.6515 37.3056
665 1 1.79263 19.033 36.0474
14547 1 2.69987 20.6885 38.5927
8311 2 3.61199 19.0646 37.328
371 1 4.52021 20.6178 36.0253
14546 1 5.42921 19.0988 38.6144
8274 2 9.06823 19.0646 37.328
8275 2 6.33938 20.6515 37.3056
407 1 7.24887 19.033 36.0474
14431 1 8.15611 20.6885 38.5927
8242 2 11.7956 20.6515 37.3056
186 1 9.97645 20.6178 36.0253
14455 1 10.8854 19.0988 38.6144
8247 2 14.5245 19.0646 37.328
58 1 15.4327 20.6178 36.0253
185 1 12.7051 19.033 36.0474
14250 1 13.6123 20.6885 38.5927
8211 2 17.2519 20.6515 37.3056
71 1 18.1613 19.033 36.0474
14249 1 16.3417 19.0988 38.6144
8210 2 19.9807 19.0646 37.328
10 1 20.8889 20.6178 36.0253
14587 1 21.7979 19.0988 38.6144
13958 1 19.0686 20.6885 38.5927
666 1 1.7917 22.2019 36.0026
8304 2 3.61063 22.2378 37.2826
14549 1 5.42674 22.2783 38.5705
8277 2 9.06687 22.2378 37.2826
369 1 7.24794 22.2019 36.0026
14429 1 10.883 22.2783 38.5705
8240 2 14.5231 22.2378 37.2826
188 1 12.7042 22.2019 36.0026
56 1 18.1604 22.2019 36.0026
14252 1 16.3392 22.2783 38.5705
8213 2 19.9793 22.2378 37.2826
14584 1 21.7955 22.2783 38.5705
8305 2 0.882028 23.8233 37.2587
635 1 1.79163 25.3672 35.9552
14536 1 2.69735 23.8682 38.5478
370 1 4.51964 23.7851 35.9793
8307 2 3.60988 25.4078 37.2337
14534 1 5.42413 25.4582 38.5247
8272 2 6.33827 23.8233 37.2587
8270 2 9.06612 25.4078 37.2337
372 1 7.24787 25.3672 35.9552
14430 1 8.15358 23.8682 38.5478
8241 2 11.7945 23.8233 37.2587
163 1 9.97588 23.7851 35.9793
14432 1 10.8804 25.4582 38.5247
57 1 15.4321 23.7851 35.9793
8243 2 14.5224 25.4078 37.2337
161 1 12.7041 25.3672 35.9552
14223 1 13.6098 23.8682 38.5478
8208 2 17.2507 23.8233 37.2587
59 1 18.1603 25.3672 35.9552
14221 1 16.3366 25.4582 38.5247
9 1 20.8884 23.7851 35.9793
8206 2 19.9786 25.4078 37.2337
14585 1 21.7928 25.4582 38.5247
13957 1 19.0661 23.8682 38.5478
8302 2 0.881814 26.991 37.2075
636 1 1.79325 28.5265 35.9046
14535 1 2.69453 27.0486 38.5011
8300 2 3.61044 28.5723 37.1796
343 1 4.52026 26.9478 35.9303
14537 1 5.42085 28.6396 38.4771
8271 2 6.33805 26.991 37.2075
8273 2 9.06668 28.5723 37.1796
341 1 7.24949 28.5265 35.9046
14407 1 8.15076 27.0486 38.5011
8238 2 11.7943 26.991 37.2075
162 1 9.9765 26.9478 35.9303
14405 1 10.8771 28.6396 38.4771
8236 2 14.5229 28.5723 37.1796
46 1 15.4327 26.9478 35.9303
164 1 12.7057 28.5265 35.9046
14222 1 13.607 27.0486 38.5011
8207 2 17.2505 26.991 37.2075
44 1 18.162 28.5265 35.9046
14224 1 16.3333 28.6396 38.4771
8209 2 19.9792 28.5723 37.1796
8 1 20.889 26.9478 35.9303
14582 1 21.7896 28.6396 38.4771
13928 1 19.0632 27.0486 38.5011
8301 2 0.883494 30.1509 37.1495
613 1 1.79806 31.6757 35.8498
14524 1 2.69019 30.2321 38.453
8303 2 3.61375 31.7258 37.1163
14522 1 5.41442 31.8262 38.4289
342 1 4.52323 30.1028 35.8777
8266 2 9.06999 31.7258 37.1163
8268 2 6.33973 30.1509 37.1495
344 1 7.2543 31.6757 35.8498
14406 1 8.14643 30.2321 38.453
8237 2 11.796 30.1509 37.1495
14408 1 10.8707 31.8262 38.4289
140 1 9.97947 30.1028 35.8777
8239 2 14.5262 31.7258 37.1163
45 1 15.4357 30.1028 35.8777
138 1 12.7105 31.6757 35.8498
14188 1 13.6027 30.2321 38.453
8204 2 17.2522 30.1509 37.1495
14186 1 16.3269 31.8262 38.4289
47 1 18.1668 31.6757 35.8498
14583 1 21.7831 31.8262 38.4289
8202 2 19.9825 31.7258 37.1163
7 1 20.8919 30.1028 35.8777
13927 1 19.0589 30.2321 38.453
8298 2 0.889049 33.2954 37.0791
14523 1 2.67967 33.4248 38.4057
614 1 1.80727 34.8037 35.7873
8296 2 3.62233 34.8574 37.0357
14525 1 5.39801 35.0271 38.3828
323 1 4.53028 33.2433 35.82
8267 2 6.34529 33.2954 37.0791
8269 2 9.07857 34.8574 37.0357
14383 1 8.13591 33.4248 38.4057
321 1 7.26351 34.8037 35.7873
8234 2 11.8015 33.2954 37.0791
14381 1 10.8543 35.0271 38.3828
139 1 9.98651 33.2433 35.82
8232 2 14.5348 34.8574 37.0357
14187 1 13.5921 33.4248 38.4057
34 1 15.4428 33.2433 35.82
141 1 12.7197 34.8037 35.7873
8203 2 17.2578 33.2954 37.0791
14189 1 16.3105 35.0271 38.3828
32 1 18.176 34.8037 35.7873
14580 1 21.7667 35.0271 38.3828
8205 2 19.991 34.8574 37.0357
13890 1 19.0484 33.4248 38.4057
6 1 20.899 33.2433 35.82
8297 2 0.900288 36.409 36.9843
14512 1 2.64923 36.6417 38.3558
8299 2 3.64053 37.9424 36.9195
14510 1 5.32184 38.2768 38.3489
8262 2 9.09677 37.9424 36.9195
8264 2 6.35653 36.409 36.9843
14382 1 8.10547 36.6417 38.3558
8233 2 11.8128 36.4091 36.9843
14384 1 10.7781 38.2768 38.3489
8235 2 14.553 37.9424 36.9195
14152 1 13.5617 36.6417 38.3558
8200 2 17.269 36.4091 36.9844
14150 1 16.2343 38.2768 38.3489
8198 2 20.0092 37.9424 36.9195
13889 1 19.0179 36.6417 38.3558
14581 1 21.6906 38.2768 38.3489
8294 2 0.92063 39.4609 36.8547
14511 1 2.36969 40.0904 38.4116
8292 2 3.6419 40.9498 36.8018
14513 1 4.86452 41.8183 38.355
8263 2 6.37686 39.4609 36.8547
8265 2 9.09812 40.95 36.8019
14359 1 7.82593 40.0904 38.4116
8230 2 11.8331 39.4608 36.8547
14357 1 10.3208 41.8183 38.355
8228 2 14.5544 40.95 36.8019
14151 1 13.2822 40.0904 38.4116
8199 2 17.2894 39.4608 36.8547
14153 1 15.777 41.8183 38.355
8201 2 20.0106 40.9498 36.8018
13845 1 18.7384 40.0904 38.4116
14578 1 21.2332 41.8183 38.355
8293 2 0.965098 42.4243 36.8665
14500 1 2.17775 43.6636 38.2891
8295 2 3.77516 43.9278 36.8687
8260 2 6.42137 42.4243 36.8665
14358 1 7.63383 43.6636 38.2893
8258 2 9.2322 43.9263 36.8679
8229 2 11.8775 42.4244 36.8666
14116 1 13.0901 43.6636 38.2893
8231 2 14.6884 43.9263 36.8679
8196 2 17.3337 42.4244 36.8666
13844 1 18.5465 43.6636 38.2891
8194 2 20.1439 43.9278 36.8687
8291 2 1.09191 45.4653 36.8898
14499 1 2.17858 46.9697 38.2311
14498 1 4.9059 45.3402 38.2319
8289 2 3.83335 47.0081 36.9024
8259 2 6.54792 45.4653 36.8897
14336 1 7.63409 46.9709 38.2317
8261 2 9.28987 47.0082 36.9022
8227 2 12.0041 45.4652 36.8897
14360 1 10.3622 45.3403 38.232
14115 1 13.0903 46.971 38.2317
8225 2 14.7461 47.0082 36.9022
8195 2 17.4606 45.4653 36.8898
14114 1 15.8184 45.3403 38.232
14579 1 21.2746 45.3402 38.2319
13799 1 18.5473 46.9697 38.2311
8197 2 20.2021 47.0081 36.9024
8290 2 1.10796 48.5567 36.9004
14489 1 2.17473 50.1602 38.2387
10496 2 3.82939 50.106 36.902
14501 1 4.91003 48.568 38.2369
10462 2 9.28563 50.106 36.902
8257 2 6.56424 48.5566 36.9006
14335 1 7.63094 50.1602 38.2387
8226 2 12.0205 48.5566 36.9006
14334 1 10.3663 48.568 38.2369
10432 2 14.7419 50.106 36.902
14081 1 13.0872 50.1602 38.2387
8193 2 17.4767 48.5567 36.9004
14117 1 15.8225 48.568 38.2369
13798 1 18.5434 50.1602 38.2387
10398 2 20.1981 50.106 36.902
14577 1 21.2787 48.568 38.237
14575 1 2.71208 1.60657 38.8162
14567 1 0.896635 1.64071 41.3798
20231 2 1.80548 0.0318918 40.111
14574 1 5.44091 0.0159201 38.8307
14573 1 3.62553 0.0480885 41.3944
20198 2 4.53288 1.62351 40.0964
14478 1 8.16832 1.60657 38.8162
14473 1 9.08177 0.0480885 41.3944
14474 1 6.35287 1.64071 41.3798
20200 2 7.26172 0.0318918 40.111
14480 1 10.8971 0.0159201 38.8307
14279 1 11.8091 1.64071 41.3798
20071 2 9.98912 1.62351 40.0964
14287 1 13.6246 1.60657 38.8162
14285 1 14.538 0.0480885 41.3944
19846 2 15.4454 1.62351 40.0964
20070 2 12.718 0.0318918 40.111
14286 1 16.3534 0.0159201 38.8307
13997 1 17.2653 1.64071 41.3798
19848 2 18.1742 0.0318918 40.111
14592 1 21.8096 0.0159201 38.8307
14000 1 19.0808 1.60657 38.8162
13996 1 19.9942 0.0480885 41.3944
19528 2 20.9016 1.62351 40.0964
14571 1 2.71051 4.78765 38.785
14566 1 0.894894 4.826 41.3485
20232 2 1.80399 3.2151 40.0811
14576 1 5.43944 3.19715 38.8009
14565 1 3.62391 3.23334 41.3645
20197 2 4.53129 4.80665 40.0651
14477 1 8.16675 4.78765 38.785
14466 1 6.35113 4.826 41.3485
14475 1 9.08015 3.23334 41.3645
20196 2 7.26023 3.2151 40.0811
14476 1 10.8957 3.19715 38.8009
14278 1 11.8074 4.826 41.3485
20067 2 9.98753 4.80665 40.0651
14283 1 13.623 4.78765 38.785
14277 1 14.5364 3.23334 41.3645
19845 2 15.4438 4.80665 40.0651
20072 2 12.7165 3.2151 40.0811
14288 1 16.3519 3.19715 38.8009
13991 1 17.2636 4.826 41.3485
19844 2 18.1727 3.2151 40.0811
14590 1 21.8082 3.19715 38.8009
13999 1 19.0792 4.78765 38.785
13998 1 19.9926 3.23334 41.3645
19527 2 20.9 4.80665 40.0651
14570 1 2.70874 7.96843 38.7512
14556 1 0.892906 8.01143 41.3145
20228 2 1.8023 6.39817 40.0485
14569 1 5.43777 6.37808 38.7684
14568 1 3.62205 6.41868 41.3318
20190 2 4.52949 7.98967 40.0311
14470 1 8.16497 7.96843 38.7512
14464 1 9.07829 6.41868 41.3318
14465 1 6.34914 8.01143 41.3145
20199 2 7.25854 6.39817 40.0485
14479 1 10.894 6.37808 38.7684
14267 1 11.8054 8.01143 41.3145
20066 2 9.98573 7.98967 40.0311
14282 1 13.6212 7.96843 38.7512
14280 1 14.5345 6.41868 41.3318
19838 2 15.442 7.98967 40.0311
20065 2 12.7148 6.39817 40.0485
14281 1 16.3502 6.37808 38.7684
13990 1 17.2616 8.01143 41.3145
19847 2 18.171 6.39817 40.0485
14591 1 21.8065 6.37808 38.7684
13994 1 19.0775 7.96843 38.7512
13989 1 19.9908 6.41868 41.3318
19526 2 20.8982 7.98967 40.0311
14560 1 2.70676 11.1489 38.7149
14555 1 0.890665 11.1972 41.2779
20229 2 1.8004 9.58115 40.0131
14572 1 5.43589 9.5587 38.7333
14554 1 3.61994 9.60426 41.2965
20189 2 4.5275 11.1726 39.9945
14469 1 8.163 11.1489 38.7149
14450 1 6.3469 11.1972 41.2779
14467 1 9.07618 9.60426 41.2965
20188 2 7.25664 9.58115 40.0131
14468 1 10.8921 9.5587 38.7333
14266 1 11.8031 11.1972 41.2779
20055 2 9.98374 11.1726 39.9945
14271 1 13.6192 11.1489 38.7149
14265 1 14.5324 9.60426 41.2965
19837 2 15.44 11.1726 39.9945
20068 2 12.7129 9.58115 40.0131
14284 1 16.3484 9.5587 38.7333
13977 1 17.2594 11.1972 41.2779
19836 2 18.1691 9.58115 40.0131
14588 1 21.8046 9.5587 38.7333
13993 1 19.0755 11.1489 38.7149
13992 1 19.9887 9.60426 41.2965
19519 2 20.8962 11.1726 39.9945
14544 1 0.888164 14.3836 41.2389
20224 2 1.79831 12.7641 39.9753
14558 1 5.43382 12.739 38.6959
14557 1 3.61757 12.7903 41.2587
20175 2 4.52533 14.3556 39.9554
14448 1 9.07381 12.7903 41.2587
14449 1 6.3444 14.3836 41.2389
20191 2 7.25455 12.7641 39.9753
14471 1 10.8901 12.739 38.6959
14247 1 11.8006 14.3836 41.2389
20054 2 9.98157 14.3556 39.9554
14268 1 14.53 12.7903 41.2587
19822 2 15.4378 14.3556 39.9554
20053 2 12.7108 12.7641 39.9753
14269 1 16.3463 12.739 38.6959
13976 1 17.2569 14.3836 41.2389
19839 2 18.167 12.7641 39.9753
14589 1 21.8025 12.739 38.6959
13975 1 19.9863 12.7903 41.2587
19518 2 20.894 14.3556 39.9554
14543 1 0.885388 17.571 41.1977
20225 2 1.79607 15.9472 39.935
14542 1 3.61493 15.9771 41.2186
20174 2 4.52303 17.5387 39.9139
14427 1 6.34163 17.571 41.1977
14451 1 9.07117 15.9771 41.2186
20173 2 7.25231 15.9472 39.935
14246 1 11.7979 17.571 41.1977
20035 2 9.97927 17.5387 39.9139
14245 1 14.5274 15.9771 41.2186
19821 2 15.4355 17.5387 39.9139
20056 2 12.7085 15.9472 39.935
13955 1 17.2541 17.571 41.1977
19820 2 18.1648 15.9472 39.935
13978 1 19.9836 15.9771 41.2186
19503 2 20.8917 17.5387 39.9139
20220 2 1.79373 19.1303 39.8922
14532 1 0.882285 20.7601 41.1542
14545 1 3.612 19.1653 41.1762
20159 2 4.52067 20.722 39.8699
14425 1 9.06824 19.1653 41.1762
20176 2 7.24997 19.1303 39.8922
14426 1 6.33852 20.7601 41.1542
14219 1 11.7948 20.7601 41.1542
20034 2 9.9769 20.722 39.8699
14248 1 14.5245 19.1653 41.1762
20033 2 12.7062 19.1303 39.8922
19798 2 15.4331 20.722 39.8699
19823 2 18.1624 19.1303 39.8922
13954 1 17.251 20.7601 41.1542
13953 1 19.9807 19.1653 41.1762
19502 2 20.8894 20.722 39.8699
20221 2 1.79138 22.3137 39.8468
14530 1 3.60868 22.3558 41.1316
14428 1 9.06492 22.3558 41.1316
20157 2 7.24762 22.3137 39.8468
14217 1 14.5212 22.3558 41.1316
20036 2 12.7039 22.3137 39.8468
19796 2 18.1601 22.3137 39.8468
13956 1 19.9774 22.3558 41.1316
14531 1 0.878667 23.9525 41.1084
20216 2 1.78921 25.4972 39.7977
14533 1 3.60462 25.5507 41.0845
20158 2 4.51837 23.9055 39.8228
14401 1 9.06086 25.5507 41.0845
14403 1 6.33491 23.9525 41.1084
20160 2 7.24544 25.4972 39.7977
14218 1 11.7911 23.9525 41.1084
20008 2 9.97461 23.9055 39.8228
14220 1 14.5171 25.5507 41.0845
19797 2 15.4308 23.9055 39.8228
20006 2 12.7017 25.4972 39.7977
13925 1 17.2474 23.9525 41.1084
19799 2 18.1579 25.4972 39.7977
13923 1 19.9733 25.5507 41.0845
19479 2 20.8871 23.9055 39.8228
14520 1 0.873889 27.151 41.0601
20217 2 1.78753 28.6808 39.7434
14518 1 3.59867 28.7541 41.0349
20143 2 4.5164 27.089 39.7714
14402 1 6.33013 27.151 41.0601
14404 1 9.05491 28.7541 41.0349
20141 2 7.24377 28.6808 39.7434
14184 1 11.7864 27.151 41.0601
20007 2 9.97264 27.089 39.7714
14182 1 14.5111 28.7541 41.0349
19766 2 15.4289 27.089 39.7714
20009 2 12.7 28.6808 39.7434
13924 1 17.2426 27.151 41.0601
19764 2 18.1562 28.6808 39.7434
13926 1 19.9674 28.7541 41.0349
19478 2 20.8851 27.089 39.7714
14519 1 0.866053 30.3616 41.0089
20212 2 1.7865 31.8652 39.6799
14521 1 3.588 31.9742 40.982
20142 2 4.51508 30.2726 39.7131
14377 1 9.04424 31.9742 40.982
14379 1 6.32229 30.3616 41.0089
20144 2 7.24274 31.8652 39.6799
14183 1 11.7785 30.3616 41.0089
19980 2 9.97131 30.2726 39.7131
14185 1 14.5005 31.9742 40.982
19765 2 15.4276 30.2726 39.7131
19978 2 12.699 31.8652 39.6799
13887 1 17.2348 30.3616 41.0089
19767 2 18.1552 31.8652 39.6799
13885 1 19.9567 31.9742 40.982
19447 2 20.8838 30.2726 39.7131
14508 1 0.851065 33.5956 40.9525
20213 2 1.78392 35.0588 39.6014
14506 1 3.56513 35.2256 40.9215
20127 2 4.51374 33.4589 39.6431
14378 1 6.3073 33.5956 40.9525
14380 1 9.02137 35.2256 40.9215
20125 2 7.24016 35.0588 39.6014
14148 1 11.7635 33.5956 40.9525
19979 2 9.96998 33.4589 39.6431
14146 1 14.4776 35.2256 40.9215
19727 2 15.4262 33.4589 39.6431
19981 2 12.6964 35.0588 39.6014
13886 1 17.2198 33.5956 40.9525
19725 2 18.1526 35.0588 39.6014
13888 1 19.9338 35.2256 40.9215
19446 2 20.8825 33.4589 39.6431
14507 1 0.817213 36.8768 40.8875
20208 2 1.76966 38.2951 39.4931
20126 2 4.50666 36.6633 39.5545
14509 1 3.53102 38.536 40.8295
14355 1 6.27345 36.8768 40.8875
14353 1 8.98726 38.536 40.8295
20128 2 7.2259 38.2951 39.4931
14147 1 11.7297 36.8768 40.8875
19952 2 9.9629 36.6633 39.5545
19726 2 15.4191 36.6633 39.5545
14149 1 14.4435 38.536 40.8295
19950 2 12.6821 38.2951 39.4931
13842 1 17.1859 36.8768 40.8875
19728 2 18.1384 38.2951 39.4931
19407 2 20.8754 36.6633 39.5545
13840 1 19.8997 38.536 40.8295
14496 1 0.830709 40.1883 40.6685
20209 2 1.61949 41.8406 39.3763
20111 2 4.45511 39.9645 39.4224
14354 1 6.28695 40.1883 40.6685
20109 2 7.07575 41.8406 39.3763
14112 1 11.7432 40.1883 40.6685
19951 2 9.91135 39.9644 39.4224
19687 2 15.3676 39.9645 39.4224
19953 2 12.532 41.8406 39.3763
13841 1 17.1994 40.1883 40.6685
19685 2 17.9882 41.8406 39.3763
19406 2 20.8238 39.9645 39.4224
14495 1 0.743522 43.5125 40.6394
14494 1 3.54842 41.7947 40.5635
20110 2 4.2956 43.6144 39.4136
14356 1 9.00466 41.7947 40.5635
14332 1 6.19977 43.5126 40.6394
14111 1 11.656 43.5126 40.6394
19924 2 9.75187 43.6144 39.4137
14110 1 14.4609 41.7947 40.5635
19686 2 15.2081 43.6144 39.4137
13796 1 17.1122 43.5125 40.6394
13843 1 19.9171 41.7947 40.5635
19360 2 20.6643 43.6144 39.4136
14488 1 0.644643 46.9011 40.7611
20204 2 1.52835 45.302 39.4546
14497 1 3.4063 45.2096 40.722
20096 2 4.23982 46.9376 39.4762
14330 1 8.86254 45.2096 40.722
14331 1 6.10089 46.9011 40.7611
20112 2 6.98455 45.3019 39.4547
14080 1 11.5571 46.9011 40.7611
19923 2 9.69611 46.9375 39.4762
14113 1 14.3188 45.2096 40.722
19648 2 15.1524 46.9375 39.4762
19922 2 12.4408 45.3019 39.4547
13795 1 17.0134 46.9011 40.7611
19688 2 17.897 45.302 39.4546
13794 1 19.775 45.2096 40.722
19359 2 20.6085 46.9376 39.4761
14487 1 0.649848 50.2641 40.7518
20205 2 1.50422 48.5707 39.4875
14486 1 3.37034 48.5821 40.7579
20095 2 4.24226 50.2145 39.4701
14313 1 6.10608 50.2641 40.7518
14333 1 8.82657 48.5821 40.7579
20094 2 6.96058 48.5704 39.4872
14079 1 11.5623 50.2641 40.7518
19897 2 9.69851 50.2145 39.4701
14078 1 14.2828 48.5821 40.7579
19647 2 15.1548 50.2145 39.4701
19925 2 12.4168 48.5704 39.4872
13753 1 17.0186 50.2641 40.7518
19646 2 17.8729 48.5707 39.4875
13797 1 19.7391 48.5821 40.7579
19312 2 20.611 50.2145 39.4701
14563 1 1.81107 0.0804627 43.9565
20194 2 2.71793 1.65776 42.6592
14462 1 4.53839 1.67505 43.9418
20193 2 5.44681 0.0641754 42.6739
14472 1 7.26731 0.0804627 43.9565
20063 2 8.17417 1.65776 42.6592
14275 1 9.99462 1.67505 43.9418
20069 2 10.9031 0.0641754 42.6739
13987 1 15.4509 1.67505 43.9418
14274 1 12.7235 0.0804627 43.9565
19842 2 13.6304 1.65776 42.6592
13995 1 18.1798 0.0804627 43.9565
19841 2 16.3593 0.0641754 42.6739
20230 2 21.8155 0.0641754 42.6739
13632 1 20.9071 1.67505 43.9418
19525 2 19.0866 1.65776 42.6592
14564 1 1.80941 3.26973 43.9263
20186 2 2.71623 4.84508 42.6277
14461 1 4.53661 4.86452 43.9101
20195 2 5.44523 3.25139 42.6438
14460 1 7.26565 3.26973 43.9263
20062 2 8.17247 4.84508 42.6277
14263 1 9.99284 4.86452 43.9101
20061 2 10.9015 3.25139 42.6438
13986 1 15.4491 4.86452 43.9101
14276 1 12.7219 3.26973 43.9263
19834 2 13.6287 4.84508 42.6277
13985 1 18.1781 3.26973 43.9263
19843 2 16.3577 3.25139 42.6438
20226 2 21.8139 3.25139 42.6438
13631 1 20.9053 4.86452 43.9101
19524 2 19.0849 4.84508 42.6277
14552 1 1.80751 6.45945 43.8931
20185 2 2.71431 8.03271 42.5932
14446 1 4.53458 8.05456 43.8755
20184 2 5.44342 6.43884 42.6108
14463 1 7.26374 6.45945 43.8931
20051 2 8.17055 8.03271 42.5932
14262 1 9.99082 8.05456 43.8755
20064 2 10.8997 6.43884 42.6108
13973 1 15.4471 8.05456 43.8755
14261 1 12.72 6.45945 43.8931
19833 2 13.6268 8.03271 42.5932
13988 1 18.1762 6.45945 43.8931
19832 2 16.3559 6.43884 42.6108
20227 2 21.8121 6.43884 42.6108
13630 1 20.9033 8.05456 43.8755
19517 2 19.083 8.03271 42.5932
14553 1 1.80536 9.64991 43.8571
20171 2 2.71217 11.2209 42.5561
14445 1 4.53231 11.2455 43.8381
20187 2 5.44139 9.62671 42.575
14444 1 7.2616 9.64991 43.8571
20050 2 8.16841 11.2209 42.5561
14243 1 9.98854 11.2455 43.8381
20049 2 10.8976 9.62671 42.575
13972 1 15.4448 11.2455 43.8381
14264 1 12.7178 9.64991 43.8571
19818 2 13.6246 11.2209 42.5561
13971 1 18.1741 9.64991 43.8571
19835 2 16.3539 9.62671 42.575
20222 2 21.8101 9.62671 42.575
13623 1 20.901 11.2455 43.8381
19516 2 19.0809 11.2209 42.5561
14540 1 1.80295 12.8415 43.8184
20170 2 2.70983 14.4099 42.5163
14423 1 4.52977 14.438 43.798
20169 2 5.43914 12.8153 42.5365
14447 1 7.25919 12.8415 43.8184
20031 2 8.16607 14.4099 42.5163
14242 1 9.98601 14.438 43.798
20052 2 10.8954 12.8153 42.5365
13951 1 15.4422 14.438 43.798
14241 1 12.7154 12.8415 43.8184
19817 2 13.6223 14.4099 42.5163
13974 1 18.1717 12.8415 43.8184
19816 2 16.3516 12.8153 42.5365
20223 2 21.8079 12.8153 42.5365
13622 1 20.8985 14.438 43.798
19501 2 19.0785 14.4099 42.5163
14541 1 1.80028 16.035 43.777
20155 2 2.7073 17.6002 42.4738
14422 1 4.52695 17.6326 43.7553
20172 2 5.4367 16.0049 42.4954
14421 1 7.25651 16.035 43.777
20030 2 8.16354 17.6002 42.4738
14215 1 9.98318 17.6326 43.7553
20029 2 10.8929 16.0049 42.4954
13950 1 15.4394 17.6326 43.7553
14244 1 12.7128 16.035 43.777
19794 2 13.6198 17.6002 42.4738
13949 1 18.169 16.035 43.777
19819 2 16.3492 16.0049 42.4954
20218 2 21.8054 16.0049 42.4954
13607 1 20.8957 17.6326 43.7553
19500 2 19.076 17.6002 42.4738
14528 1 1.79729 19.2311 43.733
20153 2 5.43411 19.196 42.4515
14424 1 7.25353 19.2311 43.733
20032 2 10.8903 19.196 42.4515
14213 1 12.7098 19.2311 43.733
13952 1 18.166 19.2311 43.733
19792 2 16.3466 19.196 42.4515
20219 2 21.8028 19.196 42.4515
20154 2 2.70465 20.7924 42.4284
14529 1 1.79389 22.4318 43.6859
14399 1 4.52378 20.8308 43.7098
20156 2 5.43141 22.3894 42.4045
20004 2 8.16088 20.7924 42.4284
14397 1 7.25013 22.4318 43.6859
14214 1 9.98002 20.8308 43.7098
20002 2 10.8876 22.3894 42.4045
19793 2 13.6171 20.7924 42.4284
13921 1 15.4363 20.8308 43.7098
14216 1 12.7064 22.4318 43.6859
13919 1 18.1626 22.4318 43.6859
19795 2 16.3439 22.3894 42.4045
19477 2 19.0734 20.7924 42.4284
13606 1 20.8925 20.8308 43.7098
20214 2 21.8001 22.3894 42.4045
14516 1 1.78971 25.6396 43.6352
20139 2 2.70193 23.9873 42.3794
14398 1 4.52006 24.0345 43.6611
20137 2 5.42869 25.5861 42.3532
14400 1 7.24595 25.6396 43.6352
20003 2 8.15817 23.9873 42.3794
14180 1 9.97629 24.0345 43.6611
20005 2 10.8849 25.5861 42.3532
13920 1 15.4325 24.0345 43.6611
14178 1 12.7022 25.6396 43.6352
19762 2 13.6144 23.9873 42.3794
13922 1 18.1584 25.6396 43.6352
19760 2 16.3412 25.5861 42.3532
20215 2 21.7974 25.5861 42.3532
13583 1 20.8888 24.0345 43.6611
19476 2 19.0706 23.9873 42.3794
14517 1 1.78391 28.8593 43.5794
20138 2 2.6992 27.1862 42.3253
14375 1 4.51522 27.2476 43.6081
20140 2 5.42592 28.7881 42.2955
14373 1 7.24015 28.8593 43.5794
19976 2 8.15544 27.1862 42.3253
14179 1 9.97146 27.2476 43.6081
19974 2 10.8822 28.7881 42.2955
13883 1 15.4277 27.2476 43.6081
14181 1 12.6964 28.8593 43.5794
19761 2 13.6117 27.1862 42.3253
13881 1 18.1526 28.8593 43.5794
19763 2 16.3384 28.7881 42.2955
20210 2 21.7946 28.7881 42.2955
13582 1 20.8839 27.2476 43.6081
19445 2 19.0679 27.1862 42.3253
14504 1 1.77478 32.0984 43.5147
20123 2 2.69618 30.3923 42.263
14374 1 4.50807 30.4759 43.5485
20121 2 5.42223 32.0003 42.2273
14376 1 7.23102 32.0984 43.5147
19975 2 8.15242 30.3923 42.263
14144 1 9.96431 30.4759 43.5485
19977 2 10.8785 32.0003 42.2273
13882 1 15.4205 30.4759 43.5485
14142 1 12.6873 32.0984 43.5147
19723 2 13.6087 30.3923 42.263
13884 1 18.1435 32.0984 43.5147
19721 2 16.3347 32.0003 42.2273
20211 2 21.7909 32.0003 42.2273
13551 1 20.8768 30.4759 43.5485
19444 2 19.0649 30.3923 42.263
14505 1 1.76292 35.3659 43.432
20122 2 2.6908 33.6135 42.1873
14351 1 4.49667 33.7281 43.4772
20124 2 5.41342 35.2354 42.142
14349 1 7.21915 35.3659 43.432
19948 2 8.14704 33.6135 42.1873
14143 1 9.95291 33.7281 43.4772
19946 2 10.8697 35.2354 42.142
13838 1 15.4091 33.7281 43.4772
14145 1 12.6754 35.3659 43.432
19722 2 13.6033 33.6135 42.1873
13836 1 18.1316 35.3659 43.432
19724 2 16.3259 35.2354 42.142
20206 2 21.7821 35.2354 42.142
13550 1 20.8654 33.7281 43.4772
19405 2 19.0595 33.6135 42.1873
20107 2 2.67544 36.8721 42.0883
14492 1 1.75149 38.6573 43.2938
14350 1 4.48888 37.0105 43.3683
20105 2 5.38535 38.5393 42.0259
19947 2 8.13168 36.8721 42.0883
14352 1 7.20773 38.6573 43.2938
14108 1 9.94512 37.0105 43.3683
19949 2 10.8416 38.5393 42.0259
13837 1 15.4014 37.0105 43.3683
19683 2 13.5879 36.8721 42.0883
14106 1 12.664 38.6573 43.2938
13839 1 18.1202 38.6573 43.2938
19681 2 16.2978 38.5393 42.0259
13511 1 20.8576 37.0105 43.3683
19404 2 19.0442 36.8721 42.0883
20207 2 21.7541 38.5393 42.0259
20106 2 2.63062 40.2183 41.9609
14328 1 4.45631 40.2971 43.2455
19920 2 8.08686 40.2183 41.9609
14107 1 9.91255 40.2971 43.2455
13792 1 15.3688 40.2971 43.2455
19682 2 13.5431 40.2183 41.9609
13510 1 20.825 40.2971 43.2455
19358 2 18.9993 40.2183 41.9609
14493 1 1.70391 41.9317 43.211
20092 2 2.55891 43.5611 41.9389
20108 2 5.32444 41.8827 41.9329
14327 1 4.41353 43.5611 43.188
14326 1 7.16015 41.9317 43.211
19919 2 8.01515 43.5611 41.9389
19918 2 10.7807 41.8827 41.9329
14076 1 9.86977 43.5611 43.188
14109 1 12.6164 41.9317 43.211
13791 1 15.326 43.5611 43.188
19644 2 13.4714 43.5611 41.9389
19684 2 16.2369 41.8828 41.9329
13790 1 18.0726 41.9317 43.211
20202 2 21.6932 41.8827 41.9329
13465 1 20.7822 43.5611 43.188
19357 2 18.9276 43.5611 41.9389
14484 1 1.67269 45.2235 43.204
20091 2 2.51777 46.9191 41.9881
14312 1 4.38277 46.9016 43.2334
20090 2 5.26043 45.244 41.9691
14329 1 7.12893 45.2235 43.204
19896 2 7.97402 46.9191 41.9881
14075 1 9.83901 46.9016 43.2334
19921 2 10.7167 45.244 41.9691
13752 1 15.2952 46.9016 43.2334
14074 1 12.5852 45.2235 43.204
19643 2 13.4303 46.9191 41.9881
13793 1 18.0414 45.2235 43.204
19642 2 16.1729 45.244 41.9691
20203 2 21.6291 45.244 41.9691
13464 1 20.7515 46.9016 43.2334
19311 2 18.8865 46.9191 41.9881
14485 1 1.64791 48.5867 43.2444
20081 2 2.52012 50.2466 41.9825
14311 1 4.38523 50.2704 43.2277
20093 2 5.24003 48.5825 41.9934
14310 1 7.10415 48.5867 43.2444
19895 2 7.97636 50.2466 41.9825
14049 1 9.84146 50.2704 43.2277
19894 2 10.6963 48.5825 41.9934
13751 1 15.2977 50.2704 43.2277
14077 1 12.5604 48.5867 43.2444
19609 2 13.4326 50.2466 41.9825
13750 1 18.0166 48.5867 43.2444
19645 2 16.1525 48.5825 41.9933
20201 2 21.6088 48.5825 41.9933
13419 1 20.7539 50.2704 43.2277
19310 2 18.8888 50.2466 41.9825
20182 2 0.903909 1.69217 45.2204
14458 1 2.72483 1.70952 46.5021
14562 1 -0.00251697 0.112988 46.5171
20192 2 3.63279 0.0966292 45.2352
14457 1 5.45372 0.112988 46.5171
20058 2 9.08903 0.0966292 45.2352
20059 2 6.36015 1.69217 45.2204
14259 1 8.18107 1.70952 46.5021
19830 2 11.8164 1.69217 45.2204
14273 1 10.91 0.112988 46.5171
19840 2 14.5453 0.0966292 45.2352
13983 1 13.6373 1.70952 46.5021
19522 2 17.2726 1.69217 45.2204
13982 1 16.3662 0.112988 46.5171
19521 2 20.0015 0.0966292 45.2352
13629 1 19.0935 1.70952 46.5021
20181 2 0.902227 4.88361 45.1882
14442 1 2.72313 4.90309 46.4697
14550 1 -0.00411436 3.30621 46.4863
20180 2 3.63121 3.28782 45.2047
14459 1 5.45212 3.30621 46.4863
20047 2 6.35847 4.88361 45.1882
20060 2 9.08745 3.28782 45.2047
14258 1 8.17937 4.90309 46.4697
19829 2 11.8147 4.88361 45.1882
14257 1 10.9084 3.30621 46.4863
19828 2 14.5437 3.28782 45.2047
13969 1 13.6356 4.90309 46.4697
19514 2 17.2709 4.88361 45.1882
13984 1 16.3646 3.30621 46.4863
19523 2 19.9999 3.28782 45.2047
13628 1 19.0918 4.90309 46.4697
20167 2 0.900341 8.07575 45.1531
14441 1 2.72122 8.09761 46.4342
14551 1 -0.0059188 6.5002 46.4523
20183 2 3.62943 6.47957 45.171
14440 1 5.45032 6.5002 46.4523
20045 2 9.08567 6.47957 45.171
20046 2 6.35658 8.07575 45.1531
14239 1 8.17746 8.09761 46.4342
19814 2 11.8128 8.07575 45.1531
14260 1 10.9066 6.5002 46.4523
19831 2 14.5419 6.47957 45.171
13968 1 13.6337 8.09761 46.4342
19513 2 17.2691 8.07575 45.1531
13967 1 16.3628 6.5002 46.4523
19512 2 19.9981 6.47957 45.171
13621 1 19.0899 8.09761 46.4342
20166 2 0.89826 11.269 45.1149
14419 1 2.71911 11.2936 46.3956
20165 2 3.62744 9.6722 45.1344
14443 1 5.44831 9.69537 46.4153
20027 2 6.3545 11.269 45.1149
20048 2 9.08368 9.6722 45.1344
14238 1 8.17534 11.2936 46.3956
19813 2 11.8107 11.269 45.1149
14237 1 10.9045 9.69537 46.4153
19812 2 14.5399 9.6722 45.1344
13947 1 13.6316 11.2936 46.3956
19498 2 17.267 11.269 45.1149
13970 1 16.3608 9.69537 46.4153
14538 1 21.817 9.69537 46.4153
19515 2 19.9962 9.6722 45.1344
13620 1 19.0878 11.2936 46.3956
20151 2 0.896001 14.4638 45.0738
14418 1 2.71679 14.4917 46.3539
20168 2 3.62527 12.8661 45.0947
14417 1 5.44609 12.8923 46.3751
20025 2 9.08151 12.8661 45.0947
20026 2 6.35224 14.4638 45.0738
14211 1 8.17302 14.4917 46.3539
19790 2 11.8085 14.4638 45.0738
14240 1 10.9023 12.8923 46.3751
19815 2 14.5377 12.8661 45.0947
13946 1 13.6293 14.4917 46.3539
19497 2 17.2647 14.4638 45.0738
13945 1 16.3586 12.8923 46.3751
14539 1 21.8148 12.8923 46.3751
19496 2 19.994 12.8661 45.0947
13605 1 19.0855 14.4917 46.3539
20150 2 0.893591 17.6608 45.0296
14395 1 2.71426 17.6929 46.309
20149 2 3.62293 16.062 45.0521
14420 1 5.44367 16.0918 46.3319
20000 2 6.34983 17.6608 45.0296
20028 2 9.07917 16.062 45.0521
14210 1 8.1705 17.6929 46.309
19789 2 11.8061 17.6608 45.0296
14209 1 10.8999 16.0918 46.3319
19788 2 14.5354 16.062 45.0521
13917 1 13.6267 17.6929 46.309
19474 2 17.2623 17.6608 45.0296
13948 1 16.3561 16.0918 46.3319
14526 1 21.8124 16.0918 46.3319
19499 2 19.9916 16.062 45.0521
13604 1 19.083 17.6929 46.309
20152 2 3.62046 19.2605 45.0062
14393 1 5.44103 19.2952 46.2853
19998 2 9.0767 19.2605 45.0062
14212 1 10.8973 19.2952 46.2853
19791 2 14.5329 19.2605 45.0062
13915 1 16.3535 19.2952 46.2853
19472 2 19.9892 19.2605 45.0062
14527 1 21.8097 19.2952 46.2853
20135 2 0.891071 20.8612 44.9818
14394 1 2.71149 20.8988 46.2606
20133 2 3.6179 22.4629 44.9564
14396 1 5.4381 22.5042 46.2348
19999 2 6.34731 20.8612 44.9818
20001 2 9.07414 22.4629 44.9564
14176 1 8.16773 20.8988 46.2606
19758 2 11.8035 20.8612 44.9818
14174 1 10.8943 22.5042 46.2348
19756 2 14.5304 22.4629 44.9564
13916 1 13.624 20.8988 46.2606
19473 2 17.2598 20.8612 44.9818
13918 1 16.3506 22.5042 46.2348
19475 2 19.9866 22.4629 44.9564
14514 1 21.8068 22.5042 46.2348
13581 1 19.0802 20.8988 46.2606
20134 2 0.888461 24.0661 44.9297
14371 1 2.70835 24.1116 46.2077
20136 2 3.61522 25.671 44.9015
14369 1 5.43468 25.7216 46.1792
19970 2 9.07146 25.671 44.9015
19972 2 6.3447 24.0661 44.9297
14175 1 8.16459 24.1116 46.2077
19757 2 11.8009 24.0661 44.9297
14177 1 10.8909 25.7216 46.1792
19759 2 14.5277 25.671 44.9015
13879 1 13.6208 24.1116 46.2077
19442 2 17.2572 24.0661 44.9297
13877 1 16.3472 25.7216 46.1792
19440 2 19.9839 25.671 44.9015
14515 1 21.8034 25.7216 46.1792
13580 1 19.0771 24.1116 46.2077
20119 2 0.885641 27.278 44.8714
14370 1 2.70454 27.3346 46.1488
20117 2 3.6121 28.8877 44.839
14372 1 5.43033 28.9512 46.1161
19971 2 6.34188 27.278 44.8714
19973 2 9.06834 28.8877 44.839
14140 1 8.16077 27.3346 46.1488
19719 2 11.7981 27.278 44.8714
14138 1 10.8866 28.9512 46.1161
19717 2 14.5246 28.8877 44.839
13878 1 13.617 27.3346 46.1488
19441 2 17.2544 27.278 44.8714
13880 1 16.3428 28.9512 46.1161
19443 2 19.9808 28.8877 44.839
14502 1 21.799 28.9512 46.1161
13549 1 19.0733 27.3346 46.1488
20118 2 0.881918 30.5008 44.8038
14347 1 2.69951 30.572 46.0806
20120 2 3.6072 32.1184 44.7651
14345 1 5.4246 32.1973 46.0414
19942 2 9.06344 32.1184 44.7651
19944 2 6.33816 30.5008 44.8038
14139 1 8.15575 30.572 46.0806
19718 2 11.7944 30.5008 44.8038
14141 1 10.8808 32.1973 46.0414
19720 2 14.5197 32.1184 44.7651
13834 1 13.612 30.572 46.0806
19402 2 17.2506 30.5008 44.8038
13832 1 16.3371 32.1973 46.0414
19400 2 19.9759 32.1184 44.7651
14503 1 21.7933 32.1973 46.0414
13548 1 19.0682 30.572 46.0806
20103 2 0.87497 33.7422 44.7222
14346 1 2.69323 33.8273 45.997
20101 2 3.59673 35.3746 44.6744
14348 1 5.41681 35.461 45.9464
19943 2 6.33121 33.7422 44.7222
19945 2 9.05297 35.3746 44.6744
14104 1 8.14947 33.8273 45.997
19679 2 11.7874 33.7422 44.7222
14102 1 10.873 35.461 45.9464
19677 2 14.5092 35.3746 44.6744
13833 1 13.6057 33.8273 45.997
19401 2 17.2437 33.7422 44.7222
13835 1 16.3293 35.461 45.9464
19403 2 19.9654 35.3746 44.6744
14490 1 21.7855 35.461 45.9464
13509 1 19.0619 33.8273 45.997
20102 2 0.858688 37.0156 44.6221
14324 1 2.68076 37.0961 45.8936
20084 2 1.76637 38.7381 47.1267
20104 2 3.57217 38.6603 44.5706
14322 1 5.39694 38.7292 45.8461
19916 2 6.31493 37.0156 44.6221
19914 2 9.02841 38.6603 44.5706
14103 1 8.137 37.0961 45.8936
19913 2 7.22261 38.7381 47.1267
19678 2 11.7712 37.0156 44.6221
14105 1 10.8532 38.7292 45.8461
19680 2 14.4847 38.6603 44.5706
13788 1 13.5932 37.0961 45.8936
19634 2 12.6788 38.7381 47.1267
19355 2 17.2274 37.0156 44.6221
13786 1 16.3094 38.7292 45.8461
19352 2 18.1351 38.7381 47.1267
19353 2 19.9409 38.6603 44.5706
13508 1 19.0495 37.0961 45.8936
14491 1 21.7657 38.7292 45.8461
20088 2 0.827654 40.3048 44.5293
14323 1 2.65416 40.3609 45.8078
19888 2 4.4831 40.3716 47.0922
19915 2 6.28389 40.3048 44.5293
14072 1 8.1104 40.3609 45.8078
19640 2 11.7401 40.3048 44.5293
19635 2 9.93934 40.3716 47.0922
13787 1 13.5666 40.3609 45.8078
19304 2 15.3956 40.3716 47.0922
19354 2 17.1964 40.3048 44.5293
13463 1 19.0229 40.3609 45.8078
19022 2 20.8518 40.3716 47.0922
20087 2 0.787891 43.6012 44.4938
14308 1 2.62763 43.6317 45.7625
20085 2 1.74325 42.0068 47.0667
20086 2 3.5355 41.9514 44.5039
14325 1 5.3681 41.9943 45.7796
19887 2 4.46071 43.6456 47.0504
19917 2 8.99174 41.9514 44.5039
19892 2 6.24413 43.6012 44.4938
14071 1 8.08387 43.6317 45.7625
19886 2 7.19949 42.0068 47.0667
19639 2 11.7004 43.6012 44.4938
14070 1 10.8243 41.9943 45.7796
19604 2 9.91695 43.6456 47.0504
19638 2 14.448 41.9514 44.5039
13748 1 13.5401 43.6317 45.7625
19303 2 15.3732 43.6456 47.0504
19637 2 12.6557 42.0068 47.0667
19308 2 17.1566 43.6012 44.4938
13789 1 16.2806 41.9943 45.7796
19302 2 18.112 42.0068 47.0667
19356 2 19.9042 41.9514 44.5039
14482 1 21.7368 41.9943 45.7796
13462 1 18.9964 43.6317 45.7625
18979 2 20.8294 43.6456 47.0504
20080 2 0.76575 46.92 44.5017
14307 1 2.61722 46.9283 45.7499
20076 2 1.72404 45.2894 47.0413
20089 2 3.50127 45.2566 44.4962
14306 1 5.34812 45.2748 45.7519
19872 2 4.44742 46.938 47.0369
19890 2 8.95751 45.2566 44.4962
19891 2 6.22199 46.92 44.5017
14048 1 8.07346 46.9283 45.7499
19889 2 7.18028 45.2894 47.0413
19608 2 11.6782 46.92 44.5017
14073 1 10.8044 45.2748 45.7519
19603 2 9.90366 46.938 47.0369
19641 2 14.4137 45.2566 44.4962
13747 1 13.5297 46.9283 45.7499
19264 2 15.3599 46.938 47.0369
19602 2 12.6365 45.2894 47.0413
19307 2 17.1345 46.92 44.5017
13746 1 16.2606 45.2748 45.7519
19305 2 18.0928 45.2894 47.0413
19306 2 19.87 45.2566 44.4962
14483 1 21.7168 45.2748 45.7519
13418 1 18.9859 46.9283 45.7499
18978 2 20.8161 46.938 47.0369
20079 2 0.766987 50.2543 44.4992
14297 1 2.61752 50.2469 45.7489
20077 2 1.71797 48.59 47.0355
20078 2 3.49203 48.5875 44.5038
14309 1 5.345 48.5879 45.7497
19871 2 4.44813 50.2416 47.0361
19873 2 6.22323 50.2543 44.4992
19893 2 8.94826 48.5875 44.5038
14047 1 8.07375 50.2469 45.7489
19870 2 7.1742 48.59 47.0355
19607 2 11.6795 50.2543 44.4992
14046 1 10.8012 48.5879 45.7497
19577 2 9.90437 50.2416 47.0361
19606 2 14.4045 48.5875 44.5038
13713 1 13.53 50.2469 45.7489
19263 2 15.3606 50.2416 47.0361
19605 2 12.6304 48.59 47.0355
19265 2 17.1357 50.2543 44.4992
13749 1 16.2575 48.5879 45.7497
19262 2 18.0867 48.59 47.0355
19309 2 19.8607 48.5875 44.5038
14481 1 21.7137 48.5879 45.7497
13417 1 18.9862 50.2469 45.7489
18935 2 20.8168 50.2416 47.0361
20178 2 1.81962 0.129199 47.7951
14438 1 0.912139 1.74405 49.0609
20043 2 4.54702 1.72666 47.7799
14456 1 3.64096 0.145613 49.0763
20057 2 7.27586 0.129199 47.7951
14254 1 9.0972 0.145613 49.0763
14255 1 6.36838 1.74405 49.0609
19826 2 10.0033 1.72666 47.7799
13965 1 11.8246 1.74405 49.0609
19510 2 15.4595 1.72666 47.7799
19825 2 12.7321 0.129199 47.7951
13981 1 14.5534 0.145613 49.0763
19520 2 18.1883 0.129199 47.7951
13626 1 17.2809 1.74405 49.0609
19144 2 20.9157 1.72666 47.7799
13625 1 20.0097 0.145613 49.0763
20179 2 1.81814 3.32429 47.7639
14437 1 0.91061 4.94159 49.0276
20042 2 4.54545 4.92212 47.747
14436 1 3.63951 3.3427 49.0447
20041 2 7.27438 3.32429 47.7639
14235 1 6.36685 4.94159 49.0276
14256 1 9.09575 3.3427 49.0447
19810 2 10.0017 4.92212 47.747
13964 1 11.8231 4.94159 49.0276
19509 2 15.4579 4.92212 47.747
19827 2 12.7306 3.32429 47.7639
13963 1 14.552 3.3427 49.0447
19508 2 18.1869 3.32429 47.7639
13618 1 17.2793 4.94159 49.0276
19143 2 20.9142 4.92212 47.747
13627 1 20.0082 3.3427 49.0447
20163 2 1.81649 6.52021 47.7293
14415 1 0.908932 8.14038 48.9909
20023 2 4.54373 8.1186 47.7108
14439 1 3.63791 6.5408 49.0097
20044 2 7.27273 6.52021 47.7293
14233 1 9.09415 6.5408 49.0097
14234 1 6.36517 8.14038 48.9909
19809 2 9.99997 8.1186 47.7108
13943 1 11.8214 8.14038 48.9909
19494 2 15.4562 8.1186 47.7108
19808 2 12.729 6.52021 47.7293
13966 1 14.5504 6.5408 49.0097
19511 2 18.1852 6.52021 47.7293
13617 1 17.2776 8.14038 48.9909
19142 2 20.9124 8.1186 47.7108
13616 1 20.0066 6.5408 49.0097
20164 2 1.81469 9.71737 47.6915
14414 1 0.907119 11.341 48.9508
20022 2 4.54186 11.3166 47.6713
14413 1 3.63616 9.74041 48.9713
20021 2 7.27093 9.71737 47.6915
14207 1 6.36336 11.341 48.9508
14236 1 9.0924 9.74041 48.9713
19786 2 9.9981 11.3166 47.6713
13942 1 11.8196 11.341 48.9508
19493 2 15.4543 11.3166 47.6713
19811 2 12.7272 9.71737 47.6915
13941 1 14.5486 9.74041 48.9713
19492 2 18.1834 9.71737 47.6915
13602 1 17.2758 11.341 48.9508
19135 2 20.9106 11.3166 47.6713
13619 1 20.0049 9.74041 48.9713
20147 2 1.81276 12.9163 47.6503
14391 1 0.905189 14.5442 48.907
19996 2 4.53988 14.5167 47.6284
14416 1 3.63429 12.9422 48.9293
20024 2 7.269 12.9163 47.6503
14205 1 9.09053 12.9422 48.9293
14206 1 6.36143 14.5442 48.907
19785 2 9.99611 14.5167 47.6284
13913 1 11.8177 14.5442 48.907
19470 2 15.4524 14.5167 47.6284
19784 2 12.7252 12.9163 47.6503
13944 1 14.5468 12.9422 48.9293
19495 2 18.1815 12.9163 47.6503
13601 1 17.2739 14.5442 48.907
19134 2 20.9086 14.5167 47.6284
13600 1 20.003 12.9422 48.9293
20148 2 1.81073 16.1178 47.6056
14390 1 0.903156 17.7511 48.8595
19995 2 4.5378 17.7198 47.5819
14389 1 3.6323 16.1471 48.8838
19994 2 7.26697 16.1178 47.6056
14172 1 6.35939 17.7511 48.8595
14208 1 9.08854 16.1471 48.8838
19754 2 9.99404 17.7198 47.5819
13912 1 11.8156 17.7511 48.8595
19469 2 15.4503 17.7198 47.5819
19787 2 12.7232 16.1178 47.6056
13911 1 14.5448 16.1471 48.8838
19468 2 18.1794 16.1178 47.6056
13578 1 17.2719 17.7511 48.8595
19119 2 20.9065 17.7198 47.5819
13603 1 20.001 16.1471 48.8838
20131 2 1.80862 19.3229 47.5571
14392 1 3.63022 19.3564 48.8342
19997 2 7.26486 19.3229 47.5571
14170 1 9.08646 19.3564 48.8342
19752 2 12.7211 19.3229 47.5571
13914 1 14.5427 19.3564 48.8342
19471 2 18.1773 19.3229 47.5571
13576 1 19.9989 19.3564 48.8342
20132 2 1.80643 22.5328 47.504
14367 1 0.901009 20.9632 48.8077
19963 2 2.72533 20.9894 50.0778
20113 2 -0.00368991 22.598 50.049
19968 2 4.53566 20.9271 47.5312
14365 1 3.62799 22.5718 48.7799
19965 2 5.45255 22.598 50.049
19966 2 7.26267 22.5328 47.504
14171 1 6.35725 20.9632 48.8077
14173 1 9.08423 22.5718 48.7799
19711 2 8.18157 20.9894 50.0778
19753 2 9.9919 20.9271 47.5312
13875 1 11.8135 20.9632 48.8077
19709 2 10.9088 22.598 50.049
19438 2 15.4481 20.9271 47.5312
19755 2 12.7189 22.5328 47.504
13873 1 14.5405 22.5718 48.7799
19433 2 13.6378 20.9894 50.0778
19436 2 18.1751 22.5328 47.504
13577 1 17.2697 20.9632 48.8077
19435 2 16.365 22.598 50.049
19118 2 20.9044 20.9271 47.5312
13579 1 19.9967 22.5718 48.7799
19093 2 19.094 20.9894 50.0778
20115 2 1.80404 25.7496 47.4451
14366 1 0.898674 24.1825 48.7505
19936 2 2.72345 24.2083 50.0186
20114 2 -0.00579856 25.8205 49.9866
19967 2 4.5334 24.1402 47.4754
14368 1 3.6255 25.7955 48.7195
19934 2 5.45044 25.8205 49.9866
19969 2 7.26028 25.7496 47.4451
14134 1 9.08173 25.7955 48.7195
14136 1 6.35491 24.1825 48.7505
19710 2 8.17968 24.2083 50.0186
19715 2 9.98964 24.1402 47.4754
13874 1 11.8112 24.1825 48.7505
19712 2 10.9067 25.8205 49.9866
19437 2 15.4459 24.1402 47.4754
19713 2 12.7165 25.7496 47.4451
13876 1 14.538 25.7955 48.7195
19394 2 13.6359 24.2083 50.0186
19439 2 18.1728 25.7496 47.4451
13546 1 17.2674 24.1825 48.7505
19392 2 16.3629 25.8205 49.9866
19095 2 20.9021 24.1402 47.4754
13544 1 19.9942 25.7955 48.7195
19092 2 19.0922 24.2083 50.0186
20116 2 1.80091 28.9759 47.3782
14343 1 0.895936 27.4112 48.6864
19935 2 2.72096 27.4349 49.9527
20097 2 -0.00889677 29.0518 49.9169
19940 2 4.53074 27.3613 47.4128
14341 1 3.6224 29.0297 48.651
19937 2 5.44734 29.0518 49.9169
19938 2 7.25715 28.9759 47.3782
14135 1 6.35217 27.4112 48.6864
14137 1 9.07864 29.0297 48.651
19671 2 8.1772 27.4349 49.9527
19714 2 9.98698 27.3613 47.4128
13830 1 11.8084 27.4112 48.6864
19669 2 10.9036 29.0518 49.9169
19398 2 15.4432 27.3613 47.4128
19716 2 12.7134 28.9759 47.3782
13828 1 14.5349 29.0297 48.651
19393 2 13.6334 27.4349 49.9527
19396 2 18.1696 28.9759 47.3782
13545 1 17.2647 27.4112 48.6864
19395 2 16.3598 29.0518 49.9169
19094 2 20.8995 27.3613 47.4128
13547 1 19.9911 29.0297 48.651
19061 2 19.0897 27.4349 49.9527
20099 2 1.79563 32.2158 47.3009
14342 1 0.892322 30.6513 48.6128
20098 2 -0.0143652 32.2932 49.8394
19908 2 2.71691 30.6712 49.8791
19939 2 4.5268 30.5939 47.341
14344 1 3.61793 32.2756 48.5717
19906 2 5.44187 32.2932 49.8394
19941 2 7.25187 32.2158 47.3009
14098 1 9.07416 32.2756 48.5717
14100 1 6.34856 30.6513 48.6128
19670 2 8.17315 30.6712 49.8791
19675 2 9.98304 30.5939 47.341
13829 1 11.8048 30.6513 48.6128
19672 2 10.8981 32.2932 49.8394
19397 2 15.4393 30.5939 47.341
19673 2 12.7081 32.2158 47.3009
13831 1 14.5304 32.2756 48.5717
19347 2 13.6294 30.6712 49.8791
19399 2 18.1643 32.2158 47.3009
13506 1 17.261 30.6513 48.6128
19345 2 16.3543 32.2932 49.8394
19063 2 20.8955 30.5939 47.341
13504 1 19.9866 32.2756 48.5717
19060 2 19.0856 30.6712 49.8791
20100 2 1.78486 35.4724 47.2126
14320 1 0.886213 33.9022 48.5278
19907 2 2.70951 33.9174 49.7986
19912 2 4.51934 33.8421 47.2578
14318 1 3.60894 35.53 48.4828
19909 2 5.43219 35.5431 49.7578
19910 2 7.2411 35.4724 47.2126
14099 1 6.34245 33.9022 48.5278
14101 1 9.06517 35.53 48.4828
19632 2 8.16575 33.9174 49.7986
19674 2 9.97558 33.8421 47.2578
13784 1 11.7987 33.9022 48.5278
19630 2 10.8884 35.5431 49.7578
19351 2 15.4318 33.8421 47.2578
19676 2 12.6973 35.4724 47.2126
13782 1 14.5214 35.53 48.4828
19346 2 13.622 33.9174 49.7986
19349 2 18.1536 35.4724 47.2126
13505 1 17.2549 33.9022 48.5278
19348 2 16.3447 35.5431 49.7578
20082 2 21.8009 35.5431 49.7578
19062 2 20.8881 33.8421 47.2578
13507 1 19.9777 35.53 48.4828
19021 2 19.0782 33.9174 49.7986
14319 1 0.873359 37.1576 48.4398
19884 2 2.69758 37.1695 49.7188
19911 2 4.50455 37.1049 47.1677
14068 1 6.3296 37.1576 48.4398
19631 2 8.15382 37.1695 49.7188
19636 2 9.96078 37.1049 47.1677
13783 1 11.7858 37.1576 48.4398
19350 2 15.417 37.1049 47.1677
19300 2 13.6101 37.1695 49.7188
13460 1 17.2421 37.1576 48.4398
19023 2 20.8733 37.1049 47.1677
19020 2 19.0663 37.1695 49.7188
14304 1 0.854658 40.4131 48.3681
19883 2 2.68264 40.4239 49.6523
14321 1 3.59249 38.7852 48.4011
19882 2 5.41837 38.7964 49.6831
14066 1 9.04873 38.7852 48.4011
14067 1 6.3109 40.4131 48.3681
19600 2 8.13888 40.4239 49.6523
19633 2 10.8746 38.7964 49.6831
13744 1 11.7671 40.4131 48.3681
13785 1 14.505 38.7852 48.4011
19299 2 13.5951 40.4239 49.6523
19298 2 16.3309 38.7964 49.6831
13459 1 17.2234 40.4131 48.3681
20083 2 21.7871 38.7964 49.6831
13458 1 19.9612 38.7852 48.4011
18977 2 19.0514 40.4239 49.6523
14303 1 0.838977 43.6748 48.3212
19868 2 2.66873 43.684 49.6084
14302 1 3.57401 42.0425 48.3415
19885 2 5.40336 42.0527 49.6273
14044 1 6.29522 43.6748 48.3212
14069 1 9.03025 42.0425 48.3415
19599 2 8.12497 43.684 49.6084
13743 1 11.7515 43.6748 48.3212
19598 2 10.8596 42.0527 49.6273
13742 1 14.4865 42.0425 48.3415
19260 2 13.5812 43.684 49.6084
13415 1 17.2077 43.6748 48.3212
19301 2 16.3158 42.0527 49.6273
20074 2 21.7721 42.0527 49.6273
13461 1 19.9427 42.0425 48.3415
18976 2 19.0374 43.684 49.6084
14296 1 0.832261 46.9493 48.2976
19867 2 2.66059 46.9546 49.5877
14305 1 3.56264 45.3105 48.3067
19866 2 5.39182 45.3181 49.5954
14042 1 9.01888 45.3105 48.3067
14043 1 6.2885 46.9493 48.2976
19576 2 8.11683 46.9546 49.5877
13712 1 11.7447 46.9493 48.2976
19601 2 10.8481 45.3181 49.5954
13745 1 14.4751 45.3105 48.3067
19259 2 13.5731 46.9546 49.5877
13414 1 17.201 46.9493 48.2976
19258 2 16.3043 45.3181 49.5954
20075 2 21.7605 45.3181 49.5954
13413 1 19.9314 45.3105 48.3067
18934 2 19.0293 46.9546 49.5877
14295 1 0.832499 50.2308 48.2977
19857 2 2.661 50.2302 49.5878
14294 1 3.55993 48.5902 48.2945
19869 2 5.38778 48.5925 49.5852
14025 1 6.28874 50.2308 48.2977
14045 1 9.01617 48.5902 48.2945
19575 2 8.11724 50.2302 49.5878
13711 1 11.745 50.2308 48.2977
19574 2 10.844 48.5925 49.5852
13710 1 14.4724 48.5902 48.2945
19225 2 13.5735 50.2302 49.5878
13374 1 17.2012 50.2308 48.2977
19261 2 16.3003 48.5925 49.5852
20073 2 21.7565 48.5925 49.5852
13416 1 19.9286 48.5902 48.2945
18933 2 19.0297 50.2302 49.5878
20039 2 2.73471 1.76117 50.338
20177 2 0.00723504 0.161835 50.3536
14434 1 1.82896 0.178285 51.6341
20015 2 0.923121 1.79564 52.8948
20038 2 5.46347 0.161835 50.3536
14231 1 4.55647 1.77858 51.6183
20037 2 3.6518 0.19449 52.9108
19806 2 8.19095 1.76117 50.338
14253 1 7.2852 0.178285 51.6341
19801 2 9.10803 0.19449 52.9108
19802 2 6.37936 1.79564 52.8948
19824 2 10.9197 0.161835 50.3536
13961 1 10.0127 1.77858 51.6183
19486 2 11.8356 1.79564 52.8948
19506 2 13.6472 1.76117 50.338
13614 1 15.4689 1.77858 51.6183
13960 1 12.7414 0.178285 51.6341
19504 2 14.5643 0.19449 52.9108
19505 2 16.376 0.161835 50.3536
13624 1 18.1977 0.178285 51.6341
19138 2 17.2918 1.79564 52.8948
19141 2 19.1034 1.76117 50.338
13264 1 20.9252 1.77858 51.6183
19137 2 20.0205 0.19449 52.9108
20019 2 2.73333 4.96051 50.3042
20161 2 0.00591358 3.36071 50.3216
14435 1 1.82771 3.37911 51.6016
20014 2 0.921964 4.99869 52.8599
20040 2 5.46215 3.36071 50.3216
14230 1 4.55517 4.97993 51.584
20013 2 3.65067 3.39702 52.8779
19805 2 8.18957 4.96051 50.3042
14229 1 7.28395 3.37911 51.6016
19778 2 6.3782 4.99869 52.8599
19803 2 9.10691 3.39702 52.8779
19804 2 10.9184 3.36071 50.3216
13939 1 10.0114 4.97993 51.584
19485 2 11.8344 4.99869 52.8599
19490 2 13.6458 4.96051 50.3042
13613 1 15.4676 4.97993 51.584
13962 1 12.7402 3.37911 51.6016
19484 2 14.5631 3.39702 52.8779
19507 2 16.3746 3.36071 50.3216
13612 1 18.1964 3.37911 51.6016
19130 2 17.2907 4.99869 52.8599
19140 2 19.102 4.96051 50.3042
13263 1 20.9239 4.97993 51.584
19139 2 20.0194 3.39702 52.8779
20018 2 2.73185 8.1611 50.2667
20162 2 0.00448226 6.56062 50.2859
14411 1 1.82637 6.5811 51.5655
19988 2 0.920768 8.2031 52.8211
20017 2 5.46072 6.56062 50.2859
14203 1 4.55379 8.1827 51.5459
20016 2 3.64949 6.6007 52.841
19782 2 8.18809 8.1611 50.2667
14232 1 7.2826 6.5811 51.5655
19776 2 9.10573 6.6007 52.841
19777 2 6.37701 8.2031 52.8211
19807 2 10.917 6.56062 50.2859
13938 1 10.01 8.1827 51.5459
19462 2 11.8332 8.2031 52.8211
19489 2 13.6443 8.1611 50.2667
13598 1 15.4663 8.1827 51.5459
13937 1 12.7388 6.5811 51.5655
19487 2 14.562 6.6007 52.841
19488 2 16.3732 6.56062 50.2859
13615 1 18.1951 6.5811 51.5655
19129 2 17.2895 8.2031 52.8211
19133 2 19.1006 8.1611 50.2667
13262 1 20.9225 8.1827 51.5459
19128 2 20.0182 6.6007 52.841
19992 2 2.73029 11.3635 50.2256
20145 2 0.00296074 9.76202 50.2466
14412 1 1.82496 9.7848 51.5255
19987 2 0.919553 11.4094 52.7783
20020 2 5.4592 9.76202 50.2466
14202 1 4.55235 11.3875 51.504
19986 2 3.64828 9.80599 52.8002
19781 2 8.18653 11.3635 50.2256
14201 1 7.28119 9.7848 51.5255
19746 2 6.37579 11.4094 52.7783
19779 2 9.10452 9.80599 52.8002
19780 2 10.9154 9.76202 50.2466
13909 1 10.0086 11.3875 51.504
19461 2 11.832 11.4094 52.7783
19466 2 13.6428 11.3635 50.2256
13597 1 15.4648 11.3875 51.504
13940 1 12.7374 9.7848 51.5255
19460 2 14.5608 9.80599 52.8002
19491 2 16.3717 9.76202 50.2466
13596 1 18.1937 9.7848 51.5255
19114 2 17.2883 11.4094 52.7783
19132 2 19.099 11.3635 50.2256
13255 1 20.9211 11.3875 51.504
19131 2 20.017 9.80599 52.8002
19991 2 2.72868 14.5683 50.1806
20146 2 0.00137311 12.9655 50.2036
14387 1 1.8235 12.9909 51.4816
19960 2 0.918337 14.6183 52.7312
19990 2 5.45761 12.9655 50.2036
14168 1 4.55088 14.5951 51.4581
19989 2 3.64706 13.0135 52.7553
19750 2 8.18492 14.5683 50.1806
14204 1 7.27974 12.9909 51.4816
19744 2 9.1033 13.0135 52.7553
19745 2 6.37458 14.6183 52.7312
19783 2 10.9138 12.9655 50.2036
13908 1 10.0071 14.5951 51.4581
19430 2 11.8308 14.6183 52.7312
19465 2 13.6412 14.5683 50.1806
13574 1 15.4634 14.5951 51.4581
13907 1 12.736 12.9909 51.4816
19463 2 14.5595 13.0135 52.7553
19464 2 16.3701 12.9655 50.2036
13599 1 18.1922 12.9909 51.4816
19113 2 17.2871 14.6183 52.7312
19117 2 19.0974 14.5683 50.1806
13254 1 20.9196 14.5951 51.4581
19112 2 20.0158 13.0135 52.7553
19964 2 2.72703 17.7766 50.1316
20129 2 -0.000256939 16.172 50.1566
14388 1 1.82202 16.2003 51.4335
19959 2 0.917109 17.8307 52.6796
19993 2 5.45598 16.172 50.1566
14167 1 4.5494 17.8066 51.4078
19958 2 3.64585 16.224 52.706
19749 2 8.18327 17.7766 50.1316
14166 1 7.27826 16.2003 51.4335
19707 2 6.37335 17.8307 52.6796
19747 2 9.10208 16.224 52.706
19748 2 10.9122 16.172 50.1566
13871 1 10.0056 17.8066 51.4078
19429 2 11.8296 17.8307 52.6796
19434 2 13.6395 17.7766 50.1316
13573 1 15.4619 17.8066 51.4078
13910 1 12.7345 16.2003 51.4335
19428 2 14.5583 16.224 52.706
19467 2 16.3685 16.172 50.1566
13572 1 18.1907 16.2003 51.4335
19090 2 17.2858 17.8307 52.6796
19116 2 19.0957 17.7766 50.1316
13239 1 20.9181 17.8066 51.4078
19115 2 20.0146 16.224 52.706
20130 2 -0.00192394 19.3823 50.1053
14363 1 1.82053 19.4142 51.3809
19962 2 5.45431 19.3823 50.1053
19961 2 3.64459 19.4385 52.652
14169 1 7.27676 19.4142 51.3809
19705 2 9.10083 19.4385 52.652
19751 2 10.9106 19.3823 50.1053
13869 1 12.733 19.4142 51.3809
19431 2 14.5571 19.4385 52.652
19432 2 16.3668 19.3823 50.1053
13575 1 18.1892 19.4142 51.3809
19088 2 20.0133 19.4385 52.652
14364 1 1.81895 22.634 51.323
19932 2 0.915796 21.0475 52.6231
14132 1 4.54788 21.0233 51.3527
19930 2 3.64317 22.658 52.5928
14130 1 7.27519 22.634 51.323
19706 2 6.37203 21.0475 52.6231
19708 2 9.09941 22.658 52.5928
13870 1 10.0041 21.0233 51.3527
19390 2 11.8283 21.0475 52.6231
13542 1 15.4604 21.0233 51.3527
13872 1 12.7314 22.634 51.323
19388 2 14.5556 22.658 52.5928
13540 1 18.1877 22.634 51.323
19089 2 17.2845 21.0475 52.6231
13238 1 20.9166 21.0233 51.3527
19091 2 20.0119 22.658 52.5928
14339 1 1.81711 25.8609 51.259
19931 2 0.914181 24.2699 52.5611
14131 1 4.54621 24.2465 51.2919
19933 2 3.64124 25.8836 52.528
14133 1 7.27335 25.8609 51.259
19665 2 9.09748 25.8836 52.528
19667 2 6.37042 24.2699 52.5611
13826 1 10.0024 24.2465 51.2919
19389 2 11.8267 24.2699 52.5611
13541 1 15.4587 24.2465 51.2919
13824 1 12.7296 25.8609 51.259
19391 2 14.5537 25.8836 52.528
13543 1 18.1858 25.8609 51.259
19058 2 17.2829 24.2699 52.5611
13215 1 20.9149 24.2465 51.2919
19056 2 20.01 25.8836 52.528
14340 1 1.8145 29.096 51.1876
19904 2 0.911778 27.4989 52.4933
14096 1 4.54408 27.4775 51.2243
19902 2 3.63814 29.116 52.4572
14094 1 7.27074 29.096 51.1876
19666 2 6.36802 27.4989 52.4933
19668 2 9.09438 29.116 52.4572
13825 1 10.0003 27.4775 51.2243
19343 2 11.8243 27.4989 52.4933
13502 1 15.4566 27.4775 51.2243
13827 1 12.727 29.096 51.1876
19341 2 14.5506 29.116 52.4572
13500 1 18.1832 29.096 51.1876
19057 2 17.2805 27.4989 52.4933
13214 1 20.9128 27.4775 51.2243
19059 2 20.0069 29.116 52.4572
14316 1 1.80986 32.3384 51.1092
19903 2 0.907709 30.7347 52.42
14095 1 4.54068 30.7164 51.1492
19905 2 3.63283 32.3549 52.382
14097 1 7.26609 32.3384 51.1092
19626 2 9.08907 32.3549 52.382
19628 2 6.36395 30.7347 52.42
13780 1 9.99692 30.7164 51.1492
19342 2 11.8202 30.7347 52.42
13501 1 15.4532 30.7164 51.1492
13778 1 12.7223 32.3384 51.1092
19344 2 14.5453 32.3549 52.382
13503 1 18.1786 32.3384 51.1092
19018 2 17.2764 30.7347 52.42
13183 1 20.9094 30.7164 51.1492
19016 2 20.0015 32.3549 52.382
14317 1 1.80118 35.5844 51.0289
19880 2 0.900971 33.976 52.344
14064 1 4.53422 33.9612 51.0686
19878 2 3.62463 35.5978 52.3069
14062 1 7.25742 35.5844 51.0289
19627 2 6.35721 33.976 52.344
19629 2 9.08087 35.5978 52.3069
13779 1 9.99046 33.9612 51.0686
19296 2 11.8134 33.976 52.344
13456 1 15.4467 33.9612 51.0686
13781 1 12.7137 35.5844 51.0289
19294 2 14.5371 35.5978 52.3069
13454 1 18.1699 35.5844 51.0289
19017 2 17.2697 33.976 52.344
13182 1 20.9029 33.9612 51.0686
19019 2 19.9933 35.5978 52.3069
19879 2 0.891485 37.2199 52.2718
14063 1 4.52338 37.2077 50.9913
19596 2 6.34772 37.2199 52.2718
13740 1 9.97961 37.2077 50.9913
19295 2 11.804 37.2199 52.2718
13455 1 15.4359 37.2077 50.9913
18974 2 17.2602 37.2199 52.2718
13147 1 20.8921 37.2077 50.9913
14300 1 1.78876 38.8312 50.9571
19864 2 0.880783 40.4652 52.2113
19881 2 3.61425 38.8423 52.2396
14040 1 4.51043 40.4552 50.927
14065 1 7.245 38.8312 50.9571
19594 2 9.07049 38.8423 52.2396
19595 2 6.33702 40.4652 52.2113
13739 1 9.96667 40.4552 50.927
19256 2 11.7933 40.4652 52.2113
13738 1 12.7012 38.8312 50.9571
19297 2 14.5267 38.8423 52.2396
13411 1 15.4229 40.4552 50.927
13457 1 18.1575 38.8312 50.9571
18973 2 17.2495 40.4652 52.2113
18972 2 19.983 38.8423 52.2396
13146 1 20.8791 40.4552 50.927
14301 1 1.77658 42.0802 50.9016
19863 2 0.871499 43.714 52.1686
14039 1 4.50014 43.7066 50.8811
19862 2 3.6039 42.089 52.1875
14038 1 7.23282 42.0802 50.9016
19572 2 6.32774 43.714 52.1686
19597 2 9.06014 42.089 52.1875
13708 1 9.95638 43.7066 50.8811
19255 2 11.784 43.714 52.1686
13410 1 15.4126 43.7066 50.8811
13741 1 12.6891 42.0802 50.9016
19254 2 14.5164 42.089 52.1875
13409 1 18.1453 42.0802 50.9016
18931 2 17.2402 43.714 52.1686
13111 1 20.8689 43.7066 50.8811
18975 2 19.9726 42.089 52.1875
14292 1 1.76889 45.3345 50.8661
19856 2 0.866207 46.9676 52.1469
14024 1 4.4952 46.9635 50.8568
19865 2 3.59634 45.3403 52.155
14041 1 7.22513 45.3345 50.8661
19570 2 9.05257 45.3403 52.155
19571 2 6.32245 46.9676 52.1469
13707 1 9.95144 46.9635 50.8568
19224 2 11.7787 46.9676 52.1469
13373 1 15.4077 46.9635 50.8568
13706 1 12.6814 45.3345 50.8661
19257 2 14.5088 45.3403 52.155
13412 1 18.1376 45.3345 50.8661
18930 2 17.2349 46.9676 52.1469
13110 1 20.8639 46.9635 50.8568
18929 2 19.9651 45.3403 52.155
14293 1 1.76655 48.5931 50.8537
19855 2 0.866452 50.2232 52.1472
14023 1 4.49539 50.2226 50.8571
19854 2 3.59372 48.5954 52.1442
14022 1 7.22278 48.5931 50.8537
19553 2 6.32269 50.2232 52.1472
19573 2 9.04996 48.5954 52.1442
13681 1 9.95163 50.2226 50.8571
19223 2 11.7789 50.2232 52.1472
13372 1 15.4079 50.2226 50.8571
13709 1 12.679 48.5931 50.8537
19222 2 14.5062 48.5954 52.1442
13371 1 18.1353 48.5931 50.8537
18892 2 17.2352 50.2232 52.1472
13075 1 20.8641 50.2226 50.8571
18932 2 19.9624 48.5954 52.1442
14227 1 2.74524 1.81304 54.1745
14433 1 0.0176324 0.210957 54.1907
20011 2 1.84074 0.227121 55.4669
14226 1 5.47387 0.210957 54.1907
19774 2 4.5684 1.83003 55.4505
13935 1 8.20148 1.81304 54.1745
19800 2 7.29698 0.227121 55.4669
13959 1 10.9301 0.210957 54.1907
19482 2 10.0246 1.83003 55.4505
13610 1 13.6577 1.81304 54.1745
19126 2 15.4809 1.83003 55.4505
19481 2 12.7532 0.227121 55.4669
13609 1 16.3863 0.210957 54.1907
19136 2 18.2095 0.227121 55.4669
13261 1 19.114 1.81304 54.1745
18792 2 20.9371 1.83003 55.4505
14199 1 2.74418 5.01801 54.1391
14409 1 0.016594 3.41537 54.1573
20012 2 1.83981 3.43317 55.433
14228 1 5.47283 3.41537 54.1573
19773 2 4.56746 5.0366 55.4145
13934 1 8.20042 5.01801 54.1391
19772 2 7.29605 3.43317 55.433
13933 1 10.9291 3.41537 54.1573
19458 2 10.0237 5.0366 55.4145
13594 1 13.6567 5.01801 54.1391
19125 2 15.4799 5.0366 55.4145
19483 2 12.7523 3.43317 55.433
13611 1 16.3853 3.41537 54.1573
19124 2 18.2085 3.43317 55.433
13260 1 19.1129 5.01801 54.1391
18791 2 20.9362 5.0366 55.4145
14198 1 2.74312 8.22446 54.0996
14410 1 0.0155322 6.62102 54.1199
19984 2 1.83888 6.64037 55.395
14197 1 5.47177 6.62102 54.1199
19742 2 4.56654 8.24454 55.3743
13905 1 8.19936 8.22446 54.0996
19775 2 7.29512 6.64037 55.395
13936 1 10.928 6.62102 54.1199
19457 2 10.0228 8.24454 55.3743
13593 1 13.6556 8.22446 54.0996
19110 2 15.479 8.24454 55.3743
19456 2 12.7514 6.64037 55.395
13592 1 16.3842 6.62102 54.1199
19127 2 18.2076 6.64037 55.395
13253 1 19.1118 8.22446 54.0996
18790 2 20.9353 8.24454 55.3743
14164 1 2.74207 11.433 54.0559
14385 1 0.0144729 9.82841 54.0783
19985 2 1.83797 9.84918 55.3526
14200 1 5.47071 9.82841 54.0783
19741 2 4.56565 11.4543 55.3298
13904 1 8.19831 11.433 54.0559
19740 2 7.29421 9.84918 55.3526
13903 1 10.9269 9.82841 54.0783
19426 2 10.0219 11.4543 55.3298
13570 1 13.6545 11.433 54.0559
19109 2 15.4781 11.4543 55.3298
19459 2 12.7504 9.84918 55.3526
13595 1 16.3832 9.82841 54.0783
19108 2 18.2067 9.84918 55.3526
13252 1 19.1108 11.433 54.0559
18783 2 20.9344 11.4543 55.3298
14163 1 2.74105 14.6443 54.0077
14386 1 0.0134377 13.0382 54.0324
19956 2 1.83709 13.0601 55.3058
14162 1 5.46968 13.0382 54.0324
19703 2 4.56478 14.6666 55.2807
13867 1 8.19729 14.6443 54.0077
19743 2 7.29333 13.0601 55.3058
13906 1 10.9259 13.0382 54.0324
19425 2 10.021 14.6666 55.2807
13569 1 13.6535 14.6443 54.0077
19086 2 15.4773 14.6666 55.2807
19424 2 12.7496 13.0601 55.3058
13568 1 16.3822 13.0382 54.0324
19111 2 18.2058 13.0601 55.3058
13237 1 19.1098 14.6443 54.0077
18782 2 20.9335 14.6666 55.2807
14128 1 2.74006 17.8592 53.9549
14361 1 0.0124335 16.2512 53.9819
19957 2 1.83623 16.2739 55.2544
14165 1 5.46867 16.2512 53.9819
13866 1 8.19629 17.8592 53.9549
19701 2 7.29247 16.2739 55.2544
13865 1 10.9249 16.2512 53.9819
13538 1 13.6525 17.8592 53.9549
19427 2 12.7487 16.2739 55.2544
13571 1 16.3811 16.2512 53.9819
19084 2 18.2049 16.2739 55.2544
13236 1 19.1088 17.8592 53.9549
14362 1 0.0114292 19.4684 53.9266
19928 2 1.83529 19.4913 55.1981
19702 2 4.5639 17.8821 55.2268
14126 1 5.46767 19.4684 53.9266
19704 2 7.29153 19.4913 55.1981
19386 2 10.0201 17.8821 55.2268
13868 1 10.9239 19.4684 53.9266
19085 2 15.4764 17.8821 55.2268
19384 2 12.7478 19.4913 55.1981
13536 1 16.3801 19.4684 53.9266
19087 2 18.204 19.4913 55.1981
18767 2 20.9326 17.8821 55.2268
14127 1 2.73901 21.0788 53.8969
14337 1 0.0103062 22.6906 53.8659
19929 2 1.83409 22.7129 55.1368
14129 1 5.46654 22.6906 53.8659
19663 2 4.56286 21.1015 55.1681
13822 1 8.19525 21.0788 53.8969
19661 2 7.29033 22.7129 55.1368
13820 1 10.9228 22.6906 53.8659
19385 2 10.0191 21.1015 55.1681
13537 1 13.6515 21.0788 53.8969
19054 2 15.4753 21.1015 55.1681
19387 2 12.7466 22.7129 55.1368
13539 1 16.379 22.6906 53.8659
19052 2 18.2028 22.7129 55.1368
13213 1 19.1077 21.0788 53.8969
18766 2 20.9316 21.1015 55.1681
14092 1 2.73774 24.3039 53.8335
14338 1 0.00876112 25.9186 53.7996
19900 2 1.83225 25.9394 55.0706
14090 1 5.465 25.9186 53.7996
19662 2 4.5614 24.3255 55.1043
13821 1 8.19397 24.3039 53.8335
19664 2 7.28849 25.9394 55.0706
13823 1 10.9212 25.9186 53.7996
19339 2 10.0176 24.3255 55.1043
13498 1 13.6502 24.3039 53.8335
19053 2 15.4739 24.3255 55.1043
19337 2 12.7447 25.9394 55.0706
13496 1 16.3775 25.9186 53.7996
19055 2 18.201 25.9394 55.0706
13212 1 19.1065 24.3039 53.8335
18743 2 20.9301 24.3255 55.1043
14091 1 2.73577 27.5347 53.7643
14314 1 0.00614736 29.1522 53.7277
19901 2 1.82919 29.1706 55.0002
14093 1 5.46239 29.1522 53.7277
19624 2 4.55904 27.5544 55.0358
13776 1 8.192 27.5347 53.7643
19622 2 7.28543 29.1706 55.0002
13774 1 10.9186 29.1522 53.7277
19338 2 10.0153 27.5544 55.0358
13497 1 13.6482 27.5347 53.7643
19014 2 15.4715 27.5544 55.0358
19340 2 12.7417 29.1706 55.0002
13499 1 16.3749 29.1522 53.7277
19012 2 18.1979 29.1706 55.0002
13181 1 19.1045 27.5347 53.7643
18742 2 20.9278 27.5544 55.0358
14060 1 2.73223 30.7706 53.6903
14315 1 0.00140394 32.3898 53.6525
19876 2 1.82429 32.4054 54.928
14058 1 5.45764 32.3898 53.6525
19623 2 4.55512 30.7876 54.9641
13775 1 8.18847 30.7706 53.6903
19625 2 7.28053 32.4054 54.928
13777 1 10.9139 32.3898 53.6525
19292 2 10.0114 30.7876 54.9641
13452 1 13.6447 30.7706 53.6903
19013 2 15.4676 30.7876 54.9641
19290 2 12.7368 32.4054 54.928
13450 1 16.3701 32.3898 53.6525
19015 2 18.193 32.4054 54.928
13180 1 19.1009 30.7706 53.6903
18712 2 20.9238 30.7876 54.9641
14059 1 2.72608 34.0094 53.6151
14298 1 -0.00615272 35.6292 53.5789
19877 2 1.81744 35.6421 54.8582
14061 1 5.45009 35.6292 53.5789
19592 2 4.5492 34.0236 54.8924
13736 1 8.18232 34.0094 53.6151
19590 2 7.27367 35.6421 54.8582
13734 1 10.9063 35.6292 53.5789
19291 2 10.0054 34.0236 54.8924
13451 1 13.6386 34.0094 53.6151
18970 2 15.4617 34.0236 54.8924
19293 2 12.7299 35.6421 54.8582
13453 1 16.3626 35.6292 53.5789
18968 2 18.1862 35.6421 54.8582
13145 1 19.0948 34.0094 53.6151
18711 2 20.9179 34.0236 54.8924
14036 1 2.71737 37.249 53.5449
19591 2 4.54161 37.2606 54.826
13735 1 8.17361 37.249 53.5449
19252 2 9.99785 37.2606 54.826
13407 1 13.6298 37.249 53.5449
18969 2 15.4541 37.2606 54.826
13144 1 19.0861 37.249 53.5449
18680 2 20.9103 37.2606 54.826
14299 1 -0.0155136 38.869 53.5137
19860 2 1.80944 38.8793 54.7965
14035 1 2.70801 40.4891 53.486
14034 1 5.44072 38.869 53.5137
19568 2 4.53361 40.4983 54.7704
19593 2 7.26567 38.8793 54.7965
13704 1 8.16425 40.4891 53.486
13737 1 10.897 38.869 53.5137
19251 2 9.98985 40.4983 54.7704
19250 2 12.7219 38.8793 54.7965
13406 1 13.6205 40.4891 53.486
18927 2 15.4461 40.4983 54.7704
13405 1 16.3532 38.869 53.5137
18971 2 18.1782 38.8793 54.7965
13109 1 19.0767 40.4891 53.486
18679 2 20.9023 40.4983 54.7704
14020 1 2.70061 43.7308 53.4432
14290 1 -0.0241872 42.1097 53.4623
19861 2 1.80189 42.1175 54.7482
14037 1 5.43205 42.1097 53.4623
19567 2 4.52696 43.7373 54.7304
13703 1 8.15685 43.7308 53.4432
19566 2 7.25813 42.1175 54.7482
13702 1 10.8883 42.1097 53.4623
19220 2 9.9832 43.7373 54.7304
13369 1 13.6131 43.7308 53.4432
18926 2 15.4394 43.7373 54.7304
19253 2 12.7144 42.1175 54.7482
13408 1 16.3445 42.1097 53.4623
18925 2 18.1706 42.1175 54.7482
13108 1 19.0693 43.7308 53.4432
18648 2 20.8957 43.7373 54.7304
14019 1 2.69677 46.9743 53.4204
19852 2 1.79655 45.3574 54.7175
14018 1 5.42632 45.3524 53.429
19552 2 4.52326 46.978 54.7097
13680 1 8.15301 46.9743 53.4204
19569 2 7.25278 45.3574 54.7175
13705 1 10.8826 45.3524 53.429
19219 2 9.9795 46.978 54.7097
13368 1 13.6092 46.9743 53.4204
18891 2 15.4357 46.978 54.7097
19218 2 12.709 45.3574 54.7175
13367 1 16.3388 45.3524 53.429
18928 2 18.1653 45.3574 54.7175
14291 1 21.795 45.3524 53.429
13074 1 19.0655 46.9743 53.4204
18647 2 20.892 46.978 54.7097
14009 1 2.69693 50.2184 53.4208
19853 2 1.79472 48.5987 54.7072
14021 1 5.42447 48.5964 53.4177
19551 2 4.52343 50.2193 54.71
13679 1 8.15317 50.2184 53.4208
19550 2 7.25096 48.5987 54.7072
13678 1 10.8807 48.5964 53.4177
19193 2 9.97967 50.2193 54.71
13336 1 13.6094 50.2184 53.4208
18890 2 15.4359 50.2193 54.71
19221 2 12.7072 48.5987 54.7072
13370 1 16.3369 48.5964 53.4177
18889 2 18.1634 48.5987 54.7072
14289 1 21.7932 48.5964 53.4177
13073 1 19.0656 50.2184 53.4208
18616 2 20.8921 50.2193 54.71
14195 1 0.934578 1.84739 56.7297
19770 2 2.75795 1.86429 58.0052
20010 2 0.0302224 0.259693 58.022
14225 1 3.66312 0.243587 56.7463
19769 2 5.48646 0.259693 58.022
13930 1 9.11936 0.243587 56.7463
13931 1 6.39082 1.84739 56.7297
19454 2 8.21419 1.86429 58.0052
13590 1 11.8471 1.84739 56.7297
19480 2 10.9427 0.259693 58.022
13608 1 14.5756 0.243587 56.7463
19122 2 13.6704 1.86429 58.0052
13258 1 17.3033 1.84739 56.7297
19121 2 16.3989 0.259693 58.022
13257 1 20.0318 0.243587 56.7463
18789 2 19.1267 1.86429 58.0052
14194 1 0.933756 5.05578 56.6932
19738 2 2.75721 5.07422 57.9682
19982 2 0.0294556 3.46912 57.9873
14193 1 3.66228 3.45144 56.712
19771 2 5.48569 3.46912 57.9873
13901 1 6.38999 5.05578 56.6932
13932 1 9.11852 3.45144 56.712
19453 2 8.21345 5.07422 57.9682
13589 1 11.8462 5.05578 56.6932
19452 2 10.9419 3.46912 57.9873
13588 1 14.5748 3.45144 56.712
19106 2 13.6697 5.07422 57.9682
13250 1 17.3025 5.05578 56.6932
19123 2 16.3982 3.46912 57.9873
13259 1 20.031 3.45144 56.712
18788 2 19.1259 5.07422 57.9682
14160 1 0.93298 8.26558 56.6523
19737 2 2.75652 8.28539 57.9267
19983 2 0.0287345 6.67962 57.948
14196 1 3.66148 6.66048 56.6733
19736 2 5.48497 6.67962 57.948
13899 1 9.11772 6.66048 56.6733
13900 1 6.38922 8.26558 56.6523
19422 2 8.21275 8.28539 57.9267
13566 1 11.8455 8.26558 56.6523
19455 2 10.9412 6.67962 57.948
13591 1 14.574 6.66048 56.6733
19105 2 13.669 8.28539 57.9267
13249 1 17.3017 8.26558 56.6523
19104 2 16.3974 6.67962 57.948
13248 1 20.0302 6.66048 56.6733
18781 2 19.1252 8.28539 57.9267
14159 1 0.93227 11.4773 56.6068
19699 2 2.75589 11.4982 57.8806
19954 2 0.028075 9.89158 57.9043
14158 1 3.66074 9.87117 56.6301
19739 2 5.48431 9.89158 57.9043
13863 1 6.38851 11.4773 56.6068
13902 1 9.11697 9.87117 56.6301
19421 2 8.21212 11.4982 57.8806
13565 1 11.8447 11.4773 56.6068
19420 2 10.9406 9.89158 57.9043
13564 1 14.5732 9.87117 56.6301
19082 2 13.6684 11.4982 57.8806
13234 1 17.301 11.4773 56.6068
19107 2 16.3968 9.89158 57.9043
13251 1 20.0295 9.87117 56.6301
18780 2 19.1246 11.4982 57.8806
14124 1 0.931622 14.6915 56.5567
19698 2 2.75529 14.7133 57.8297
19955 2 0.027468 13.1054 57.8558
14161 1 3.66006 13.0841 56.5824
19697 2 5.48371 13.1054 57.8558
13861 1 9.1163 13.0841 56.5824
13862 1 6.38786 14.6915 56.5567
19382 2 8.21153 14.7133 57.8297
13534 1 11.8441 14.6915 56.5567
19423 2 10.9399 13.1054 57.8558
13567 1 14.5725 13.0841 56.5824
19081 2 13.6678 14.7133 57.8297
13233 1 17.3003 14.6915 56.5567
19080 2 16.3962 13.1054 57.8558
13232 1 20.0288 13.0841 56.5824
18765 2 19.124 14.7133 57.8297
19926 2 0.026861 16.3217 57.8025
14122 1 3.65943 16.2998 56.5298
19700 2 5.4831 16.3217 57.8025
13864 1 9.11567 16.2998 56.5298
19380 2 10.9393 16.3217 57.8025
13532 1 14.5719 16.2998 56.5298
19083 2 16.3956 16.3217 57.8025
13235 1 20.0281 16.2998 56.5298
14123 1 0.93099 17.909 56.5016
19659 2 2.75464 17.9309 57.7741
19927 2 0.026131 19.5409 57.7444
14125 1 3.65876 19.5191 56.4722
19657 2 5.48237 19.5409 57.7444
13818 1 6.38723 17.909 56.5016
19381 2 8.21088 17.9309 57.7741
13816 1 9.115 19.5191 56.4722
13533 1 11.8435 17.909 56.5016
19383 2 10.9386 19.5409 57.7444
19050 2 13.6671 17.9309 57.7741
13535 1 14.5712 19.5191 56.4722
13210 1 17.2997 17.909 56.5016
19048 2 16.3948 19.5409 57.7444
18764 2 19.1234 17.9309 57.7741
13208 1 20.0275 19.5191 56.4722
14088 1 0.930246 21.1302 56.4415
19658 2 2.75377 21.1517 57.7136
19898 2 0.0250482 22.7634 57.6817
14086 1 3.65787 22.7423 56.4096
19660 2 5.48129 22.7634 57.6817
13817 1 6.38648 21.1302 56.4415
13819 1 9.11411 22.7423 56.4096
19335 2 8.21001 21.1517 57.7136
13494 1 11.8427 21.1302 56.4415
19333 2 10.9375 22.7634 57.6817
13492 1 14.5704 22.7423 56.4096
19049 2 13.6662 21.1517 57.7136
13209 1 17.299 21.1302 56.4415
19051 2 16.3938 22.7634 57.6817
13211 1 20.0266 22.7423 56.4096
18741 2 19.1225 21.1517 57.7136
14087 1 0.929117 24.3555 56.3765
19620 2 2.75239 24.3759 57.6488
19899 2 0.0232521 25.9892 57.615
14089 1 3.65638 25.9696 56.3423
19618 2 5.47949 25.9892 57.615
13770 1 9.11262 25.9696 56.3423
13772 1 6.38536 24.3555 56.3765
19334 2 8.20862 24.3759 57.6488
13493 1 11.8416 24.3555 56.3765
19336 2 10.9357 25.9892 57.615
13495 1 14.5689 25.9696 56.3423
19010 2 13.6649 24.3759 57.6488
13178 1 17.2978 24.3555 56.3765
19008 2 16.392 25.9892 57.615
13176 1 20.0251 25.9696 56.3423
18740 2 19.1211 24.3759 57.6488
14056 1 0.927111 27.5847 56.3071
19619 2 2.75007 27.6033 57.5806
19874 2 0.0203005 29.2179 57.5458
14054 1 3.65369 29.2005 56.2713
19621 2 5.47654 29.2179 57.5458
13771 1 6.38335 27.5847 56.3071
13773 1 9.10993 29.2005 56.2713
19288 2 8.2063 27.6033 57.5806
13448 1 11.8396 27.5847 56.3071
19286 2 10.9328 29.2179 57.5458
13446 1 14.5662 29.2005 56.2713
19009 2 13.6625 27.6033 57.5806
13177 1 17.2958 27.5847 56.3071
19011 2 16.389 29.2179 57.5458
13179 1 20.0224 29.2005 56.2713
18710 2 19.1188 27.6033 57.5806
14055 1 0.923561 30.8168 56.2353
19588 2 2.7464 30.833 57.5109
19875 2 0.0158811 32.4483 57.4765
14057 1 3.64917 32.4334 56.1995
19586 2 5.47212 32.4483 57.4765
13730 1 9.1054 32.4334 56.1995
13732 1 6.3798 30.8168 56.2353
19287 2 8.20264 30.833 57.5109
13447 1 11.836 30.8168 56.2353
19289 2 10.9284 32.4483 57.4765
13449 1 14.5616 32.4334 56.1995
18966 2 13.6589 30.833 57.5109
13142 1 17.2923 30.8168 56.2353
18964 2 16.3846 32.4483 57.4765
13140 1 20.0179 32.4334 56.1995
18709 2 19.1151 30.833 57.5109
14032 1 0.918046 34.0502 56.1646
19587 2 2.74126 34.0638 57.4431
19858 2 0.010124 35.6793 57.4112
14030 1 3.64277 35.6669 56.1312
19589 2 5.46636 35.6793 57.4112
13731 1 6.37428 34.0502 56.1646
13733 1 9.09901 35.6669 56.1312
19248 2 8.1975 34.0638 57.4431
13403 1 11.8305 34.0502 56.1646
19246 2 10.9226 35.6793 57.4112
13401 1 14.5552 35.6669 56.1312
18965 2 13.6537 34.0638 57.4431
13141 1 17.2868 34.0502 56.1646
18967 2 16.3788 35.6793 57.4112
13143 1 20.0115 35.6669 56.1312
18678 2 19.11 34.0638 57.4431
14031 1 0.911022 37.2836 56.0998
19564 2 2.73507 37.2947 57.3813
13700 1 6.36726 37.2836 56.0998
19247 2 8.19131 37.2947 57.3813
13402 1 11.8235 37.2836 56.0998
18923 2 13.6475 37.2947 57.3813
13106 1 17.2797 37.2836 56.0998
18677 2 19.1038 37.2947 57.3813
19859 2 0.00376165 38.91 57.354
14016 1 0.903862 40.5168 56.0456
19563 2 2.72883 40.5253 57.3298
14033 1 3.63547 38.9002 56.0711
19562 2 5.46 38.91 57.354
13672 1 4.55463 40.5401 58.6055
13698 1 9.09171 38.9002 56.0711
13699 1 6.3601 40.5168 56.0456
19216 2 8.18507 40.5253 57.3298
19249 2 10.9162 38.91 57.354
13365 1 11.8163 40.5168 56.0456
13360 1 10.0109 40.5401 58.6055
13404 1 14.548 38.9002 56.0711
18922 2 13.6413 40.5253 57.3298
13067 1 15.4671 40.5401 58.6055
18921 2 16.3725 38.91 57.354
13105 1 17.2726 40.5168 56.0456
13104 1 20.0042 38.9002 56.0711
18646 2 19.0975 40.5253 57.3298
12879 1 20.9233 40.5401 58.6055
14015 1 0.898177 43.75 56.0062
19548 2 2.72378 43.7559 57.2928
19850 2 -0.00203692 42.1406 57.3093
14013 1 1.82402 42.1531 58.5854
14014 1 3.62887 42.1334 56.0238
19565 2 5.4542 42.1406 57.3093
13671 1 4.55008 43.7659 58.5693
13676 1 6.35442 43.75 56.0062
13701 1 9.08511 42.1334 56.0238
19215 2 8.18002 43.7559 57.2928
13670 1 7.28026 42.1531 58.5854
13364 1 11.8107 43.75 56.0062
19214 2 10.9104 42.1406 57.3093
13331 1 10.0063 43.7659 58.5693
13363 1 14.5413 42.1334 56.0238
18887 2 13.6363 43.7559 57.2928
13066 1 15.4626 43.7659 58.5693
13362 1 12.7365 42.1531 58.5854
13071 1 17.2669 43.75 56.0062
18924 2 16.3667 42.1406 57.3093
13065 1 18.1927 42.1531 58.5854
13107 1 19.9976 42.1334 56.0238
18645 2 19.0925 43.7559 57.2928
12856 1 20.9188 43.7659 58.5693
14008 1 0.895138 46.9833 55.9855
19547 2 2.72102 46.9867 57.2736
19851 2 -0.00605499 45.3713 57.2808
14004 1 1.82043 45.3786 58.5576
14017 1 3.6244 45.3666 55.9933
19546 2 5.45018 45.3713 57.2808
13656 1 4.54763 46.9912 58.5505
13674 1 9.08064 45.3666 55.9933
13675 1 6.35138 46.9833 55.9855
19192 2 8.17726 46.9867 57.2736
13673 1 7.27667 45.3786 58.5576
13335 1 11.8076 46.9833 55.9855
19217 2 10.9064 45.3713 57.2808
13330 1 10.0039 46.9912 58.5505
13366 1 14.5369 45.3666 55.9933
18886 2 13.6335 46.9867 57.2736
13039 1 15.4601 46.9912 58.5505
13329 1 12.7329 45.3786 58.5576
13070 1 17.2639 46.9833 55.9855
18885 2 16.3627 45.3713 57.2808
13068 1 18.1891 45.3786 58.5576
13069 1 19.9931 45.3666 55.9933
18615 2 19.0897 46.9867 57.2736
12855 1 20.9163 46.9912 58.5505
14007 1 0.895284 50.2166 55.9858
19537 2 2.72116 50.2176 57.2739
19849 2 -0.00740586 48.6022 57.2713
14005 1 1.81924 48.6036 58.5482
14006 1 3.62292 48.5999 55.983
19549 2 5.44883 48.6022 57.2713
13655 1 4.54777 50.2161 58.5508
13657 1 6.35152 50.2166 55.9858
13677 1 9.07916 48.5999 55.983
19191 2 8.1774 50.2176 57.2739
13654 1 7.27548 48.6036 58.5482
13334 1 11.8078 50.2166 55.9858
19190 2 10.9051 48.6022 57.2713
13306 1 10.004 50.2161 58.5508
13333 1 14.5354 48.5999 55.983
18856 2 13.6336 50.2176 57.2739
13038 1 15.4602 50.2161 58.5508
13332 1 12.7317 48.6036 58.5482
13040 1 17.264 50.2166 55.9858
18888 2 16.3613 48.6022 57.2713
13037 1 18.188 48.6036 58.5482
13072 1 19.9916 48.5999 55.983
18614 2 19.0899 50.2176 57.2739
12832 1 20.9165 50.2161 58.5508
14191 1 1.85285 0.276147 59.301
19734 2 0.947945 1.89842 60.559
13897 1 4.58063 1.8816 59.284
19768 2 3.6764 0.292175 60.5763
13929 1 7.30909 0.276147 59.301
19449 2 9.13264 0.292175 60.5763
19450 2 6.40418 1.89842 60.559
13586 1 10.0369 1.8816 59.284
19102 2 11.8604 1.89842 60.559
13246 1 15.4931 1.8816 59.284
13585 1 12.7653 0.276147 59.301
19120 2 14.5889 0.292175 60.5763
13256 1 18.2216 0.276147 59.301
18786 2 17.3167 1.89842 60.559
12976 1 20.9493 1.8816 59.284
18785 2 20.0451 0.292175 60.5763
14192 1 1.85218 3.48729 59.2658
19733 2 0.947328 5.11153 60.5212
13896 1 4.57999 5.09323 59.2465
19732 2 3.67575 3.50486 60.5407
13895 1 7.30842 3.48729 59.2658
19418 2 6.40357 5.11153 60.5212
19451 2 9.13198 3.50486 60.5407
13562 1 10.0362 5.09323 59.2465
19101 2 11.8598 5.11153 60.5212
13245 1 15.4925 5.09323 59.2465
13587 1 12.7647 3.48729 59.2658
19100 2 14.5882 3.50486 60.5407
13244 1 18.2209 3.48729 59.2658
18778 2 17.316 5.11153 60.5212
12975 1 20.9487 5.09323 59.2465
18787 2 20.0445 3.50486 60.5407
14156 1 1.85158 6.69949 59.226
19695 2 0.946795 8.3257 60.4786
13859 1 4.57943 8.30609 59.2043
19735 2 3.67517 6.71847 60.5005
13898 1 7.30782 6.69949 59.226
19416 2 9.13141 6.71847 60.5005
19417 2 6.40303 8.3257 60.4786
13561 1 10.0357 8.30609 59.2043
19078 2 11.8593 8.3257 60.4786
13230 1 15.4919 8.30609 59.2043
13560 1 12.7641 6.69949 59.226
19103 2 14.5876 6.71847 60.5005
13247 1 18.2203 6.69949 59.226
18777 2 17.3155 8.3257 60.4786
12974 1 20.9481 8.30609 59.2043
18776 2 20.0439 6.71847 60.5005
14157 1 1.85108 9.9131 59.1815
19694 2 0.946339 11.5412 60.4311
13858 1 4.57898 11.5206 59.1574
19693 2 3.67468 9.93327 60.4555
13857 1 7.30731 9.9131 59.1815
19378 2 6.40258 11.5412 60.4311
19419 2 9.13092 9.93327 60.4555
13530 1 10.0352 11.5206 59.1574
19077 2 11.8588 11.5412 60.4311
13229 1 15.4915 11.5206 59.1574
13563 1 12.7636 9.9131 59.1815
19076 2 14.5872 9.93327 60.4555
13228 1 18.2198 9.9131 59.1815
18762 2 17.3151 11.5412 60.4311
12967 1 20.9477 11.5206 59.1574
18779 2 20.0434 9.93327 60.4555
14120 1 1.85066 13.1286 59.1321
19655 2 0.94591 14.7584 60.3788
13814 1 4.57859 14.7371 59.1055
19696 2 3.67425 13.1496 60.4056
13860 1 7.3069 13.1286 59.1321
19376 2 9.13048 13.1496 60.4056
19377 2 6.40215 14.7584 60.3788
13529 1 10.0348 14.7371 59.1055
19046 2 11.8584 14.7584 60.3788
13206 1 15.4911 14.7371 59.1055
13528 1 12.7631 13.1286 59.1321
19079 2 14.5867 13.1496 60.4056
13231 1 18.2194 13.1286 59.1321
18761 2 17.3146 14.7584 60.3788
12966 1 20.9473 14.7371 59.1055
18760 2 20.043 13.1496 60.4056
14121 1 1.85027 16.3463 59.0778
19653 2 3.67379 16.3677 60.3509
13812 1 7.30651 16.3463 59.0778
19379 2 9.13003 16.3677 60.3509
13531 1 12.7628 16.3463 59.0778
19044 2 14.5863 16.3677 60.3509
13204 1 18.219 16.3463 59.0778
18763 2 20.0425 16.3677 60.3509
19654 2 0.945392 17.9776 60.3218
14084 1 1.84979 19.5666 59.0186
13813 1 4.57818 17.9561 59.0488
19656 2 3.67316 19.588 60.2916
19331 2 6.40163 17.9776 60.3218
13815 1 7.30603 19.5666 59.0186
19329 2 9.1294 19.588 60.2916
13490 1 10.0344 17.9561 59.0488
19045 2 11.8579 17.9776 60.3218
13205 1 15.4907 17.9561 59.0488
13488 1 12.7623 19.5666 59.0186
19047 2 14.5856 19.588 60.2916
18738 2 17.3141 17.9776 60.3218
13207 1 18.2185 19.5666 59.0186
12951 1 20.9469 17.9561 59.0488
18736 2 20.0419 19.588 60.2916
14085 1 1.84897 22.7898 58.9548
19616 2 0.944592 21.1989 60.2603
13768 1 4.57756 21.1779 58.9872
19614 2 3.67212 22.8103 60.2281
13766 1 7.30521 22.7898 58.9548
19330 2 6.40083 21.1989 60.2603
19332 2 9.12836 22.8103 60.2281
13489 1 10.0338 21.1779 58.9872
19006 2 11.8571 21.1989 60.2603
13174 1 15.49 21.1779 58.9872
13491 1 12.7615 22.7898 58.9548
19004 2 14.5846 22.8103 60.2281
13172 1 18.2177 22.7898 58.9548
18737 2 17.3133 21.1989 60.2603
12950 1 20.9463 21.1779 58.9872
18739 2 20.0408 22.8103 60.2281
14052 1 1.84745 26.0156 58.8874
19615 2 0.943233 24.4223 60.1951
13724 1 2.76722 24.446 61.4687
14051 1 0.0382039 26.058 61.4349
13767 1 4.57645 24.4024 58.9215
19617 2 3.67036 26.0346 60.1615
13722 1 5.49444 26.058 61.4349
13769 1 7.30369 26.0156 58.8874
19282 2 9.1266 26.0346 60.1615
19284 2 6.39947 24.4223 60.1951
13439 1 8.22345 24.446 61.4687
13444 1 10.0327 24.4024 58.9215
19005 2 11.8557 24.4223 60.1951
13441 1 10.9507 26.058 61.4349
13173 1 15.4889 24.4024 58.9215
13442 1 12.7599 26.0156 58.8874
19007 2 14.5828 26.0346 60.1615
13134 1 13.6797 24.446 61.4687
13175 1 18.2162 26.0156 58.8874
18707 2 17.3119 24.4223 60.1951
13132 1 16.4069 26.058 61.4349
12928 1 20.9452 24.4024 58.9215
18705 2 20.0391 26.0346 60.1615
12925 1 19.1359 24.446 61.4687
14053 1 1.84476 29.2432 58.8179
19584 2 0.940988 27.6473 60.1276
13723 1 2.76517 27.6701 61.4009
14026 1 0.0356088 29.2822 61.367
13728 1 4.5744 27.6292 58.8528
19582 2 3.66757 29.2602 60.0937
13725 1 5.49185 29.2822 61.367
13726 1 7.301 29.2432 58.8179
19283 2 6.39723 27.6473 60.1276
19285 2 9.12381 29.2602 60.0937
13395 1 8.22141 27.6701 61.4009
13443 1 10.0306 27.6292 58.8528
18962 2 11.8535 27.6473 60.1276
13393 1 10.9481 29.2822 61.367
13138 1 15.4869 27.6292 58.8528
13445 1 12.7572 29.2432 58.8179
18960 2 14.58 29.2602 60.0937
13133 1 13.6776 27.6701 61.4009
13136 1 18.2135 29.2432 58.8179
18706 2 17.3097 27.6473 60.1276
13135 1 16.4043 29.2822 61.367
12927 1 20.9431 27.6292 58.8528
18708 2 20.0363 29.2602 60.0937
12902 1 19.1339 27.6701 61.4009
14028 1 1.84061 32.4715 58.7492
19583 2 0.937614 30.8732 60.0601
13692 1 2.76199 30.8942 61.3336
14027 1 0.0318672 32.506 61.301
13727 1 4.57099 30.8573 58.7833
19585 2 3.66362 32.4862 60.0272
13690 1 5.48811 32.506 61.301
13729 1 7.29685 32.4715 58.7492
19242 2 9.11985 32.4862 60.0272
19244 2 6.39385 30.8732 60.0601
13394 1 8.21823 30.8942 61.3336
13399 1 10.0272 30.8573 58.7833
18961 2 11.8501 30.8732 60.0601
13396 1 10.9443 32.506 61.301
13137 1 15.4835 30.8573 58.7833
13397 1 12.7531 32.4715 58.7492
18963 2 14.5761 32.4862 60.0272
13098 1 13.6745 30.8942 61.3336
13139 1 18.2093 32.4715 58.7492
18675 2 17.3063 30.8732 60.0601
13096 1 16.4006 32.506 61.301
12904 1 20.9397 30.8573 58.7833
18673 2 20.0323 32.4862 60.0272
12901 1 19.1307 30.8942 61.3336
14029 1 1.83519 35.6996 58.685
19560 2 0.933137 34.0991 59.9954
13691 1 2.75775 34.1176 61.2697
13696 1 4.56614 34.0856 58.7163
13694 1 7.29143 35.6996 58.685
19243 2 6.38937 34.0991 59.9954
13357 1 8.21399 34.1176 61.2697
13398 1 10.0224 34.0856 58.7163
18919 2 11.8456 34.0991 59.9954
13102 1 15.4786 34.0856 58.7163
13400 1 12.7477 35.6996 58.685
13097 1 13.6702 34.1176 61.2697
13100 1 18.2039 35.6996 58.685
18674 2 17.3019 34.0991 59.9954
12903 1 20.9349 34.0856 58.7163
12878 1 19.1265 34.1176 61.2697
14010 1 0.0272268 35.7289 61.24
19559 2 0.927982 37.3242 59.9373
13668 1 2.75288 37.3399 61.2125
19558 2 3.65872 35.7118 59.9653
13693 1 5.48347 35.7289 61.24
13695 1 4.56036 37.3133 58.6557
19245 2 9.11496 35.7118 59.9653
19212 2 6.38422 37.3242 59.9373
13356 1 8.20911 37.3399 61.2125
13355 1 10.9397 35.7289 61.24
13361 1 10.0166 37.3133 58.6557
18918 2 11.8405 37.3242 59.9373
18917 2 14.5712 35.7118 59.9653
13101 1 15.4728 37.3133 58.6557
13063 1 13.6654 37.3399 61.2125
13099 1 16.3959 35.7289 61.24
18643 2 17.2967 37.3242 59.9373
18676 2 20.0274 35.7118 59.9653
12880 1 20.9291 37.3133 58.6557
12877 1 19.1216 37.3399 61.2125
14012 1 1.82929 38.9268 58.6291
19544 2 0.922936 40.5484 59.8894
13667 1 2.74814 40.5606 61.1656
14011 1 0.0223193 38.9504 61.1875
19561 2 3.65351 38.9365 59.9118
13666 1 5.47856 38.9504 61.1875
13697 1 7.28553 38.9268 58.6291
19210 2 9.10975 38.9365 59.9118
19211 2 6.37917 40.5484 59.8894
13327 1 8.20438 40.5606 61.1656
18883 2 11.8354 40.5484 59.8894
13358 1 10.9348 38.9504 61.1875
13359 1 12.7418 38.9268 58.6291
18920 2 14.566 38.9365 59.9118
13062 1 13.6606 40.5606 61.1656
13103 1 18.198 38.9268 58.6291
18642 2 17.2917 40.5484 59.8894
13061 1 16.391 38.9504 61.1875
18641 2 20.0222 38.9365 59.9118
12854 1 19.1169 40.5606 61.1656
19543 2 0.918925 43.7718 59.8551
13652 1 2.74441 43.78 61.1321
14002 1 0.0179812 42.1705 61.147
19542 2 3.64886 42.1602 59.8704
13669 1 5.47422 42.1705 61.147
19188 2 6.37516 43.7718 59.8551
19213 2 9.1051 42.1602 59.8704
13326 1 8.20065 43.78 61.1321
18882 2 11.8314 43.7718 59.8551
13325 1 10.9305 42.1705 61.147
18881 2 14.5613 42.1602 59.8704
13035 1 13.6569 43.78 61.1321
18612 2 17.2876 43.7718 59.8551
13064 1 16.3867 42.1705 61.147
18644 2 20.0176 42.1602 59.8704
12853 1 19.1131 43.78 61.1321
19536 2 0.916757 46.9946 59.8374
13651 1 2.74241 46.9985 61.1148
14003 1 0.0150367 45.3893 61.1213
19545 2 3.64569 45.3832 59.8441
13650 1 5.47128 45.3893 61.1213
19186 2 9.10193 45.3832 59.8441
19187 2 6.373 46.9946 59.8374
13305 1 8.19864 46.9985 61.1148
18855 2 11.8292 46.9946 59.8374
13328 1 10.9275 45.3893 61.1213
18884 2 14.5582 45.3832 59.8441
13034 1 13.6549 46.9985 61.1148
18611 2 17.2855 46.9946 59.8374
13033 1 16.3838 45.3893 61.1213
18610 2 20.0144 45.3832 59.8441
12831 1 19.1111 46.9985 61.1148
19535 2 0.916892 50.2172 59.8377
13641 1 2.74255 50.2166 61.115
14001 1 0.0140813 48.6075 61.1127
19534 2 3.64465 48.6059 59.8352
13653 1 5.47032 48.6075 61.1127
19169 2 6.37313 50.2172 59.8377
19189 2 9.10088 48.6059 59.8352
13304 1 8.19879 50.2166 61.115
18854 2 11.8294 50.2172 59.8377
13303 1 10.9266 48.6075 61.1127
18853 2 14.5571 48.6059 59.8352
13012 1 13.655 50.2166 61.115
18585 2 17.2856 50.2172 59.8377
13036 1 16.3828 48.6075 61.1127
18613 2 20.0134 48.6059 59.8352
12830 1 19.1113 50.2166 61.115
13893 1 2.77081 1.9157 61.8376
14190 1 0.0429953 0.308636 61.8551
19730 2 1.86673 0.324535 63.1297
13851 1 0.961259 1.94979 64.3911
13892 1 5.49923 0.308636 61.8551
19414 2 4.59453 1.93239 63.1121
13891 1 3.68968 0.341157 64.4088
13558 1 8.22705 1.9157 61.8376
19448 2 7.32296 0.324535 63.1297
13553 1 9.14592 0.341157 64.4088
13554 1 6.4175 1.94979 64.3911
13584 1 10.9555 0.308636 61.8551
19098 2 10.0508 1.93239 63.1121
13222 1 11.8737 1.94979 64.3911
13242 1 13.6833 1.9157 61.8376
18774 2 15.507 1.93239 63.1121
19097 2 12.7792 0.324535 63.1297
13240 1 14.6022 0.341157 64.4088
13241 1 16.4117 0.308636 61.8551
18784 2 18.2354 0.324535 63.1297
12970 1 17.33 1.94979 64.3911
12973 1 19.1395 1.9157 61.8376
18536 2 20.9632 1.93239 63.1121
12969 1 20.0584 0.341157 64.4088
13855 1 2.77028 5.13041 61.7993
14154 1 0.0424109 3.52295 61.8191
19731 2 1.86612 3.5404 63.0934
13850 1 0.96074 5.16748 64.352
13894 1 5.49865 3.52295 61.8191
19413 2 4.59397 5.14858 63.0735
13849 1 3.6891 3.55856 64.3722
13557 1 8.22651 5.13041 61.7993
19412 2 7.32236 3.5404 63.0934
13522 1 6.41698 5.16748 64.352
13555 1 9.14534 3.55856 64.3722
13556 1 10.9549 3.52295 61.8191
19074 2 10.0502 5.14858 63.0735
13221 1 11.8732 5.16748 64.352
13226 1 13.6828 5.13041 61.7993
18773 2 15.5064 5.14858 63.0735
19099 2 12.7786 3.5404 63.0934
13220 1 14.6016 3.55856 64.3722
13243 1 16.4111 3.52295 61.8191
18772 2 18.2348 3.5404 63.0934
12962 1 17.3295 5.16748 64.352
12972 1 19.139 5.13041 61.7993
18535 2 20.9627 5.14858 63.0735
12971 1 20.0578 3.55856 64.3722
13854 1 2.76986 8.34608 61.7561
14155 1 0.0419326 6.73811 61.7783
19691 2 1.8656 6.75696 63.0524
13806 1 0.960349 8.3858 64.308
13853 1 5.49817 6.73811 61.7783
19374 2 4.5935 8.36556 63.03
13852 1 3.68865 6.77655 64.3307
13526 1 8.2261 8.34608 61.7561
19415 2 7.32184 6.75696 63.0524
13521 1 6.41659 8.3858 64.308
13520 1 9.14489 6.77655 64.3307
13559 1 10.9544 6.73811 61.7783
19073 2 10.0497 8.36556 63.03
13198 1 11.8728 8.3858 64.308
13225 1 13.6823 8.34608 61.7561
18758 2 15.506 8.36556 63.03
19072 2 12.7781 6.75696 63.0524
13223 1 14.6011 6.77655 64.3307
13224 1 16.4106 6.73811 61.7783
18775 2 18.2343 6.75696 63.0524
12961 1 17.3291 8.3858 64.308
12965 1 19.1386 8.34608 61.7561
18534 2 20.9622 8.36556 63.03
12960 1 20.0574 6.77655 64.3307
13810 1 2.76955 11.563 61.7079
14118 1 0.0415716 9.95435 61.7326
19692 2 1.86518 9.97439 63.0064
13805 1 0.960071 11.6048 64.259
13856 1 5.49781 9.95435 61.7326
19373 2 4.59312 11.5835 62.9816
13804 1 3.68832 9.99522 64.2842
13525 1 8.22579 11.563 61.7079
19372 2 7.32142 9.97439 63.0064
13482 1 6.41631 11.6048 64.259
13523 1 9.14456 9.99522 64.2842
13524 1 10.954 9.95435 61.7326
19042 2 10.0494 11.5835 62.9816
13197 1 11.8725 11.6048 64.259
13202 1 13.682 11.563 61.7079
18757 2 15.5056 11.5835 62.9816
19075 2 12.7777 9.97439 63.0064
13196 1 14.6008 9.99522 64.2842
13227 1 16.4103 9.95435 61.7326
18756 2 18.2339 9.97439 63.0064
12946 1 17.3288 11.6048 64.259
12964 1 19.1383 11.563 61.7079
18527 2 20.9618 11.5835 62.9816
12963 1 20.057 9.99522 64.2842
13809 1 2.76929 14.7813 61.6548
14119 1 0.0413004 13.1719 61.682
19651 2 1.86482 13.1928 62.9555
13760 1 0.959834 14.8246 64.205
13808 1 5.49754 13.1719 61.682
19327 2 4.59275 14.8025 62.9282
13807 1 3.68807 13.2146 64.2326
13486 1 8.22553 14.7813 61.6548
19375 2 7.32106 13.1928 62.9555
13480 1 9.14431 13.2146 64.2326
13481 1 6.41607 14.8246 64.205
13527 1 10.9538 13.1719 61.682
19041 2 10.049 14.8025 62.9282
13166 1 11.8723 14.8246 64.205
13201 1 13.6818 14.7813 61.6548
18734 2 15.5052 14.8025 62.9282
19040 2 12.7773 13.1928 62.9555
13199 1 14.6006 13.2146 64.2326
13200 1 16.41 13.1719 61.682
18759 2 18.2335 13.1928 62.9555
12945 1 17.3285 14.8246 64.205
12949 1 19.138 14.7813 61.6548
18526 2 20.9615 14.8025 62.9282
12944 1 20.0568 13.2146 64.2326
14082 1 0.0410316 16.3911 61.6264
19652 2 1.86442 16.4124 62.8998
13811 1 5.49727 16.3911 61.6264
13758 1 3.68781 16.4348 64.1762
19325 2 7.32066 16.4124 62.8998
13483 1 9.14405 16.4348 64.1762
13484 1 10.9535 16.3911 61.6264
19043 2 12.7769 16.4124 62.8998
13164 1 14.6003 16.4348 64.1762
13203 1 16.4097 16.3911 61.6264
18732 2 18.2331 16.4124 62.8998
12947 1 20.0565 16.4348 64.1762
13764 1 2.76897 18.0013 61.5968
13759 1 0.959494 18.0452 64.1463
14083 1 0.0406023 19.6119 61.5662
19612 2 1.8638 19.6331 62.8397
19326 2 4.59227 18.0226 62.8703
13762 1 5.49684 19.6119 61.5662
13761 1 3.68734 19.6557 64.1154
13485 1 8.22521 18.0013 61.5968
13436 1 6.41573 18.0452 64.1463
19328 2 7.32004 19.6331 62.8397
13434 1 9.14358 19.6557 64.1154
19002 2 10.0485 18.0226 62.8703
13165 1 11.872 18.0452 64.1463
13487 1 10.9531 19.6119 61.5662
13170 1 13.6814 18.0013 61.5968
18733 2 15.5047 18.0226 62.8703
19000 2 12.7763 19.6331 62.8397
13167 1 14.5998 19.6557 64.1154
12923 1 17.3282 18.0452 64.1463
13168 1 16.4093 19.6119 61.5662
18735 2 18.2325 19.6331 62.8397
12948 1 19.1377 18.0013 61.5968
18511 2 20.961 18.0226 62.8703
12921 1 20.0561 19.6557 64.1154
13763 1 2.76837 21.2229 61.5345
14050 1 0.0397662 22.8343 61.5019
19613 2 1.86276 22.8548 62.776
13720 1 0.95884 21.2664 64.0836
13765 1 5.496 22.8343 61.5019
19280 2 4.59147 21.2439 62.8082
13718 1 3.68644 22.8771 64.0511
13440 1 8.22461 21.2229 61.5345
19278 2 7.319 22.8548 62.776
13435 1 6.41508 21.2664 64.0836
13437 1 9.14268 22.8771 64.0511
13438 1 10.9522 22.8343 61.5019
19001 2 10.0477 21.2439 62.8082
13130 1 11.8713 21.2664 64.0836
13169 1 13.6808 21.2229 61.5345
18703 2 15.5039 21.2439 62.8082
19003 2 12.7752 22.8548 62.776
13128 1 14.5989 22.8771 64.0511
13171 1 16.4085 22.8343 61.5019
18701 2 18.2315 22.8548 62.776
12922 1 17.3276 21.2664 64.0836
12926 1 19.1371 21.2229 61.5345
18510 2 20.9602 21.2439 62.8082
12924 1 20.0552 22.8771 64.0511
19580 2 1.86103 26.0772 62.7099
13719 1 0.957633 24.4878 64.0181
19279 2 4.59011 24.466 62.7431
13721 1 3.68487 26.0985 63.9848
19281 2 7.31727 26.0772 62.7099
13389 1 9.1411 26.0985 63.9848
13391 1 6.41387 24.4878 64.0181
18958 2 10.0464 24.466 62.7431
13129 1 11.8701 24.4878 64.0181
18702 2 15.5026 24.466 62.7431
18956 2 12.7735 26.0772 62.7099
13131 1 14.5973 26.0985 63.9848
18704 2 18.2297 26.0772 62.7099
12899 1 17.3263 24.4878 64.0181
18491 2 20.9588 24.466 62.7431
12897 1 20.0536 26.0985 63.9848
19581 2 1.85842 29.2995 62.6435
13688 1 0.955637 27.709 63.9515
19240 2 4.58796 27.6884 62.6766
13686 1 3.68241 29.3193 63.9185
19238 2 7.31466 29.2995 62.6435
13390 1 6.41188 27.709 63.9515
13392 1 9.13865 29.3193 63.9185
18957 2 10.0442 27.6884 62.6766
13094 1 11.8681 27.709 63.9515
18671 2 15.5004 27.6884 62.6766
18959 2 12.7709 29.2995 62.6435
13092 1 14.5949 29.3193 63.9185
18669 2 18.2271 29.2995 62.6435
12898 1 17.3244 27.709 63.9515
18490 2 20.9567 27.6884 62.6766
12900 1 20.0511 29.3193 63.9185
19556 2 1.85488 32.5212 62.5794
13687 1 0.952719 30.9292 63.8861
19239 2 4.58488 30.9105 62.611
13689 1 3.67905 32.5388 63.8547
19241 2 7.31112 32.5212 62.5794
13351 1 9.13529 32.5388 63.8547
13353 1 6.40896 30.9292 63.8861
18915 2 10.0411 30.9105 62.611
13093 1 11.8652 30.9292 63.8861
18670 2 15.4974 30.9105 62.611
18913 2 12.7674 32.5212 62.5794
13095 1 14.5915 32.5388 63.8547
18672 2 18.2236 32.5212 62.5794
12875 1 17.3214 30.9292 63.8861
18471 2 20.9536 30.9105 62.611
12873 1 20.0478 32.5388 63.8547
13664 1 0.948985 34.1479 63.8247
19208 2 4.58095 34.1315 62.549
13352 1 6.40522 34.1479 63.8247
18914 2 10.0372 34.1315 62.549
13059 1 11.8615 34.1479 63.8247
18639 2 15.4934 34.1315 62.549
12874 1 17.3177 34.1479 63.8247
18470 2 20.9497 34.1315 62.549
19557 2 1.85066 35.7415 62.5204
13663 1 0.944803 37.3648 63.7702
13662 1 3.67503 35.7566 63.7964
19207 2 4.57656 37.3512 62.4939
19206 2 7.3069 35.7415 62.5204
13354 1 9.13127 35.7566 63.7964
13323 1 6.40104 37.3648 63.7702
18879 2 10.0328 37.3512 62.4939
13058 1 11.8573 37.3648 63.7702
18916 2 12.7631 35.7415 62.5204
13057 1 14.5875 35.7566 63.7964
18638 2 15.489 37.3512 62.4939
18637 2 18.2194 35.7415 62.5204
12851 1 17.3135 37.3648 63.7702
12876 1 20.0437 35.7566 63.7964
18451 2 20.9453 37.3512 62.4939
19540 2 1.84627 38.9604 62.4699
13648 1 0.940822 40.5799 63.726
19184 2 4.57236 40.5693 62.4488
13665 1 3.67088 38.9726 63.7466
19209 2 7.30251 38.9604 62.4699
13321 1 9.12711 38.9726 63.7466
13322 1 6.39706 40.5799 63.726
18878 2 10.0286 40.5693 62.4488
13031 1 11.8533 40.5799 63.726
18608 2 15.4848 40.5693 62.4488
18877 2 12.7588 38.9604 62.4699
13060 1 14.5834 38.9726 63.7466
18640 2 18.215 38.9604 62.4699
12850 1 17.3095 40.5799 63.726
18450 2 20.9411 40.5693 62.4488
12849 1 20.0396 38.9726 63.7466
19541 2 1.84243 42.1778 62.4311
13647 1 0.937704 43.7933 63.6946
19183 2 4.56906 43.786 62.4169
13646 1 3.66723 42.1867 63.7085
19182 2 7.29867 42.1778 62.4311
13301 1 6.39394 43.7933 63.6946
13324 1 9.12347 42.1867 63.7085
18851 2 10.0253 43.786 62.4169
13030 1 11.8502 43.7933 63.6946
18607 2 15.4815 43.786 62.4169
18880 2 12.7549 42.1778 62.4311
13029 1 14.5797 42.1867 63.7085
18606 2 18.2111 42.1778 62.4311
12828 1 17.3064 43.7933 63.6946
18431 2 20.9378 43.786 62.4169
12852 1 20.0359 42.1867 63.7085
19532 2 1.83984 45.3941 62.4066
13640 1 0.936051 47.0055 63.6784
19168 2 4.5673 47.0019 62.4004
13649 1 3.66478 45.3995 63.6845
19185 2 7.29608 45.3941 62.4066
13299 1 9.12102 45.3995 63.6845
13300 1 6.39229 47.0055 63.6784
18850 2 10.0235 47.0019 62.4004
13011 1 11.8485 47.0055 63.6784
18584 2 15.4798 47.0019 62.4004
18849 2 12.7523 45.3941 62.4066
13032 1 14.5773 45.3995 63.6845
18609 2 18.2086 45.3941 62.4066
12827 1 17.3048 47.0055 63.6784
18430 2 20.936 47.0019 62.4004
12826 1 20.0335 45.3995 63.6845
19533 2 1.83901 48.6097 62.3984
13639 1 0.936204 50.2175 63.6786
19167 2 4.56745 50.2175 62.4006
13638 1 3.66401 48.6115 63.6765
19166 2 7.29525 48.6097 62.3984
13284 1 6.39244 50.2175 63.6786
13302 1 9.12025 48.6115 63.6765
18828 2 10.0237 50.2175 62.4006
13010 1 11.8487 50.2175 63.6786
18583 2 15.4799 50.2175 62.4006
18852 2 12.7515 48.6097 62.3984
13009 1 14.5765 48.6115 63.6765
18582 2 18.2077 48.6097 62.3984
12809 1 17.3049 50.2175 63.6786
18411 2 20.9362 50.2175 62.4006
12829 1 20.0327 48.6115 63.6765
19410 2 2.78516 1.96616 65.6643
19729 2 0.057377 0.356713 65.6821
13847 1 1.88022 0.374251 66.9632
19409 2 5.51362 0.356713 65.6821
13518 1 4.608 1.98444 66.9452
19070 2 8.2414 1.96616 65.6643
13552 1 7.33646 0.374251 66.9632
19096 2 10.9699 0.356713 65.6821
13218 1 10.0642 1.98444 66.9452
18770 2 13.6976 1.96616 65.6643
12958 1 15.5205 1.98444 66.9452
13217 1 12.7927 0.374251 66.9632
18769 2 16.4261 0.356713 65.6821
12968 1 18.2489 0.374251 66.9632
18533 2 19.1539 1.96616 65.6643
12784 1 20.9767 1.98444 66.9452
19370 2 2.78456 5.18539 65.6251
19689 2 0.0567314 3.57572 65.6453
13848 1 1.87956 3.59472 66.9261
19411 2 5.51297 3.57572 65.6453
13517 1 4.60739 5.20506 66.9057
19069 2 8.2408 5.18539 65.6251
13516 1 7.3358 3.59472 66.9261
19068 2 10.9692 3.57572 65.6453
13194 1 10.0636 5.20506 66.9057
18754 2 13.697 5.18539 65.6251
12957 1 15.5199 5.20506 66.9057
13219 1 12.792 3.59472 66.9261
18771 2 16.4254 3.57572 65.6453
12956 1 18.2483 3.59472 66.9261
18532 2 19.1533 5.18539 65.6251
12783 1 20.9761 5.20506 66.9057
19369 2 2.78407 8.4051 65.581
19690 2 0.0561847 6.79519 65.6036
13802 1 1.87902 6.81548 66.8841
19368 2 5.51242 6.79519 65.6036
13478 1 4.60692 8.42595 66.8612
19038 2 8.24031 8.4051 65.581
13519 1 7.33526 6.81548 66.8841
19071 2 10.9687 6.79519 65.6036
13193 1 10.0632 8.42595 66.8612
18753 2 13.6965 8.4051 65.581
12942 1 15.5194 8.42595 66.8612
13192 1 12.7915 6.81548 66.8841
18752 2 16.4249 6.79519 65.6036
12959 1 18.2477 6.81548 66.8841
18525 2 19.1528 8.4051 65.581
12782 1 20.9756 8.42595 66.8612
19323 2 2.78366 11.6253 65.5318
19649 2 0.055739 10.0151 65.557
13803 1 1.87861 10.0365 66.8371
19371 2 5.51198 10.0151 65.557
13477 1 4.60656 11.647 66.8117
19037 2 8.2399 11.6253 65.5318
13476 1 7.33485 10.0365 66.8371
19036 2 10.9682 10.0151 65.557
13162 1 10.0628 11.647 66.8117
18730 2 13.6961 11.6253 65.5318
12941 1 15.519 11.647 66.8117
13195 1 12.7911 10.0365 66.8371
18755 2 16.4245 10.0151 65.557
12940 1 18.2473 10.0365 66.8371
18524 2 19.1524 11.6253 65.5318
12775 1 20.9753 11.647 66.8117
19322 2 2.78326 14.8459 65.4779
19650 2 0.055349 13.2356 65.5054
13756 1 1.87829 13.2576 66.785
19321 2 5.51159 13.2356 65.5054
13432 1 4.60624 14.8682 66.7572
18998 2 8.2395 14.8459 65.4779
13479 1 7.33452 13.2576 66.785
19039 2 10.9678 13.2356 65.5054
13161 1 10.0625 14.8682 66.7572
18729 2 13.6957 14.8459 65.4779
12919 1 15.5187 14.8682 66.7572
13160 1 12.7908 13.2576 66.785
18728 2 16.4241 13.2356 65.5054
12943 1 18.247 13.2576 66.785
18509 2 19.152 14.8459 65.4779
12774 1 20.975 14.8682 66.7572
19610 2 0.0549064 16.4563 65.4492
13757 1 1.87793 16.4787 66.7282
19324 2 5.51114 16.4563 65.4492
13430 1 7.33417 16.4787 66.7282
18996 2 10.9674 16.4563 65.4492
13163 1 12.7904 16.4787 66.7282
18731 2 16.4236 16.4563 65.4492
12917 1 18.2466 16.4787 66.7282
19276 2 2.78273 18.0668 65.4194
19611 2 0.0542367 19.6773 65.3887
13716 1 1.87737 19.6996 66.6673
13431 1 4.60581 18.0892 66.6982
19274 2 5.51048 19.6773 65.3887
18997 2 8.23897 18.0668 65.4194
13433 1 7.33361 19.6996 66.6673
13126 1 10.0621 18.0892 66.6982
18999 2 10.9667 19.6773 65.3887
18699 2 13.6952 18.0668 65.4194
12918 1 15.5183 18.0892 66.6982
13124 1 12.7898 19.6996 66.6673
18697 2 16.423 19.6773 65.3887
12920 1 18.2461 19.6996 66.6673
18508 2 19.1514 18.0668 65.4194
12763 1 20.9745 18.0892 66.6982
19275 2 2.78188 21.2878 65.3572
19578 2 0.0531432 22.8982 65.3251
13717 1 1.87639 22.9198 66.6033
19277 2 5.50938 22.8982 65.3251
13387 1 4.60506 21.3098 66.6356
18954 2 8.23811 21.2878 65.3572
13385 1 7.33263 22.9198 66.6033
18952 2 10.9656 22.8982 65.3251
13125 1 10.0613 21.3098 66.6356
18698 2 13.6944 21.2878 65.3572
12895 1 15.5175 21.3098 66.6356
13127 1 12.7889 22.9198 66.6033
18700 2 16.4219 22.8982 65.3251
12893 1 18.2451 22.9198 66.6033
18489 2 19.1506 21.2878 65.3572
12762 1 20.9738 21.3098 66.6356
19236 2 2.7805 24.5084 65.2925
19579 2 0.0514486 26.1184 65.2598
13684 1 1.87482 26.1389 66.5378
19234 2 5.50769 26.1184 65.2598
13386 1 4.6038 24.5295 66.5706
18953 2 8.23674 24.5084 65.2925
13388 1 7.33106 26.1389 66.5378
18955 2 10.9639 26.1184 65.2598
13090 1 10.06 24.5295 66.5706
18667 2 13.693 24.5084 65.2925
12894 1 15.5163 24.5295 66.5706
13088 1 12.7873 26.1389 66.5378
18665 2 16.4202 26.1184 65.2598
12896 1 18.2435 26.1389 66.5378
18488 2 19.1492 24.5084 65.2925
12751 1 20.9725 24.5295 66.5706
19235 2 2.77845 27.7282 65.2271
19554 2 0.0490069 29.3375 65.1948
13685 1 1.87253 29.3563 66.473
19237 2 5.50525 29.3375 65.1948
13349 1 4.60189 27.7479 66.5052
18911 2 8.23468 27.7282 65.2271
13347 1 7.32877 29.3563 66.473
18909 2 10.9615 29.3375 65.1948
13089 1 10.0581 27.7479 66.5052
18666 2 13.6909 27.7282 65.2271
12871 1 15.5144 27.7479 66.5052
13091 1 12.785 29.3563 66.473
18668 2 16.4177 29.3375 65.1948
12869 1 18.2412 29.3563 66.473
18469 2 19.1472 27.7282 65.2271
12750 1 20.9706 27.7479 66.5052
19204 2 2.77562 30.9464 65.1632
19555 2 0.0458189 32.5549 65.1326
13660 1 1.86951 32.5716 66.4111
19202 2 5.50206 32.5549 65.1326
13348 1 4.59922 30.9643 66.4415
18910 2 8.23185 30.9464 65.1632
13350 1 7.32574 32.5716 66.4111
18912 2 10.9583 32.5549 65.1326
13055 1 10.0555 30.9643 66.4415
18635 2 13.6881 30.9464 65.1632
12870 1 15.5117 30.9643 66.4415
13053 1 12.782 32.5716 66.4111
18633 2 16.4145 32.5549 65.1326
12872 1 18.2382 32.5716 66.4111
18468 2 19.1443 30.9464 65.1632
12739 1 20.9679 30.9643 66.4415
19203 2 2.77213 34.1628 65.1034
13319 1 4.5959 34.1783 66.3822
18875 2 8.22837 34.1628 65.1034
13054 1 10.0521 34.1783 66.3822
18634 2 13.6846 34.1628 65.1034
12847 1 15.5084 34.1783 66.3822
18449 2 19.1408 34.1628 65.1034
12738 1 20.9646 34.1783 66.3822
19538 2 0.042123 35.7702 65.0759
13661 1 1.86598 35.7844 66.355
19180 2 2.76833 37.377 65.0506
19205 2 5.49836 35.7702 65.0759
13318 1 4.59228 37.3896 66.3299
13317 1 7.32222 35.7844 66.355
18874 2 8.22456 37.377 65.0506
18873 2 10.9546 35.7702 65.0759
13027 1 10.0485 37.3896 66.3299
13056 1 12.7785 35.7844 66.355
18604 2 13.6808 37.377 65.0506
12846 1 15.5048 37.3896 66.3299
18636 2 16.4108 35.7702 65.0759
12845 1 18.2347 35.7844 66.355
18448 2 19.137 37.377 65.0506
12727 1 20.961 37.3896 66.3299
19179 2 2.76472 40.5892 65.0079
19539 2 0.0383354 38.9834 65.0278
13644 1 1.86239 38.9945 66.3074
19178 2 5.49457 38.9834 65.0278
13297 1 4.58887 40.5989 66.2877
18847 2 8.22096 40.5892 65.0079
13320 1 7.31863 38.9945 66.3074
18876 2 10.9508 38.9834 65.0278
13026 1 10.0451 40.5989 66.2877
18603 2 13.6772 40.5892 65.0079
12824 1 15.5013 40.5989 66.2877
13025 1 12.7749 38.9945 66.3074
18602 2 16.4071 38.9834 65.0278
12848 1 18.2311 38.9945 66.3074
18429 2 19.1334 40.5892 65.0079
12726 1 20.9576 40.5989 66.2877
19164 2 2.76193 43.7997 64.9777
19530 2 0.0350654 42.1946 64.9911
13645 1 1.8593 42.2029 66.2711
19181 2 5.4913 42.1946 64.9911
13296 1 4.58624 43.8064 66.2579
18846 2 8.21817 43.7997 64.9777
13295 1 7.31554 42.2029 66.2711
18845 2 10.9475 42.1946 64.9911
13007 1 10.0425 43.8064 66.2579
18580 2 13.6744 43.7997 64.9777
12823 1 15.4987 43.8064 66.2579
13028 1 12.7718 42.2029 66.2711
18605 2 16.4038 42.1946 64.9911
12822 1 18.228 42.2029 66.2711
18428 2 19.1306 43.7997 64.9777
12715 1 20.955 43.8064 66.2579
19163 2 2.76047 47.0091 64.9622
19531 2 0.0328895 45.4045 64.968
13636 1 1.85725 45.4097 66.2484
19162 2 5.48913 45.4045 64.968
13283 1 4.58486 47.0127 66.2426
18827 2 8.21671 47.0091 64.9622
13298 1 7.31349 45.4097 66.2484
18848 2 10.9454 45.4045 64.968
13006 1 10.0411 47.0127 66.2426
18579 2 13.6729 47.0091 64.9622
12808 1 15.4973 47.0127 66.2426
13005 1 12.7697 45.4097 66.2484
18578 2 16.4016 45.4045 64.968
12825 1 18.226 45.4097 66.2484
18410 2 19.1292 47.0091 64.9622
12714 1 20.9536 47.0127 66.2426
19153 2 2.76063 50.2181 64.9623
19529 2 0.0322198 48.6136 64.9603
13637 1 1.85662 48.6156 66.2407
19165 2 5.48846 48.6136 64.9603
13282 1 4.58502 50.2186 66.2428
18826 2 8.21686 50.2181 64.9623
13281 1 7.31286 48.6156 66.2407
18825 2 10.9447 48.6136 64.9603
12992 1 10.0413 50.2186 66.2428
18561 2 13.6731 50.2181 64.9623
12807 1 15.4975 50.2186 66.2428
13008 1 12.7691 48.6156 66.2407
18581 2 16.4009 48.6136 64.9603
12806 1 18.2253 48.6156 66.2407
18409 2 19.1293 50.2181 64.9623
12703 1 20.9537 50.2186 66.2428
13514 1 2.7978 2.01795 69.5036
13846 1 0.0701095 0.406209 69.5216
19366 2 0.975967 1.99953 68.2147
13513 1 5.52635 0.406209 69.5216
19408 2 3.70448 0.388476 68.2327
13190 1 8.25403 2.01795 69.5036
19065 2 9.16072 0.388476 68.2327
19066 2 6.43221 1.99953 68.2147
13216 1 10.9826 0.406209 69.5216
18750 2 11.8884 1.99953 68.2147
12954 1 13.7103 2.01795 69.5036
18768 2 14.617 0.388476 68.2327
12953 1 16.4388 0.406209 69.5216
18530 2 17.3447 1.99953 68.2147
12781 1 19.1665 2.01795 69.5036
18529 2 20.0732 0.388476 68.2327
13474 1 2.797 5.24148 69.4638
13800 1 0.0692662 3.62971 69.4843
19365 2 0.975248 5.22184 68.1752
13515 1 5.5255 3.62971 69.4843
19364 2 3.70371 3.61066 68.1956
13189 1 8.25324 5.24148 69.4638
19034 2 6.43149 5.22184 68.1752
19067 2 9.15995 3.61066 68.1956
13188 1 10.9817 3.62971 69.4843
18749 2 11.8877 5.22184 68.1752
12938 1 13.7095 5.24148 69.4638
18748 2 14.6162 3.61066 68.1956
12955 1 16.438 3.62971 69.4843
18522 2 17.344 5.22184 68.1752
12780 1 19.1657 5.24148 69.4638
18531 2 20.0724 3.61066 68.1956
13473 1 2.79634 8.46492 69.419
13801 1 0.0685341 6.85322 69.442
19319 2 0.97463 8.44434 68.1307
13472 1 5.52477 6.85322 69.442
19367 2 3.70305 6.83307 68.1535
13158 1 8.25258 8.46492 69.419
19032 2 9.15928 6.83307 68.1535
19033 2 6.43087 8.44434 68.1307
13191 1 10.981 6.85322 69.442
18726 2 11.8871 8.44434 68.1307
12937 1 13.7088 8.46492 69.419
18751 2 14.6155 6.83307 68.1535
12936 1 16.4372 6.85322 69.442
18521 2 17.3433 8.44434 68.1307
12773 1 19.1651 8.46492 69.419
18520 2 20.0718 6.83307 68.1535
13428 1 2.79579 11.6881 69.3692
13754 1 0.0679328 10.0765 69.3947
19318 2 0.974101 11.6669 68.0812
13475 1 5.52417 10.0765 69.3947
19317 2 3.70248 10.0556 68.1065
13157 1 8.25203 11.6881 69.3692
18994 2 6.43034 11.6669 68.0812
19035 2 9.15872 10.0556 68.1065
13156 1 10.9804 10.0765 69.3947
18725 2 11.8866 11.6669 68.0812
12915 1 13.7083 11.6881 69.3692
18724 2 14.615 10.0556 68.1065
12939 1 16.4366 10.0765 69.3947
18506 2 17.3428 11.6669 68.0812
12772 1 19.1645 11.6881 69.3692
18523 2 20.0712 10.0556 68.1065
13427 1 2.7953 14.9105 69.3147
13755 1 0.0674281 13.2994 69.3425
19272 2 0.973586 14.8891 68.0269
13426 1 5.52367 13.2994 69.3425
19320 2 3.70197 13.278 68.0546
13122 1 8.25154 14.9105 69.3147
18992 2 9.15821 13.278 68.0546
18993 2 6.42982 14.8891 68.0269
13159 1 10.9799 13.2994 69.3425
18695 2 11.8861 14.8891 68.0269
12914 1 13.7078 14.9105 69.3147
18727 2 14.6144 13.278 68.0546
12913 1 16.4361 13.2994 69.3425
18505 2 17.3423 14.8891 68.0269
12761 1 19.164 14.9105 69.3147
18504 2 20.0707 13.278 68.0546
13714 1 0.0669159 16.5214 69.2858
13429 1 5.52315 16.5214 69.2858
19270 2 3.70141 16.5001 67.9981
18995 2 9.15765 16.5001 67.9981
13120 1 10.9794 16.5214 69.2858
18693 2 14.6139 16.5001 67.9981
12916 1 16.4356 16.5214 69.2858
18507 2 20.0701 16.5001 67.9981
13383 1 2.79473 18.132 69.2558
19271 2 0.972947 18.1109 67.9683
13715 1 0.0662366 19.7422 69.225
13381 1 5.52248 19.7422 69.225
19273 2 3.70064 19.7214 67.9377
13121 1 8.25097 18.132 69.2558
18950 2 6.42919 18.1109 67.9683
18948 2 9.15687 19.7214 67.9377
18694 2 11.8854 18.1109 67.9683
13123 1 10.9787 19.7422 69.225
12891 1 13.7072 18.132 69.2558
18696 2 14.6131 19.7214 67.9377
18486 2 17.3417 18.1109 67.9683
12889 1 16.435 19.7422 69.225
12760 1 19.1634 18.132 69.2558
18484 2 20.0694 19.7214 67.9377
13382 1 2.79386 21.352 69.1934
13682 1 0.0651796 22.9614 69.1613
19232 2 0.971981 21.3316 67.9063
13384 1 5.52142 22.9614 69.1613
19230 2 3.69945 22.9414 67.8744
13086 1 8.2501 21.352 69.1934
18949 2 6.42822 21.3316 67.9063
18951 2 9.15569 22.9414 67.8744
13084 1 10.9777 22.9614 69.1613
18663 2 11.8845 21.3316 67.9063
12890 1 13.7063 21.352 69.1934
18661 2 14.6119 22.9414 67.8744
12892 1 16.4339 22.9614 69.1613
18485 2 17.3407 21.3316 67.9063
12749 1 19.1626 21.352 69.1934
18487 2 20.0682 22.9414 67.8744
13345 1 2.79258 24.5702 69.1291
13683 1 0.0636547 26.1784 69.097
19231 2 0.970562 24.5508 67.8422
13343 1 5.51989 26.1784 69.097
19233 2 3.69778 26.1597 67.8099
13085 1 8.24882 24.5702 69.1291
18905 2 9.15401 26.1597 67.8099
18907 2 6.4268 24.5508 67.8422
13087 1 10.9761 26.1784 69.097
18662 2 11.883 24.5508 67.8422
12867 1 13.7051 24.5702 69.1291
18664 2 14.6103 26.1597 67.8099
12865 1 16.4324 26.1784 69.097
18466 2 17.3393 24.5508 67.8422
12748 1 19.1613 24.5702 69.1291
18464 2 20.0665 26.1597 67.8099
13344 1 2.79079 27.7859 69.065
13658 1 0.061534 29.3926 69.0336
19200 2 0.968588 27.768 67.7779
13346 1 5.51777 29.3926 69.0336
19198 2 3.69547 29.3757 67.7463
13051 1 8.24703 27.7859 69.065
18906 2 6.42483 27.768 67.7779
18908 2 9.15171 29.3757 67.7463
13049 1 10.974 29.3926 69.0336
18631 2 11.8811 27.768 67.7779
12866 1 13.7033 27.7859 69.065
18629 2 14.6079 29.3757 67.7463
12868 1 16.4302 29.3926 69.0336
18465 2 17.3373 27.768 67.7779
12737 1 19.1595 27.7859 69.065
18467 2 20.0642 29.3757 67.7463
13315 1 2.78836 30.9987 69.0029
13659 1 0.058825 32.6039 68.9734
19199 2 0.96595 30.9826 67.7154
13313 1 5.51506 32.6039 68.9734
19201 2 3.69253 32.5889 67.6857
13050 1 8.2446 30.9987 69.0029
18869 2 9.14877 32.5889 67.6857
18871 2 6.42219 30.9826 67.7154
13052 1 10.9713 32.6039 68.9734
18630 2 11.8784 30.9826 67.7154
12843 1 13.7008 30.9987 69.0029
18632 2 14.605 32.5889 67.6857
12841 1 16.4275 32.6039 68.9734
18446 2 17.3347 30.9826 67.7154
12736 1 19.1571 30.9987 69.0029
18444 2 20.0612 32.5889 67.6857
13314 1 2.78542 34.2083 68.9454
19176 2 0.962764 34.1944 67.6575
13023 1 8.24166 34.2083 68.9454
18870 2 6.419 34.1944 67.6575
18600 2 11.8752 34.1944 67.6575
12842 1 13.6979 34.2083 68.9454
18445 2 17.3315 34.1944 67.6575
12725 1 19.1541 34.2083 68.9454
13642 1 0.0557381 35.812 68.9191
13293 1 2.78228 37.415 68.895
19175 2 0.959349 37.4032 67.6066
13316 1 5.51198 35.812 68.9191
19174 2 3.68917 35.7992 67.631
18872 2 9.14541 35.7992 67.631
13022 1 8.23851 37.415 68.895
18843 2 6.41559 37.4032 67.6066
13021 1 10.9682 35.812 68.9191
18599 2 11.8718 37.4032 67.6066
18598 2 14.6017 35.7992 67.631
12820 1 13.6948 37.415 68.895
12844 1 16.4245 35.812 68.9191
18426 2 17.3281 37.4032 67.6066
18447 2 20.0579 35.7992 67.631
12724 1 19.151 37.415 68.895
13292 1 2.77932 40.6187 68.8543
13643 1 0.0526148 39.0172 68.8732
19160 2 0.956194 40.6095 67.5656
13291 1 5.50885 39.0172 68.8732
19177 2 3.68583 39.0066 67.5847
13003 1 8.23556 40.6187 68.8543
18841 2 9.14207 39.0066 67.5847
18842 2 6.41243 40.6095 67.5656
13024 1 10.9651 39.0172 68.8732
18576 2 11.8687 40.6095 67.5656
12819 1 13.6918 40.6187 68.8543
18601 2 14.5983 39.0066 67.5847
12818 1 16.4213 39.0172 68.8732
18425 2 17.3249 40.6095 67.5656
12713 1 19.148 40.6187 68.8543
18424 2 20.0545 39.0066 67.5847
13279 1 2.77707 43.8203 68.8257
13634 1 0.0499626 42.2198 68.8383
19159 2 0.953774 43.8136 67.5367
13294 1 5.5062 42.2198 68.8383
19158 2 3.68298 42.2117 67.5495
18818 2 4.6006 43.8275 70.0912
13002 1 8.23331 43.8203 68.8257
18823 2 6.41001 43.8136 67.5367
18844 2 9.13922 42.2117 67.5495
13001 1 10.9624 42.2198 68.8383
18575 2 11.8663 43.8136 67.5367
18556 2 10.0568 43.8275 70.0912
12804 1 13.6895 43.8203 68.8257
18574 2 14.5955 42.2117 67.5495
18402 2 15.5131 43.8275 70.0912
12821 1 16.4187 42.2198 68.8383
18407 2 17.3225 43.8136 67.5367
12712 1 19.1458 43.8203 68.8257
18427 2 20.0517 42.2117 67.5495
18328 2 20.9693 43.8275 70.0912
13278 1 2.77592 47.0204 68.8111
13635 1 0.0482168 45.4205 68.8166
19152 2 0.952527 47.0163 67.5219
19148 2 1.87176 45.4254 70.0823
13277 1 5.50446 45.4205 68.8166
19161 2 3.6811 45.415 67.5275
18807 2 4.59948 47.023 70.0769
12991 1 8.23215 47.0204 68.8111
18821 2 9.13734 45.415 67.5275
18822 2 6.40877 47.0163 67.5219
18820 2 7.328 45.4254 70.0823
13004 1 10.9607 45.4205 68.8166
18560 2 11.865 47.0163 67.5219
18555 2 10.0557 47.023 70.0769
12803 1 13.6884 47.0204 68.8111
18577 2 14.5936 45.415 67.5275
18391 2 15.512 47.023 70.0769
18554 2 12.7842 45.4254 70.0823
12802 1 16.4169 45.4205 68.8166
18406 2 17.3212 47.0163 67.5219
18404 2 18.2405 45.4254 70.0823
12702 1 19.1446 47.0204 68.8111
18405 2 20.0498 45.415 67.5275
18327 2 20.9682 47.023 70.0769
13270 1 2.77609 50.2201 68.8112
13633 1 0.0477116 48.6202 68.8093
19151 2 0.952704 50.2186 67.522
19149 2 1.87129 48.6204 70.0751
13280 1 5.50395 48.6202 68.8093
19150 2 3.68055 48.6174 67.5201
18806 2 4.59968 50.2179 70.077
12990 1 8.23233 50.2201 68.8112
18808 2 6.40894 50.2186 67.522
18824 2 9.13679 48.6174 67.5201
18805 2 7.32753 48.6204 70.0751
12989 1 10.9602 48.6202 68.8093
18559 2 11.8652 50.2186 67.522
18545 2 10.0559 50.2179 70.077
12793 1 13.6886 50.2201 68.8112
18558 2 14.593 48.6174 67.5201
18390 2 15.5122 50.2179 70.077
18557 2 12.7838 48.6204 70.0751
12805 1 16.4164 48.6202 68.8093
18392 2 17.3214 50.2186 67.522
18389 2 18.24 48.6204 70.0751
12701 1 19.1448 50.2201 68.8112
18408 2 20.0493 48.6174 67.5201
18320 2 20.9684 50.2179 70.077
13470 1 0.982573 2.05173 72.0788
19362 2 1.89522 0.418937 70.7787
13512 1 3.71127 0.438493 72.0969
19030 2 4.62286 2.03164 70.7606
13185 1 9.1675 0.438493 72.0969
13186 1 6.43881 2.05173 72.0788
19064 2 7.35146 0.418937 70.7787
12934 1 11.895 2.05173 72.0788
18746 2 10.0791 2.03164 70.7606
12952 1 14.6237 0.438493 72.0969
18518 2 15.5353 2.03164 70.7606
18745 2 12.8077 0.418937 70.7787
12778 1 17.3513 2.05173 72.0788
18528 2 18.2639 0.418937 70.7787
12777 1 20.08 0.438493 72.0969
18376 2 20.9916 2.03164 70.7606
13469 1 0.981495 5.27805 72.0388
19363 2 1.89427 3.64439 70.7413
13468 1 3.71014 3.66492 72.0594
19029 2 4.62194 5.25715 70.7209
13154 1 6.43773 5.27805 72.0388
13187 1 9.16638 3.66492 72.0594
19028 2 7.35051 3.64439 70.7413
12933 1 11.894 5.27805 72.0388
18722 2 10.0782 5.25715 70.7209
12932 1 14.6226 3.66492 72.0594
18517 2 15.5344 5.25715 70.7209
18747 2 12.8067 3.64439 70.7413
12770 1 17.3502 5.27805 72.0388
18516 2 18.263 3.64439 70.7413
12779 1 20.0789 3.66492 72.0594
18375 2 20.9907 5.25715 70.7209
13424 1 0.980564 8.50392 71.994
19315 2 1.8934 6.86991 70.6991
13471 1 3.70913 6.89106 72.017
18990 2 4.62112 8.48261 70.6762
13152 1 9.16537 6.89106 72.017
13153 1 6.4368 8.50392 71.994
19031 2 7.34964 6.86991 70.6991
12911 1 11.893 8.50392 71.994
18721 2 10.0774 8.48261 70.6762
12935 1 14.6216 6.89106 72.017
18502 2 15.5336 8.48261 70.6762
18720 2 12.8059 6.86991 70.6991
12769 1 17.3493 8.50392 71.994
18519 2 18.2621 6.86991 70.6991
12768 1 20.0778 6.89106 72.017
18374 2 20.9898 8.48261 70.6762
13423 1 0.979809 11.729 71.9442
19316 2 1.89263 10.0952 70.652
13422 1 3.70828 10.1166 71.9697
18989 2 4.6204 11.7077 70.6266
13118 1 6.43605 11.729 71.9442
13155 1 9.16452 10.1166 71.9697
18988 2 7.34887 10.0952 70.652
12910 1 11.8923 11.729 71.9442
18691 2 10.0766 11.7077 70.6266
12909 1 14.6208 10.1166 71.9697
18501 2 15.5329 11.7077 70.6266
18723 2 12.8051 10.0952 70.652
12758 1 17.3485 11.729 71.9442
18500 2 18.2613 10.0952 70.652
12771 1 20.077 10.1166 71.9697
18368 2 20.9891 11.7077 70.6266
19268 2 1.89194 13.3199 70.6001
13425 1 3.70761 13.3411 71.9176
18946 2 4.61971 14.9319 70.5724
13116 1 9.16384 13.3411 71.9176
18991 2 7.34818 13.3199 70.6001
18690 2 10.0759 14.9319 70.5724
12912 1 14.6201 13.3411 71.9176
18482 2 15.5322 14.9319 70.5724
18689 2 12.8044 13.3199 70.6001
18503 2 18.2607 13.3199 70.6001
12756 1 20.0763 13.3411 71.9176
18367 2 20.9884 14.9319 70.5724
13379 1 0.979187 14.9529 71.8898
19269 2 1.89122 16.5436 70.5437
13377 1 3.70701 16.5642 71.861
13117 1 6.43543 14.9529 71.8898
13119 1 9.16325 16.5642 71.861
18944 2 7.34746 16.5436 70.5437
12887 1 11.8917 14.9529 71.8898
12885 1 14.6195 16.5642 71.861
18692 2 12.8037 16.5436 70.5437
12757 1 17.3479 14.9529 71.8898
18480 2 18.2599 16.5436 70.5437
12759 1 20.0757 16.5642 71.861
13378 1 0.978579 18.175 71.8312
19228 2 1.89031 19.7655 70.4836
18945 2 4.61892 18.1548 70.5141
13380 1 3.70635 19.7851 71.8006
13082 1 6.43482 18.175 71.8312
13080 1 9.16259 19.7851 71.8006
18947 2 7.34655 19.7655 70.4836
12886 1 11.8911 18.175 71.8312
18659 2 10.0752 18.1548 70.5141
18481 2 15.5314 18.1548 70.5141
12888 1 14.6188 19.7851 71.8006
18657 2 12.8028 19.7655 70.4836
12746 1 17.3473 18.175 71.8312
18483 2 18.259 19.7655 70.4836
18360 2 20.9876 18.1548 70.5141
12744 1 20.0751 19.7851 71.8006
13341 1 0.977864 21.3946 71.7691
19229 2 1.88896 22.985 70.4209
13339 1 3.70555 23.0032 71.7367
18903 2 4.61783 21.3755 70.4525
13081 1 6.4341 21.3946 71.7691
13083 1 9.16179 23.0032 71.7367
18901 2 7.3452 22.985 70.4209
12863 1 11.8903 21.3946 71.7691
18658 2 10.0741 21.3755 70.4525
12861 1 14.618 23.0032 71.7367
18462 2 15.5303 21.3755 70.4525
18660 2 12.8014 22.985 70.4209
12745 1 17.3466 21.3946 71.7691
18460 2 18.2577 22.985 70.4209
12747 1 20.0743 23.0032 71.7367
18359 2 20.9865 21.3755 70.4525
13340 1 0.976825 24.611 71.7053
19196 2 1.88732 26.2016 70.3574
19195 2 0.0751835 26.2446 72.8927
13342 1 3.70422 26.2179 71.6738
18902 2 4.61633 24.5937 70.3891
18861 2 5.53142 26.2446 72.8927
13045 1 9.16046 26.2179 71.6738
13047 1 6.43306 24.611 71.7053
18904 2 7.34356 26.2016 70.3574
12862 1 11.8893 24.611 71.7053
18627 2 10.0726 24.5937 70.3891
18624 2 10.9877 26.2446 72.8927
12864 1 14.6167 26.2179 71.6738
18461 2 15.5288 24.5937 70.3891
18625 2 12.7998 26.2016 70.3574
12734 1 17.3455 24.611 71.7053
18463 2 18.256 26.2016 70.3574
18436 2 16.4439 26.2446 72.8927
12732 1 20.0729 26.2179 71.6738
18352 2 20.985 24.5937 70.3891
13311 1 0.975276 27.824 71.6426
19197 2 1.8851 29.4146 70.2949
18862 2 2.80233 27.8505 72.8616
19170 2 0.0730958 29.4551 72.8312
13309 1 3.70245 29.4292 71.6118
18867 2 4.61441 27.8086 70.3258
18864 2 5.52933 29.4551 72.8312
13046 1 6.43151 27.824 71.6426
13048 1 9.15869 29.4292 71.6118
18865 2 7.34134 29.4146 70.2949
18592 2 8.25856 27.8505 72.8616
12839 1 11.8878 27.824 71.6426
18626 2 10.0706 27.8086 70.3258
18590 2 10.9856 29.4551 72.8312
12837 1 14.6149 29.4292 71.6118
18442 2 15.5269 27.8086 70.3258
18628 2 12.7976 29.4146 70.2949
18437 2 13.7148 27.8505 72.8616
12733 1 17.344 27.824 71.6426
18440 2 18.2538 29.4146 70.2949
18439 2 16.4418 29.4551 72.8312
12735 1 20.0712 29.4292 71.6118
18351 2 20.9831 27.8086 70.3258
18342 2 19.171 27.8505 72.8616
13310 1 0.973271 31.0334 71.5819
19172 2 1.88233 32.6238 70.2357
18835 2 2.79996 31.0584 72.8016
19171 2 0.0704747 32.6604 72.7732
13312 1 3.70022 32.6366 71.5532
18866 2 4.6119 31.0197 70.2647
18833 2 5.52671 32.6604 72.7732
13017 1 9.15646 32.6366 71.5532
13019 1 6.42951 31.0334 71.5819
18868 2 7.33857 32.6238 70.2357
18591 2 8.2562 31.0584 72.8016
12838 1 11.8857 31.0334 71.5819
18596 2 10.0681 31.0197 70.2647
18593 2 10.983 32.6604 72.7732
12840 1 14.6127 32.6366 71.5532
18441 2 15.5244 31.0197 70.2647
18594 2 12.7948 32.6238 70.2357
18418 2 13.7124 31.0584 72.8016
12722 1 17.342 31.0334 71.5819
18443 2 18.251 32.6238 70.2357
18416 2 16.4392 32.6604 72.7732
12720 1 20.0689 32.6366 71.5532
18344 2 20.9806 31.0197 70.2647
18341 2 19.1687 31.0584 72.8016
13289 1 0.970843 34.2388 71.5259
18834 2 2.79713 34.2611 72.7463
18839 2 4.60891 34.2269 70.2082
13018 1 6.42708 34.2388 71.5259
18568 2 8.25337 34.2611 72.7463
12816 1 11.8833 34.2388 71.5259
18595 2 10.0652 34.2269 70.2082
18422 2 15.5214 34.2269 70.2082
18417 2 13.7096 34.2611 72.7463
12721 1 17.3396 34.2388 71.5259
18343 2 20.9776 34.2269 70.2082
18334 2 19.1658 34.2611 72.7463
19173 2 1.87921 35.8291 70.1824
13288 1 0.968228 37.4404 71.477
19154 2 0.0674945 35.8606 72.7212
18815 2 2.79409 37.4588 72.6981
13287 1 3.69766 35.8401 71.5004
18838 2 4.60575 37.4303 70.1588
18836 2 5.52373 35.8606 72.7212
13020 1 9.1539 35.8401 71.5004
18837 2 7.33545 35.8291 70.1824
12999 1 6.42447 37.4404 71.477
18567 2 8.25033 37.4588 72.6981
12815 1 11.8807 37.4404 71.477
18572 2 10.062 37.4303 70.1588
18566 2 10.98 35.8606 72.7212
12814 1 14.6101 35.8401 71.5004
18597 2 12.7917 35.8291 70.1824
18421 2 15.5182 37.4303 70.1588
18399 2 13.7066 37.4588 72.6981
18420 2 18.2479 35.8291 70.1824
12710 1 17.3369 37.4404 71.477
18419 2 16.4362 35.8606 72.7212
12723 1 20.0664 35.8401 71.5004
18336 2 20.9745 37.4303 70.1588
18333 2 19.1628 37.4588 72.6981
13275 1 0.965792 40.6385 71.4376
19156 2 1.87611 39.0307 70.1376
18814 2 2.79127 40.652 72.6594
19155 2 0.0645061 39.0559 72.6774
13290 1 3.69508 39.0398 71.456
18819 2 4.60282 40.6302 70.119
18813 2 5.52074 39.0559 72.6774
12997 1 9.15132 39.0398 71.456
12998 1 6.42203 40.6385 71.4376
18840 2 7.33234 39.0307 70.1376
18552 2 8.24751 40.652 72.6594
12800 1 11.8783 40.6385 71.4376
18571 2 10.0591 40.6302 70.119
18569 2 10.977 39.0559 72.6774
12817 1 14.6076 39.0398 71.456
18403 2 15.5153 40.6302 70.119
18570 2 12.7886 39.0307 70.1376
18398 2 13.7037 40.652 72.6594
12709 1 17.3345 40.6385 71.4376
18423 2 18.2448 39.0307 70.1376
18397 2 16.4332 39.0559 72.6774
12708 1 20.0638 39.0398 71.456
18335 2 20.9715 40.6302 70.119
18326 2 19.16 40.652 72.6594
13274 1 0.963944 43.8337 71.4101
19157 2 1.87348 42.2291 70.1035
18803 2 2.78912 43.8417 72.6324
19146 2 0.0619619 42.2472 72.6443
13273 1 3.69289 42.2364 71.4223
18816 2 5.5182 42.2472 72.6443
12987 1 6.42018 43.8337 71.4101
13000 1 9.14913 42.2364 71.4223
18817 2 7.32972 42.2291 70.1035
18551 2 8.24536 43.8417 72.6324
12799 1 11.8764 43.8337 71.4101
18550 2 10.9744 42.2472 72.6443
12798 1 14.6054 42.2364 71.4223
18573 2 12.786 42.2291 70.1035
18387 2 13.7016 43.8417 72.6324
12699 1 17.3327 43.8337 71.4101
18401 2 18.2422 42.2291 70.1035
18400 2 16.4307 42.2472 72.6443
12711 1 20.0616 42.2364 71.4223
18325 2 19.1578 43.8417 72.6324
13269 1 0.963023 47.0272 71.3959
18802 2 2.78804 47.0292 72.6185
19147 2 0.0603082 45.4357 72.6237
13276 1 3.69147 45.4306 71.4013
18801 2 5.51655 45.4357 72.6237
12985 1 9.14771 45.4306 71.4013
12986 1 6.41926 47.0272 71.3959
18544 2 8.24428 47.0292 72.6185
12792 1 11.8755 47.0272 71.3959
18553 2 10.9728 45.4357 72.6237
12801 1 14.6039 45.4306 71.4013
18386 2 13.7005 47.0292 72.6185
12698 1 17.3317 47.0272 71.3959
18385 2 16.429 45.4357 72.6237
12697 1 20.0602 45.4306 71.4013
18319 2 19.1568 47.0292 72.6185
13268 1 0.963222 50.2202 71.3961
18796 2 2.78826 50.216 72.6185
19145 2 0.0598665 48.6226 72.6167
13267 1 3.6911 48.6237 71.3942
18804 2 5.5161 48.6226 72.6167
12980 1 6.41946 50.2202 71.3961
12988 1 9.14734 48.6237 71.3942
18543 2 8.2445 50.216 72.6185
12791 1 11.8757 50.2202 71.3961
18542 2 10.9723 48.6226 72.6167
12790 1 14.6036 48.6237 71.3942
18380 2 13.7007 50.216 72.6185
12692 1 17.3319 50.2202 71.3961
18388 2 16.4286 48.6226 72.6167
12700 1 20.0598 48.6237 71.3942
18318 2 19.157 50.216 72.6185
13466 1 1.83676 0.480381 74.7479
18982 2 0.972582 2.09912 75.7662
19026 2 2.81162 2.06275 73.2921
19361 2 0.0841035 0.448366 73.3102
13150 1 4.56412 2.09441 74.7298
19024 2 3.70148 0.483692 75.7842
19025 2 5.54034 0.448366 73.3102
13184 1 7.293 0.480381 74.7479
18713 2 9.15772 0.483692 75.7842
18714 2 6.42882 2.09912 75.7662
18718 2 8.26786 2.06275 73.2921
12930 1 10.0204 2.09441 74.7298
18494 2 11.8851 2.09912 75.7662
18744 2 10.9966 0.448366 73.3102
12766 1 15.4766 2.09441 74.7298
12929 1 12.7492 0.480381 74.7479
18512 2 14.614 0.483692 75.7842
18514 2 13.7241 2.06275 73.2921
12776 1 18.2055 0.480381 74.7479
18370 2 17.3413 2.09912 75.7662
18513 2 16.4528 0.448366 73.3102
12688 1 20.9328 2.09441 74.7298
18369 2 20.0702 0.483692 75.7842
18373 2 19.1803 2.06275 73.2921
13467 1 1.83529 3.70819 74.7105
18981 2 0.97112 5.32964 75.7267
18986 2 2.81045 5.29157 73.2523
19313 2 0.0829036 3.67716 73.2728
13149 1 4.56278 5.3217 74.6901
18980 2 3.69995 3.71445 75.7471
19027 2 5.53914 3.67716 73.2728
13148 1 7.29153 3.70819 74.7105
18683 2 6.42736 5.32964 75.7267
18715 2 9.15619 3.71445 75.7471
18717 2 8.26669 5.29157 73.2523
12907 1 10.019 5.3217 74.6901
18493 2 11.8836 5.32964 75.7267
18716 2 10.9954 3.67716 73.2728
12765 1 15.4753 5.3217 74.6901
12931 1 12.7478 3.70819 74.7105
18492 2 14.6124 3.71445 75.7471
18498 2 13.7229 5.29157 73.2523
12764 1 18.204 3.70819 74.7105
18363 2 17.3398 5.32964 75.7267
18515 2 16.4516 3.67716 73.2728
12687 1 20.9315 5.3217 74.6901
18371 2 20.0687 3.71445 75.7471
18372 2 19.1792 5.29157 73.2523
13420 1 1.83413 6.93489 74.6684
18938 2 0.969894 8.55942 75.6826
18985 2 2.80939 8.52016 73.2078
19314 2 0.0817853 6.90592 73.2307
13114 1 4.56185 8.54774 74.6455
18983 2 3.69859 6.94465 75.7052
18984 2 5.53802 6.90592 73.2307
13151 1 7.29037 6.93489 74.6684
18681 2 9.15483 6.94465 75.7052
18682 2 6.42613 8.55942 75.6826
18687 2 8.26563 8.52016 73.2078
12906 1 10.0181 8.54774 74.6455
18474 2 11.8824 8.55942 75.6826
18719 2 10.9943 6.90592 73.2307
12754 1 15.4743 8.54774 74.6455
12905 1 12.7466 6.93489 74.6684
18495 2 14.6111 6.94465 75.7052
18497 2 13.7219 8.52016 73.2078
12767 1 18.2028 6.93489 74.6684
18362 2 17.3386 8.55942 75.6826
18496 2 16.4505 6.90592 73.2307
12686 1 20.9306 8.54774 74.6455
18361 2 20.0673 6.94465 75.7052
18366 2 19.1781 8.52016 73.2078
13421 1 1.83348 10.1602 74.6214
18937 2 0.969013 11.788 75.6338
18942 2 2.80847 11.748 73.1584
19266 2 0.0807972 10.1342 73.1837
13113 1 4.56152 11.7723 74.5962
18936 2 3.69753 10.1739 75.6587
18987 2 5.53704 10.1342 73.1837
13112 1 7.28972 10.1602 74.6214
18651 2 6.42525 11.788 75.6338
18684 2 9.15376 10.1739 75.6587
18686 2 8.26471 11.748 73.1584
12883 1 10.0178 11.7723 74.5962
18473 2 11.8815 11.788 75.6338
18685 2 10.9933 10.1342 73.1837
12753 1 15.474 11.7723 74.5962
12908 1 12.746 10.1602 74.6214
18472 2 14.61 10.1739 75.6587
18478 2 13.7209 11.748 73.1584
12752 1 18.2022 10.1602 74.6214
18355 2 17.3377 11.788 75.6338
18499 2 16.4495 10.1342 73.1837
12685 1 20.9302 11.7723 74.5962
18364 2 20.0662 10.1739 75.6587
18365 2 19.1772 11.748 73.1584
13375 1 1.8335 13.3839 74.5698
19267 2 0.0799316 13.3615 73.132
18939 2 3.69683 13.4016 75.6078
18940 2 5.53617 13.3615 73.132
13115 1 7.28974 13.3839 74.5698
18649 2 9.15307 13.4016 75.6078
18688 2 10.9924 13.3615 73.132
12881 1 12.746 13.3839 74.5698
18475 2 14.6093 13.4016 75.6078
12755 1 18.2022 13.3839 74.5698
18476 2 16.4486 13.3615 73.132
18353 2 20.0655 13.4016 75.6078
18895 2 0.968494 15.0147 75.5808
18941 2 2.80764 14.9746 73.1045
13376 1 1.83423 16.6056 74.514
19226 2 0.0790983 16.5871 73.0761
13078 1 4.5619 14.995 74.5424
18893 2 3.69647 16.6271 75.5529
18943 2 5.53534 16.5871 73.0761
18650 2 6.42473 15.0147 75.5808
18655 2 8.26388 14.9746 73.1045
13076 1 7.29047 16.6056 74.514
18652 2 9.15271 16.6271 75.5529
12882 1 10.0181 14.995 74.5424
18454 2 11.881 15.0147 75.5808
18653 2 10.9916 16.5871 73.0761
12742 1 15.4744 14.995 74.5424
18477 2 13.7201 14.9746 73.1045
12884 1 12.7467 16.6056 74.514
18452 2 14.6089 16.6271 75.5529
18354 2 17.3372 15.0147 75.5808
12740 1 18.2029 16.6056 74.514
18479 2 16.4478 16.5871 73.0761
12684 1 20.9306 14.995 74.5424
18358 2 19.1764 14.9746 73.1045
18356 2 20.0652 16.6271 75.5529
18894 2 0.968223 18.2387 75.5244
18899 2 2.80675 18.199 73.0468
13337 1 1.83559 19.8248 74.4547
19227 2 0.0781342 19.8101 73.0168
13077 1 4.56297 18.2156 74.4847
18896 2 3.69625 19.8495 75.4952
18897 2 5.53437 19.8101 73.0168
18619 2 6.42446 18.2387 75.5244
18654 2 8.26299 18.199 73.0468
13079 1 7.29183 19.8248 74.4547
18617 2 9.15249 19.8495 75.4952
12859 1 10.0192 18.2156 74.4847
18453 2 11.8807 18.2387 75.5244
18656 2 10.9906 19.8101 73.0168
12741 1 15.4754 18.2156 74.4847
18458 2 13.7192 18.199 73.0468
12857 1 12.7481 19.8248 74.4547
18455 2 14.6087 19.8495 75.4952
18347 2 17.3369 18.2387 75.5244
12743 1 18.2043 19.8248 74.4547
18456 2 16.4468 19.8101 73.0168
12683 1 20.9317 18.2156 74.4847
18357 2 19.1755 18.199 73.0468
18345 2 20.065 19.8495 75.4952
13338 1 1.8377 23.0406 74.3932
18859 2 0.968068 21.4592 75.4657
18898 2 2.80563 21.4205 72.9862
19194 2 0.0766706 23.0296 72.9552
13043 1 4.56464 21.4333 74.4242
18857 2 3.69605 23.0678 75.4362
18900 2 5.53291 23.0296 72.9552
13041 1 7.29393 23.0406 74.3932
18618 2 6.42431 21.4592 75.4657
18620 2 9.15229 23.0678 75.4362
18623 2 8.26187 21.4205 72.9862
12858 1 10.0209 21.4333 74.4242
18434 2 11.8805 21.4592 75.4657
18621 2 10.9891 23.0296 72.9552
12730 1 15.4771 21.4333 74.4242
12860 1 12.7502 23.0406 74.3932
18432 2 14.6085 23.0678 75.4362
18457 2 13.7181 21.4205 72.9862
12728 1 18.2064 23.0406 74.3932
18346 2 17.3368 21.4592 75.4657
18459 2 16.4454 23.0296 72.9552
12682 1 20.9334 21.4333 74.4242
18348 2 20.0648 23.0678 75.4362
18350 2 19.1743 21.4205 72.9862
13307 1 1.83958 26.2525 74.3305
18858 2 0.967855 24.6752 75.4055
18863 2 2.80413 24.6376 72.9239
13042 1 4.5667 24.6468 74.362
18860 2 3.6958 26.2813 75.3749
13044 1 7.29582 26.2525 74.3305
18586 2 9.15204 26.2813 75.3749
18588 2 6.42409 24.6752 75.4055
18622 2 8.26037 24.6376 72.9239
12835 1 10.0229 24.6468 74.362
18433 2 11.8803 24.6752 75.4055
12729 1 15.4792 24.6468 74.362
12833 1 12.7521 26.2525 74.3305
18435 2 14.6083 26.2813 75.3749
18438 2 13.7166 24.6376 72.9239
12731 1 18.2083 26.2525 74.3305
18339 2 17.3366 24.6752 75.4055
12681 1 20.9354 24.6468 74.362
18337 2 20.0645 26.2813 75.3749
18349 2 19.1728 24.6376 72.9239
13308 1 1.84166 29.4609 74.2689
18831 2 0.967484 27.8861 75.3446
13015 1 4.56875 27.8571 74.2994
18829 2 3.69532 29.4894 75.3149
13013 1 7.2979 29.4609 74.2689
18587 2 6.42372 27.8861 75.3446
18589 2 9.15155 29.4894 75.3149
12834 1 10.025 27.8571 74.2994
18414 2 11.88 27.8861 75.3446
12718 1 15.4812 27.8571 74.2994
12836 1 12.7541 29.4609 74.2689
18412 2 14.6078 29.4894 75.3149
12716 1 18.2104 29.4609 74.2689
18338 2 17.3362 27.8861 75.3446
12680 1 20.9375 27.8571 74.2994
18340 2 20.064 29.4894 75.3149
13285 1 1.84359 32.6654 74.2106
18830 2 0.966786 31.0913 75.2861
13014 1 4.57077 31.0637 74.2391
13016 1 7.29983 32.6654 74.2106
18564 2 6.42302 31.0913 75.2861
12812 1 10.027 31.0637 74.2391
18413 2 11.8793 31.0913 75.2861
12717 1 15.4833 31.0637 74.2391
12810 1 12.7561 32.6654 74.2106
12719 1 18.2123 32.6654 74.2106
18331 2 17.3355 31.0913 75.2861
12679 1 20.9395 31.0637 74.2391
18811 2 0.965654 34.2907 75.2324
18832 2 3.69439 32.6917 75.2585
12995 1 4.57257 34.2659 74.1835
18562 2 9.15063 32.6917 75.2585
18563 2 6.42189 34.2907 75.2324
12811 1 10.0288 34.2659 74.1835
18395 2 11.8781 34.2907 75.2324
18415 2 14.6069 32.6917 75.2585
12706 1 15.4851 34.2659 74.1835
18330 2 17.3344 34.2907 75.2324
18329 2 20.0631 32.6917 75.2585
12678 1 20.9413 34.2659 74.1835
13286 1 1.84525 35.8654 74.1582
18810 2 0.964246 37.484 75.1859
18809 2 3.69309 35.8881 75.2081
12994 1 4.5741 37.4637 74.135
12993 1 7.30149 35.8654 74.1582
18565 2 9.14933 35.8881 75.2081
18548 2 6.42048 37.484 75.1859
12796 1 10.0303 37.4637 74.135
18394 2 11.8767 37.484 75.1859
12813 1 12.7577 35.8654 74.1582
18393 2 14.6056 35.8881 75.2081
12705 1 15.4866 37.4637 74.135
12704 1 18.214 35.8654 74.1582
18323 2 17.333 37.484 75.1859
18332 2 20.0618 35.8881 75.2081
12677 1 20.9428 37.4637 74.135
13271 1 1.84664 39.061 74.1141
18799 2 0.962846 40.672 75.1486
12983 1 4.57535 40.6573 74.096
18812 2 3.69164 39.0787 75.1659
12996 1 7.30288 39.061 74.1141
18546 2 9.14788 39.0787 75.1659
18547 2 6.41908 40.672 75.1486
12795 1 10.0316 40.6573 74.096
18383 2 11.8753 40.672 75.1486
12695 1 15.4878 40.6573 74.096
12794 1 12.7591 39.061 74.1141
18396 2 14.6041 39.0787 75.1659
12707 1 18.2154 39.061 74.1141
18322 2 17.3316 40.672 75.1486
12676 1 20.9441 40.6573 74.096
18321 2 20.0604 39.0787 75.1659
13272 1 1.84774 42.2528 74.0808
18798 2 0.961763 43.8557 75.1226
12982 1 4.57629 43.8476 74.0687
18797 2 3.69037 42.2643 75.1341
12981 1 7.30398 42.2528 74.0808
18540 2 6.418 43.8557 75.1226
18549 2 9.1466 42.2643 75.1341
12788 1 10.0325 43.8476 74.0687
18382 2 11.8742 43.8557 75.1226
12694 1 15.4888 43.8476 74.0687
12797 1 12.7602 42.2528 74.0808
18381 2 14.6028 42.2643 75.1341
12693 1 18.2165 42.2528 74.0808
18316 2 17.3305 43.8557 75.1226
12675 1 20.945 43.8476 74.0687
18324 2 20.0591 42.2643 75.1341
13265 1 1.84851 45.4418 74.06
18795 2 0.961261 47.0365 75.1092
12979 1 4.57687 47.0357 74.0547
18800 2 3.68955 45.4463 75.1142
12984 1 7.30475 45.4418 74.06
18538 2 9.14578 45.4463 75.1142
18539 2 6.4175 47.0365 75.1092
18379 2 11.8737 47.0365 75.1092
12787 1 10.0331 47.0357 74.0547
18384 2 14.602 45.4463 75.1142
12786 1 12.761 45.4418 74.06
12691 1 15.4894 47.0357 74.0547
18315 2 17.33 47.0365 75.1092
12696 1 18.2172 45.4418 74.06
18314 2 20.0583 45.4463 75.1142
12674 1 20.9456 47.0357 74.0547
18794 2 0.961486 50.2165 75.1092
13266 1 1.84891 48.6294 74.053
18793 2 3.6894 48.6265 75.1075
12978 1 4.57708 50.2231 74.0549
12977 1 7.30514 48.6294 74.053
18537 2 6.41772 50.2165 75.1092
18541 2 9.14564 48.6265 75.1075
12785 1 10.0333 50.2231 74.0549
18378 2 11.874 50.2165 75.1092
12690 1 15.4896 50.2231 74.0549
12789 1 12.7614 48.6294 74.053
18377 2 14.6019 48.6265 75.1075
12689 1 18.2176 48.6294 74.053
18313 2 17.3302 50.2165 75.1092
12673 1 20.9458 50.2231 74.0549
18317 2 20.0581 48.6265 75.1075
10351 2 2.75522 51.6874 -4.07746
10343 2 0.924618 51.6874 -1.5842
10366 2 0.0265137 53.2788 -4.07221
4096 1 1.86751 53.268 -3.02069
4062 1 4.59657 51.6791 -3.02602
10352 2 5.48275 53.2788 -4.07221
10341 2 3.65237 53.2767 -1.57881
10254 2 8.21146 51.6874 -4.07746
10250 2 6.38086 51.6874 -1.5842
10251 2 9.10861 53.2767 -1.57881
4060 1 7.32375 53.268 -3.02069
3935 1 10.0528 51.6791 -3.02602
10055 2 11.8371 51.6874 -1.5842
10252 2 10.939 53.2788 -4.07221
3710 1 15.509 51.6791 -3.02602
10063 2 13.6677 51.6874 -4.07746
3936 1 12.78 53.268 -3.02069
10053 2 14.5649 53.2767 -1.57881
9773 2 17.2933 51.6874 -1.5842
3708 1 18.2362 53.268 -3.02069
10064 2 16.3952 53.2788 -4.07221
3392 1 20.9653 51.6791 -3.02602
9776 2 19.1239 51.6874 -4.07746
9774 2 20.0211 53.2767 -1.57881
10347 2 2.75388 54.8699 -4.06486
10342 2 0.92381 54.8657 -1.57126
4061 1 4.59437 54.8565 -3.01321
10253 2 8.21012 54.8699 -4.06486
10242 2 6.38005 54.8657 -1.57126
3931 1 10.0506 54.8565 -3.01321
10054 2 11.8363 54.8657 -1.57126
3709 1 15.5069 54.8565 -3.01321
10059 2 13.6664 54.8699 -4.06486
9767 2 17.2925 54.8657 -1.57126
3391 1 20.9631 54.8565 -3.01321
9775 2 19.1226 54.8699 -4.06486
10367 2 0.0248511 56.4605 -4.05549
10346 2 2.75193 58.0505 -4.04417
10332 2 0.922718 58.042 -1.54997
4092 1 1.86471 56.4448 -3.00364
10345 2 5.48109 56.4605 -4.05549
10344 2 3.65141 56.4541 -1.56161
4054 1 4.59101 58.0327 -2.99207
10246 2 8.20817 58.0505 -4.04417
10241 2 6.37896 58.042 -1.54997
4063 1 7.32095 56.4448 -3.00364
10240 2 9.10765 56.4541 -1.56161
10255 2 10.9373 56.4605 -4.05549
3930 1 10.0473 58.0327 -2.99207
10043 2 11.8352 58.042 -1.54997
3702 1 15.5035 58.0327 -2.99207
3929 1 12.7772 56.4448 -3.00364
10056 2 14.5639 56.4541 -1.56161
10058 2 13.6644 58.0505 -4.04417
3711 1 18.2334 56.4448 -3.00364
9766 2 17.2914 58.042 -1.54997
10057 2 16.3936 56.4605 -4.05549
3390 1 20.9597 58.0327 -2.99207
9765 2 20.0201 56.4541 -1.56161
9770 2 19.1206 58.0505 -4.04417
10364 2 0.0226526 59.6398 -4.03101
10336 2 2.74951 61.2283 -4.01612
10331 2 0.921429 61.2157 -1.5211
4093 1 1.86083 59.6201 -2.97861
10348 2 5.47889 59.6398 -4.03101
10330 2 3.65021 59.6292 -1.53642
4053 1 4.58667 61.2069 -2.96336
10245 2 8.20575 61.2283 -4.01612
10243 2 9.10645 59.6292 -1.53642
4052 1 7.31707 59.6201 -2.97861
10226 2 6.37767 61.2157 -1.5211
10244 2 10.9351 59.6398 -4.03101
3919 1 10.0429 61.2069 -2.96336
10042 2 11.8339 61.2157 -1.5211
3701 1 15.4991 61.2069 -2.96336
3932 1 12.7733 59.6201 -2.97861
10041 2 14.5627 59.6292 -1.53642
10047 2 13.662 61.2283 -4.01612
3700 1 18.2295 59.6201 -2.97861
9753 2 17.2901 61.2157 -1.5211
10060 2 16.3914 59.6398 -4.03101
3383 1 20.9554 61.2069 -2.96336
9768 2 20.0189 59.6292 -1.53642
9769 2 19.1182 61.2283 -4.01612
10365 2 0.0200519 62.816 -3.99962
10335 2 2.74676 64.4027 -3.98166
10320 2 0.920023 64.3861 -1.48563
4088 1 1.85606 62.7931 -2.94646
10334 2 5.47629 62.816 -3.99962
10333 2 3.64886 62.8014 -1.50412
4039 1 4.58152 64.3785 -2.92805
4055 1 7.3123 62.7931 -2.94646
10224 2 9.10509 62.8014 -1.50412
10225 2 6.37626 64.3861 -1.48563
10230 2 8.203 64.4027 -3.98166
10247 2 10.9325 62.816 -3.99962
3918 1 10.0378 64.3785 -2.92805
10023 2 11.8325 64.3861 -1.48563
3686 1 15.494 64.3785 -2.92805
3917 1 12.7685 62.7931 -2.94646
10044 2 14.5613 62.8014 -1.50412
10046 2 13.6592 64.4027 -3.98166
3703 1 18.2248 62.7931 -2.94646
9752 2 17.2887 64.3861 -1.48563
10045 2 16.3888 62.816 -3.99962
3382 1 20.9502 64.3785 -2.92805
9751 2 20.0176 62.8014 -1.50412
9756 2 19.1155 64.4027 -3.98166
10362 2 0.0171644 65.9884 -3.96237
10324 2 2.74376 67.573 -3.94191
10319 2 0.918549 67.5529 -1.44473
4089 1 1.85059 65.9632 -2.90827
10337 2 5.4734 65.9884 -3.96237
10318 2 3.64741 65.97 -1.46578
4038 1 4.57575 67.547 -2.88727
4037 1 7.30683 65.9632 -2.90827
10203 2 6.37479 67.5529 -1.44473
10227 2 9.10365 65.97 -1.46578
10229 2 8.2 67.573 -3.94191
3899 1 10.032 67.547 -2.88727
10022 2 11.831 67.5529 -1.44473
10228 2 10.9296 65.9884 -3.96237
3685 1 15.4882 67.547 -2.88727
3920 1 12.7631 65.9632 -2.90827
10021 2 14.5599 65.97 -1.46578
10027 2 13.6562 67.573 -3.94191
3684 1 18.2193 65.9632 -2.90827
9731 2 17.2873 67.5529 -1.44473
10048 2 16.3859 65.9884 -3.96237
3367 1 20.9445 67.547 -2.88727
9754 2 20.0161 65.97 -1.46578
9755 2 19.1125 67.573 -3.94191
10363 2 0.0140789 69.1566 -3.92041
10323 2 2.7406 70.7389 -3.89805
10308 2 0.917028 70.7156 -1.39963
4084 1 1.84457 69.1298 -2.86523
10322 2 5.47032 69.1566 -3.92041
10321 2 3.64591 69.1347 -1.42262
4023 1 4.56954 70.7118 -2.84229
4040 1 7.30081 69.1298 -2.86523
10201 2 9.10215 69.1347 -1.42262
10202 2 6.37327 70.7156 -1.39963
10207 2 8.19684 70.7389 -3.89805
3898 1 10.0258 70.7118 -2.84229
9995 2 11.8295 70.7156 -1.39963
10231 2 10.9266 69.1566 -3.92041
3662 1 15.482 70.7118 -2.84229
3897 1 12.757 69.1298 -2.86523
10024 2 14.5584 69.1347 -1.42262
10026 2 13.6531 70.7389 -3.89805
3687 1 18.2133 69.1298 -2.86523
9730 2 17.2857 70.7156 -1.39963
10025 2 16.3828 69.1566 -3.92041
3366 1 20.9383 70.7118 -2.84229
9729 2 20.0146 69.1347 -1.42262
9734 2 19.1093 70.7389 -3.89805
10360 2 0.010863 72.3202 -3.87498
10312 2 2.73734 73.9003 -3.85134
10307 2 0.915457 73.8744 -1.35166
4085 1 1.8382 72.2928 -2.81863
10325 2 5.4671 72.3202 -3.87498
10306 2 3.64437 72.2955 -1.37593
4022 1 4.56306 73.8728 -2.79441
4021 1 7.29444 72.2928 -2.81863
10179 2 6.3717 73.8744 -1.35166
10204 2 9.10061 72.2955 -1.37593
10206 2 8.19358 73.9003 -3.85134
3872 1 10.0193 73.8728 -2.79441
9994 2 11.8279 73.8744 -1.35166
10205 2 10.9233 72.3202 -3.87498
3661 1 15.4755 73.8728 -2.79441
3900 1 12.7507 72.2928 -2.81863
9993 2 14.5568 72.2955 -1.37593
9999 2 13.6498 73.9003 -3.85134
3660 1 18.2069 72.2928 -2.81863
9701 2 17.2842 73.8744 -1.35166
10028 2 16.3796 72.3202 -3.87498
3343 1 20.9318 73.8728 -2.79441
9732 2 20.0131 72.2955 -1.37593
9733 2 19.1061 73.9003 -3.85134
10361 2 0.00757307 75.4792 -3.82731
4080 1 1.83166 75.4518 -2.76978
10310 2 5.46381 75.4792 -3.82731
10309 2 3.64277 75.4523 -1.327
4024 1 7.28789 75.4518 -2.76978
10177 2 9.09901 75.4523 -1.327
10208 2 10.92 75.4792 -3.82731
3870 1 12.7441 75.4518 -2.76978
9996 2 14.5552 75.4523 -1.327
3663 1 18.2004 75.4518 -2.76978
9997 2 16.3763 75.4792 -3.82731
9699 2 20.0115 75.4523 -1.327
10358 2 0.00426236 78.6337 -3.7786
10311 2 2.73404 77.057 -3.80301
10296 2 0.913825 77.0293 -1.3021
4081 1 1.82513 78.607 -2.71995
10313 2 5.4605 78.6337 -3.7786
10294 2 3.6411 78.6054 -1.2771
4007 1 4.5565 77.0299 -2.74492
4005 1 7.28137 78.607 -2.71995
10178 2 6.37006 77.0293 -1.3021
10180 2 9.09734 78.6054 -1.2771
10183 2 8.19027 77.057 -3.80301
3871 1 10.0127 77.0299 -2.74492
9960 2 11.8263 77.0293 -1.3021
10181 2 10.9167 78.6337 -3.7786
3630 1 15.469 77.0299 -2.74492
3873 1 12.7376 78.607 -2.71995
9958 2 14.5536 78.6054 -1.2771
9998 2 13.6465 77.057 -3.80301
3628 1 18.1938 78.607 -2.71995
9700 2 17.2825 77.0293 -1.3021
10000 2 16.373 78.6337 -3.7786
3342 1 20.9252 77.0299 -2.74492
9702 2 20.0098 78.6054 -1.2771
9704 2 19.1028 77.057 -3.80301
10300 2 2.73074 80.2094 -3.75421
10295 2 0.912122 80.1807 -1.25214
4076 1 1.81881 81.7585 -2.67028
10298 2 5.45722 81.7841 -3.72997
10297 2 3.63936 81.7551 -1.22736
4006 1 4.55006 80.1832 -2.69503
4008 1 7.27505 81.7585 -2.67028
10153 2 9.0956 81.7551 -1.22736
10155 2 6.36836 80.1807 -1.25214
10182 2 8.18697 80.2094 -3.75421
3844 1 10.0063 80.1832 -2.69503
9959 2 11.8246 80.1807 -1.25214
10184 2 10.9135 81.7841 -3.72997
3629 1 15.4625 80.1832 -2.69503
3842 1 12.7313 81.7585 -2.67028
9961 2 14.5518 81.7551 -1.22736
9964 2 13.6432 80.2094 -3.75421
3631 1 18.1875 81.7585 -2.67028
9663 2 17.2808 80.1807 -1.25214
9962 2 16.3697 81.7841 -3.72997
10359 2 21.8259 81.7841 -3.72997
3311 1 20.9188 80.1832 -2.69503
9661 2 20.0081 81.7551 -1.22736
9703 2 19.0995 80.2094 -3.75421
10299 2 2.7275 83.3578 -3.70599
10284 2 0.910349 83.3287 -1.20286
4077 1 1.81286 84.9065 -2.62177
10301 2 5.45403 84.9307 -3.68238
10282 2 3.63756 84.9017 -1.17877
3991 1 4.5439 83.3329 -2.64582
3989 1 7.2691 84.9065 -2.62177
10154 2 6.36659 83.3287 -1.20286
10156 2 9.0938 84.9017 -1.17877
10159 2 8.18373 83.3578 -3.70599
3843 1 10.0001 83.3329 -2.64582
9924 2 11.8228 83.3287 -1.20286
10157 2 10.9103 84.9307 -3.68238
3591 1 15.4564 83.3329 -2.64582
3845 1 12.7253 84.9065 -2.62177
9922 2 14.55 84.9017 -1.17877
9963 2 13.64 83.3578 -3.70599
3589 1 18.1816 84.9065 -2.62177
9662 2 17.2791 83.3287 -1.20286
9965 2 16.3665 84.9307 -3.68238
10356 2 21.8228 84.9307 -3.68238
3310 1 20.9126 83.3329 -2.64582
9664 2 20.0063 84.9017 -1.17877
9666 2 19.0962 83.3578 -3.70599
10288 2 2.72437 86.5027 -3.65923
10283 2 0.908522 86.474 -1.15518
4072 1 1.80738 88.0515 -2.57525
10286 2 5.45099 88.074 -3.63664
10285 2 3.63572 88.0457 -1.13218
3990 1 4.53818 86.4794 -2.59822
3992 1 7.26362 88.0515 -2.57525
10129 2 9.09195 88.0457 -1.13218
10131 2 6.36476 86.474 -1.15518
10158 2 8.18061 86.5027 -3.65923
3816 1 9.99441 86.4794 -2.59822
9923 2 11.821 86.474 -1.15518
10160 2 10.9072 88.074 -3.63664
3590 1 15.4507 86.4794 -2.59822
3814 1 12.7199 88.0515 -2.57525
9925 2 14.5482 88.0457 -1.13218
9928 2 13.6368 86.5027 -3.65923
3592 1 18.1761 88.0515 -2.57525
9618 2 17.2772 86.474 -1.15518
9926 2 16.3635 88.074 -3.63664
10357 2 21.8197 88.074 -3.63664
3271 1 20.9069 86.4794 -2.59822
9616 2 20.0044 88.0457 -1.13218
9665 2 19.0931 86.5027 -3.65923
10287 2 2.72141 89.6446 -3.61468
10272 2 0.906671 89.6169 -1.10984
4073 1 1.80246 91.194 -2.53139
10289 2 5.44812 91.2146 -3.59342
3975 1 4.53297 89.6231 -2.55295
3973 1 7.2587 91.194 -2.53139
10130 2 6.36291 89.6169 -1.10984
10135 2 8.17765 89.6446 -3.61468
3815 1 9.98921 89.6231 -2.55295
9888 2 11.8191 89.6169 -1.10984
10133 2 10.9044 91.2146 -3.59342
3551 1 15.4454 89.6231 -2.55295
3817 1 12.7149 91.194 -2.53139
9927 2 13.6339 89.6446 -3.61468
3549 1 18.1712 91.194 -2.53139
9617 2 17.2754 89.6169 -1.10984
9929 2 16.3606 91.2146 -3.59342
10354 2 21.8168 91.2146 -3.59342
3270 1 20.9017 89.6231 -2.55295
9621 2 19.0901 89.6446 -3.61468
10276 2 2.71865 92.784 -3.57292
4068 1 1.79812 94.3342 -2.49068
10274 2 5.44548 94.3529 -3.55323
3974 1 4.52834 92.7643 -2.51061
3976 1 7.25436 94.3342 -2.49068
10134 2 8.17489 92.784 -3.57292
3788 1 9.98457 92.7643 -2.51061
10136 2 10.9017 94.3529 -3.55323
3550 1 15.4408 92.7643 -2.51061
3786 1 12.7106 94.3342 -2.49068
9892 2 13.6311 92.784 -3.57292
3552 1 18.1668 94.3342 -2.49068
9890 2 16.358 94.3529 -3.55323
10355 2 21.8142 94.3529 -3.55323
3224 1 20.8971 92.7643 -2.51061
9620 2 19.0874 92.784 -3.57292
10275 2 2.71614 95.9213 -3.53441
4069 1 1.79436 97.4726 -2.45351
3960 1 4.52429 95.9036 -2.47163
10277 2 5.4431 97.4893 -3.51648
3958 1 7.2506 97.4726 -2.45351
10112 2 8.17238 95.9213 -3.53441
3787 1 9.98052 95.9036 -2.47163
10110 2 10.8993 97.4893 -3.51648
3512 1 15.4368 95.9036 -2.47163
3789 1 12.7068 97.4726 -2.45351
9891 2 13.6286 95.9213 -3.53441
3510 1 18.1631 97.4726 -2.45351
9893 2 16.3556 97.4893 -3.51648
10353 2 21.8118 97.4893 -3.51648
3223 1 20.893 95.9036 -2.47163
9575 2 19.0849 95.9213 -3.53441
10265 2 2.7139 99.057 -3.49949
6143 1 1.79118 100.61 -2.42017
3959 1 4.52082 99.0412 -2.43635
12526 2 5.441 100.624 -3.48346
10111 2 8.17013 99.057 -3.49949
6112 1 7.24742 100.61 -2.42017
3761 1 9.97706 99.0412 -2.43635
12432 2 10.8972 100.624 -3.48346
3511 1 15.4333 99.0412 -2.43635
9857 2 13.6264 99.057 -3.49949
5982 1 12.7037 100.61 -2.42017
12238 2 16.3535 100.624 -3.48346
5760 1 18.1599 100.61 -2.42017
3176 1 20.8895 99.0412 -2.43635
9574 2 19.0826 99.057 -3.49949
12544 2 21.8097 100.624 -3.48346
4058 1 2.74841 51.6824 -0.365437
10340 2 1.83599 53.2708 0.966878
4090 1 0.0198748 53.2698 -0.360039
10238 2 4.56447 51.6842 0.961361
4059 1 5.47611 53.2698 -0.360039
3927 1 8.20465 51.6824 -0.365437
10236 2 7.29223 53.2708 0.966878
10051 2 10.0207 51.6842 0.961361
3925 1 10.9324 53.2698 -0.360039
3706 1 13.6609 51.6824 -0.365437
9763 2 15.4769 51.6842 0.961361
10052 2 12.7485 53.2708 0.966878
3707 1 16.3886 53.2698 -0.360039
9761 2 18.2047 53.2708 0.966878
3389 1 19.1171 51.6824 -0.365437
9408 2 20.9332 51.6842 0.961361
4050 1 2.74747 54.8568 -0.352467
10237 2 4.56366 54.857 0.974608
3926 1 8.20371 54.8568 -0.352467
10039 2 10.0199 54.857 0.974608
3698 1 13.6599 54.8568 -0.352467
9762 2 15.4761 54.857 0.974608
3388 1 19.1162 54.8568 -0.352467
9407 2 20.9324 54.857 0.974608
10328 2 1.83502 56.4429 0.984473
4049 1 2.74614 58.0297 -0.331086
4091 1 0.0187318 56.4435 -0.342785
4048 1 5.47497 56.4435 -0.342785
10222 2 4.56254 58.0283 0.99638
3915 1 8.20238 58.0297 -0.331086
10239 2 7.29125 56.4429 0.984473
3928 1 10.9312 56.4435 -0.342785
10038 2 10.0188 58.0283 0.99638
3697 1 13.6586 58.0297 -0.331086
9749 2 15.475 58.0283 0.99638
10037 2 12.7475 56.4429 0.984473
3696 1 16.3874 56.4435 -0.342785
9764 2 18.2037 56.4429 0.984473
3381 1 19.1149 58.0297 -0.331086
9406 2 20.9313 58.0283 0.99638
10329 2 1.83376 59.6131 1.01022
4035 1 2.7445 61.2004 -0.302065
4086 1 0.0172351 59.6153 -0.317474
4051 1 5.47347 59.6153 -0.317474
10221 2 4.56117 61.1973 1.02588
3914 1 8.20074 61.2004 -0.302065
10220 2 7.29 59.6131 1.01022
3913 1 10.9297 59.6153 -0.317474
10019 2 10.0174 61.1973 1.02588
3682 1 13.657 61.2004 -0.302065
9748 2 15.4736 61.1973 1.02588
10040 2 12.7462 59.6131 1.01022
3699 1 16.386 59.6153 -0.317474
9747 2 18.2025 59.6131 1.01022
3380 1 19.1132 61.2004 -0.302065
9399 2 20.9299 61.1973 1.02588
10316 2 1.8323 62.7809 1.04322
4034 1 2.74263 64.3684 -0.266377
4087 1 0.0154688 62.7847 -0.284985
4033 1 5.47171 62.7847 -0.284985
10199 2 4.55963 64.3636 1.0621
3895 1 8.19886 64.3684 -0.266377
10223 2 7.28854 62.7809 1.04322
3916 1 10.9279 62.7847 -0.284985
10018 2 10.0159 64.3636 1.0621
3681 1 13.6551 64.3684 -0.266377
9727 2 15.4721 64.3636 1.0621
10017 2 12.7448 62.7809 1.04322
3680 1 16.3842 62.7847 -0.284985
9750 2 18.201 62.7809 1.04322
3365 1 19.1113 64.3684 -0.266377
9398 2 20.9283 64.3636 1.0621
10317 2 1.83069 65.9457 1.08235
4019 1 2.74058 67.5333 -0.225175
4082 1 0.0135009 65.9512 -0.246388
4036 1 5.46974 65.9512 -0.246388
10198 2 4.55795 67.5269 1.10383
3894 1 8.19681 67.5333 -0.225175
10197 2 7.28692 65.9457 1.08235
3893 1 10.926 65.9512 -0.246388
9991 2 10.0142 67.5269 1.10383
3658 1 13.6531 67.5333 -0.225175
9726 2 15.4704 67.5269 1.10383
10020 2 12.7432 65.9457 1.08235
3683 1 16.3822 65.9512 -0.246388
9725 2 18.1994 65.9457 1.08235
3364 1 19.1093 67.5333 -0.225175
9383 2 20.9267 67.5269 1.10383
10304 2 1.82894 69.1073 1.12637
4018 1 2.73838 70.6948 -0.17973
4083 1 0.0113765 69.1145 -0.2029
4017 1 5.46761 69.1145 -0.2029
10175 2 4.55614 70.6869 1.14979
3868 1 8.19462 70.6948 -0.17973
10200 2 7.28518 69.1073 1.12637
3896 1 10.9239 69.1145 -0.2029
9990 2 10.0124 70.6869 1.14979
3657 1 13.6509 70.6948 -0.17973
9697 2 15.4686 70.6869 1.14979
9989 2 12.7414 69.1073 1.12637
3656 1 16.3801 69.1145 -0.2029
9728 2 18.1977 69.1073 1.12637
3341 1 19.1071 70.6948 -0.17973
9382 2 20.9249 70.6869 1.14979
10305 2 1.82708 72.2656 1.17393
4003 1 2.73607 73.853 -0.131367
4078 1 0.00912348 72.2743 -0.155831
4020 1 5.46536 72.2743 -0.155831
10174 2 4.55422 73.8436 1.19862
3867 1 8.19231 73.853 -0.131367
10173 2 7.28332 72.2656 1.17393
3866 1 10.9216 72.2743 -0.155831
9956 2 10.0105 73.8436 1.19862
3626 1 13.6486 73.853 -0.131367
9696 2 15.4667 73.8436 1.19862
9992 2 12.7396 72.2656 1.17393
3659 1 16.3778 72.2743 -0.155831
9695 2 18.1958 72.2656 1.17393
3340 1 19.1048 73.853 -0.131367
9359 2 20.9229 73.8436 1.19862
10292 2 1.8251 75.4208 1.22369
4079 1 0.00676247 75.4308 -0.106503
4002 1 2.73367 77.0078 -0.0813942
4001 1 5.463 75.4308 -0.106503
10151 2 4.55219 76.9972 1.249
10176 2 7.28134 75.4208 1.22369
3840 1 8.18991 77.0078 -0.0813942
3869 1 10.9192 75.4308 -0.106503
9955 2 10.0084 76.9972 1.249
9954 2 12.7376 75.4208 1.22369
3625 1 13.6461 77.0078 -0.0813942
9659 2 15.4647 76.9972 1.249
3624 1 16.3755 75.4308 -0.106503
9698 2 18.1938 75.4208 1.22369
3309 1 19.1024 77.0078 -0.0813942
9358 2 20.9209 76.9972 1.249
10293 2 1.82301 78.573 1.27438
4074 1 0.00431624 78.5839 -0.0561913
4004 1 5.46055 78.5839 -0.0561913
10149 2 7.27925 78.573 1.27438
3838 1 10.9168 78.5839 -0.0561913
9957 2 12.7355 78.573 1.27438
3627 1 16.373 78.5839 -0.0561913
9657 2 18.1917 78.573 1.27438
10280 2 1.82084 81.7225 1.32481
3987 1 2.73119 80.1594 -0.031036
3985 1 5.45805 81.7341 -0.00606031
10150 2 4.55005 80.148 1.29969
3839 1 8.18743 80.1594 -0.031036
10152 2 7.27707 81.7225 1.32481
3841 1 10.9143 81.7341 -0.00606031
9920 2 10.0063 80.148 1.29969
3587 1 13.6437 80.1594 -0.031036
9658 2 15.4625 80.148 1.29969
9918 2 12.7333 81.7225 1.32481
3585 1 16.3705 81.7341 -0.00606031
9660 2 18.1896 81.7225 1.32481
4075 1 21.8268 81.7341 -0.00606031
3308 1 19.0999 80.1594 -0.031036
9327 2 20.9188 80.148 1.29969
10281 2 1.81861 84.8696 1.374
3986 1 2.72868 83.3081 0.0186142
3988 1 5.45554 84.8815 0.0428769
10127 2 4.54784 83.2963 1.34962
3812 1 8.18491 83.3081 0.0186142
10125 2 7.27484 84.8696 1.374
3810 1 10.9118 84.8815 0.0428769
9919 2 10.0041 83.2963 1.34962
3586 1 13.6412 83.3081 0.0186142
9614 2 15.4603 83.2963 1.34962
9921 2 12.7311 84.8696 1.374
3588 1 16.368 84.8815 0.0428769
9612 2 18.1873 84.8696 1.374
4070 1 21.8243 84.8815 0.0428769
3269 1 19.0974 83.3081 0.0186142
9326 2 20.9166 83.2963 1.34962
10268 2 1.81637 88.0147 1.4211
3971 1 2.72617 86.4544 0.0666284
3969 1 5.45306 88.0267 0.0897805
10126 2 4.5456 86.4424 1.39786
3811 1 8.18241 86.4544 0.0666284
10128 2 7.27261 88.0147 1.4211
3813 1 10.9093 88.0267 0.0897805
9884 2 10.0018 86.4424 1.39786
3547 1 13.6386 86.4544 0.0666284
9613 2 15.4581 86.4424 1.39786
9882 2 12.7288 88.0147 1.4211
3545 1 16.3655 88.0267 0.0897805
9615 2 18.1851 88.0147 1.4211
4071 1 21.8218 88.0267 0.0897805
3268 1 19.0949 86.4544 0.0666284
9287 2 20.9143 86.4424 1.39786
10269 2 1.81417 91.1582 1.46546
3970 1 2.72372 89.5985 0.112256
10270 2 3.63387 91.1876 -1.08824
3972 1 5.45066 91.1698 0.133987
10104 2 4.54338 89.5866 1.44366
10132 2 9.09011 91.1876 -1.08824
3784 1 8.17996 89.5985 0.112256
10102 2 7.27041 91.1582 1.46546
3782 1 10.9069 91.1698 0.133987
9883 2 9.99962 89.5866 1.44366
9886 2 14.5463 91.1876 -1.08824
3546 1 13.6362 89.5985 0.112256
9568 2 15.4559 89.5866 1.44366
9885 2 12.7266 91.1582 1.46546
3548 1 16.3631 91.1698 0.133987
9566 2 18.1829 91.1582 1.46546
9619 2 20.0026 91.1876 -1.08824
4066 1 21.8194 91.1698 0.133987
3222 1 19.0924 89.5985 0.112256
9286 2 20.9121 89.5866 1.44366
10271 2 0.904839 92.7578 -1.06742
10260 2 1.81207 94.3004 1.50659
3956 1 2.72138 92.7407 0.154915
10273 2 3.63207 94.3276 -1.04745
3954 1 5.44839 94.3113 0.174989
10103 2 4.54122 92.7294 1.48645
10106 2 9.0883 94.3276 -1.04745
10108 2 6.36108 92.7578 -1.06742
3783 1 8.17762 92.7407 0.154915
10105 2 7.26831 94.3004 1.50659
9887 2 11.8173 92.7578 -1.06742
3785 1 10.9046 94.3113 0.174989
9852 2 9.99746 92.7294 1.48645
9889 2 14.5445 94.3276 -1.04745
3508 1 13.6339 92.7407 0.154915
9567 2 15.4537 92.7294 1.48645
9850 2 12.7245 94.3004 1.50659
9572 2 17.2736 92.7578 -1.06742
3506 1 16.3609 94.3113 0.174989
9569 2 18.1808 94.3004 1.50659
9570 2 20.0008 94.3276 -1.04745
4067 1 21.8171 94.3113 0.174989
3221 1 19.0901 92.7407 0.154915
9240 2 20.9099 92.7294 1.48645
10264 2 0.903076 95.8971 -1.02837
10261 2 1.81011 97.4414 1.54411
3955 1 2.7192 95.8816 0.194168
10262 2 3.63035 97.4663 -1.01022
3957 1 5.4463 97.4515 0.212403
10088 2 4.53919 95.871 1.52582
10107 2 6.35931 95.8971 -1.02837
10109 2 9.08659 97.4663 -1.01022
3760 1 8.17544 95.8816 0.194168
10086 2 7.26635 97.4414 1.54411
9856 2 11.8156 95.8971 -1.02837
3758 1 10.9025 97.4515 0.212403
9851 2 9.99543 95.871 1.52582
9854 2 14.5428 97.4663 -1.01022
3507 1 13.6317 95.8816 0.194168
9528 2 15.4517 95.871 1.52582
9853 2 12.7226 97.4414 1.54411
9571 2 17.2718 95.8971 -1.02837
3509 1 16.3588 97.4515 0.212403
9526 2 18.1788 97.4414 1.54411
9573 2 19.9991 97.4663 -1.01022
4065 1 21.815 97.4515 0.212403
3175 1 19.0879 95.8816 0.194168
9239 2 20.9079 95.871 1.52582
10263 2 0.901425 99.0352 -0.993023
3945 1 2.71721 99.0212 0.229671
12515 2 1.80834 100.582 1.57773
10087 2 4.53732 99.0117 1.56142
6105 1 5.44441 100.591 0.245947
12525 2 3.62877 100.604 -0.976807
10089 2 6.35766 99.0352 -0.993023
3759 1 8.17345 99.0212 0.229671
12424 2 7.26458 100.582 1.57773
12425 2 9.08501 100.604 -0.976807
9855 2 11.8139 99.0352 -0.993023
9825 2 9.99356 99.0117 1.56142
5981 1 10.9007 100.591 0.245947
3473 1 13.6297 99.0212 0.229671
9527 2 15.4498 99.0117 1.56142
12226 2 12.7208 100.582 1.57773
12237 2 14.5412 100.604 -0.976807
9529 2 17.2701 99.0352 -0.993023
11947 2 18.1771 100.582 1.57773
5753 1 16.3569 100.591 0.245947
3174 1 19.0859 99.0212 0.229671
9192 2 20.906 99.0117 1.56142
6142 1 21.8131 100.591 0.245947
11948 2 19.9975 100.604 -0.976807
4046 1 0.929272 51.6813 2.22189
10234 2 2.74841 51.6824 3.52026
10326 2 0.0199031 53.2665 3.52593
4044 1 3.65702 53.2663 2.22746
10235 2 5.47614 53.2665 3.52593
3923 1 6.38551 51.6813 2.22189
10035 2 8.20464 51.6824 3.52026
3924 1 9.11326 53.2663 2.22746
3694 1 11.8417 51.6813 2.22189
10033 2 10.9324 53.2665 3.52593
9759 2 13.6609 51.6824 3.52026
3692 1 14.5695 53.2663 2.22746
3386 1 17.298 51.6813 2.22189
9760 2 16.3886 53.2665 3.52593
9405 2 19.1171 51.6824 3.52026
3387 1 20.0257 53.2663 2.22746
4045 1 0.928443 54.851 2.23528
10218 2 2.74753 54.8504 3.53389
3911 1 6.38468 54.851 2.23528
10034 2 8.20376 54.8504 3.53389
3693 1 11.8409 54.851 2.23528
9745 2 13.66 54.8504 3.53389
3378 1 17.2972 54.851 2.23528
9404 2 19.1162 54.8504 3.53389
10327 2 0.0188256 56.4339 3.54401
4031 1 0.927236 58.0194 2.25729
10217 2 2.74628 58.017 3.55622
4047 1 3.656 56.4354 2.24526
10216 2 5.47506 56.4339 3.54401
3909 1 9.11224 56.4354 2.24526
3910 1 6.38347 58.0194 2.25729
10015 2 8.20252 58.017 3.55622
3678 1 11.8397 58.0194 2.25729
10036 2 10.9313 56.4339 3.54401
3695 1 14.5685 56.4354 2.24526
9744 2 13.6588 58.017 3.55622
3377 1 17.296 58.0194 2.25729
9743 2 16.3875 56.4339 3.54401
3376 1 20.0247 56.4354 2.24526
9397 2 19.115 58.017 3.55622
10314 2 0.0174314 59.5997 3.57041
4030 1 0.92574 61.1859 2.28713
10195 2 2.74475 61.1818 3.58645
4029 1 3.65464 59.6029 2.27129
10219 2 5.47367 59.5997 3.57041
3891 1 6.38198 61.1859 2.28713
3912 1 9.11088 59.6029 2.27129
10014 2 8.20099 61.1818 3.58645
3677 1 11.8382 61.1859 2.28713
10013 2 10.9299 59.5997 3.57041
3676 1 14.5671 59.6029 2.27129
9723 2 13.6572 61.1818 3.58645
3362 1 17.2945 61.1859 2.28713
9746 2 16.3861 59.5997 3.57041
3379 1 20.0234 59.6029 2.27129
9396 2 19.1135 61.1818 3.58645
10315 2 0.0157821 62.7634 3.60421
4015 1 0.924014 64.3501 2.32379
10194 2 2.743 64.3443 3.62352
4032 1 3.65302 62.7683 2.30468
10193 2 5.47202 62.7634 3.60421
3889 1 9.10926 62.7683 2.30468
3890 1 6.38025 64.3501 2.32379
9987 2 8.19923 64.3443 3.62352
3654 1 11.8365 64.3501 2.32379
10016 2 10.9283 62.7634 3.60421
3679 1 14.5655 62.7683 2.30468
9722 2 13.6555 64.3443 3.62352
3361 1 17.2927 64.3501 2.32379
9721 2 16.3845 62.7634 3.60421
3360 1 20.0217 62.7683 2.30468
9381 2 19.1117 64.3443 3.62352
10302 2 0.0139221 65.9246 3.64424
4014 1 0.922096 67.5116 2.36604
10171 2 2.74104 67.5042 3.66618
4013 1 3.6512 65.9312 2.3443
10196 2 5.47016 65.9246 3.64424
3864 1 6.37833 67.5116 2.36604
3892 1 9.10744 65.9312 2.3443
9986 2 8.19728 67.5042 3.66618
3653 1 11.8346 67.5116 2.36604
9985 2 10.9264 65.9246 3.64424
3652 1 14.5637 65.9312 2.3443
9693 2 13.6535 67.5042 3.66618
3338 1 17.2908 67.5116 2.36604
9724 2 16.3826 65.9246 3.64424
3363 1 20.0199 65.9312 2.3443
9380 2 19.1098 67.5042 3.66618
10303 2 0.0118754 69.0831 3.68918
3999 1 0.920006 70.6703 2.41257
10170 2 2.7389 70.6614 3.71307
4016 1 3.64919 69.0913 2.38886
10169 2 5.46811 69.0831 3.68918
3862 1 9.10543 69.0913 2.38886
3863 1 6.37624 70.6703 2.41257
9952 2 8.19514 70.6614 3.71307
3622 1 11.8325 70.6703 2.41257
9988 2 10.9244 69.0831 3.68918
3655 1 14.5617 69.0913 2.38886
9692 2 13.6514 70.6614 3.71307
3337 1 17.2887 70.6703 2.41257
9691 2 16.3806 69.0831 3.68918
3336 1 20.0179 69.0913 2.38886
9357 2 19.1076 70.6614 3.71307
10290 2 0.00965378 72.2391 3.73765
3998 1 0.917759 73.8262 2.46199
10147 2 2.7366 73.8161 3.76277
3997 1 3.64702 72.2486 2.43701
10172 2 5.46589 72.2391 3.73765
3836 1 6.374 73.8262 2.46199
3865 1 9.10326 72.2486 2.43701
9951 2 8.19284 73.8161 3.76277
3621 1 11.8302 73.8262 2.46199
9950 2 10.9221 72.2391 3.73765
3620 1 14.5595 72.2486 2.43701
9655 2 13.6491 73.8161 3.76277
3306 1 17.2865 73.8262 2.46199
9694 2 16.3784 72.2391 3.73765
3339 1 20.0157 72.2486 2.43701
9356 2 19.1053 73.8161 3.76277
10291 2 0.00727127 75.3925 3.78825
3983 1 0.915373 76.9794 2.51294
10146 2 2.73415 76.9683 3.81393
4000 1 3.6447 75.4031 2.48736
10145 2 5.46351 75.3925 3.78825
3834 1 9.10094 75.4031 2.48736
3835 1 6.37161 76.9794 2.51294
9916 2 8.19039 76.9683 3.81393
9953 2 10.9197 75.3925 3.78825
3583 1 11.8278 76.9794 2.51294
3623 1 14.5572 75.4031 2.48736
9654 2 13.6466 76.9683 3.81393
9653 2 16.376 75.3925 3.78825
3305 1 17.2841 76.9794 2.51294
3304 1 20.0134 75.4031 2.48736
9325 2 19.1029 76.9683 3.81393
10278 2 0.00475537 78.5435 3.83965
3981 1 3.64226 78.555 2.5386
10148 2 5.46099 78.5435 3.83965
3837 1 9.09849 78.555 2.5386
9914 2 10.9172 78.5435 3.83965
3581 1 14.5547 78.555 2.5386
9656 2 16.3735 78.5435 3.83965
3307 1 20.011 78.555 2.5386
10279 2 0.00215068 81.6926 3.89069
3982 1 0.91288 80.1301 2.56418
10123 2 2.73158 80.1183 3.86529
3984 1 3.63973 81.7046 2.58955
10121 2 5.45839 81.6926 3.89069
3806 1 9.09597 81.7046 2.58955
3808 1 6.36912 80.1301 2.56418
9915 2 8.18782 80.1183 3.86529
3582 1 11.8254 80.1301 2.56418
9917 2 10.9146 81.6926 3.89069
3584 1 14.5522 81.7046 2.58955
9610 2 13.6441 80.1183 3.86529
3266 1 17.2816 80.1301 2.56418
9608 2 16.3709 81.6926 3.89069
3264 1 20.0084 81.7046 2.58955
9324 2 19.1003 80.1183 3.86529
3967 1 0.910327 83.2786 2.61458
10122 2 2.72895 83.2665 3.91575
3965 1 3.63716 84.8521 2.63917
10124 2 5.45575 84.84 3.94036
3807 1 6.36657 83.2786 2.61458
3809 1 9.0934 84.8521 2.63917
9880 2 8.18519 83.2665 3.91575
3543 1 11.8228 83.2786 2.61458
9878 2 10.912 84.84 3.94036
3541 1 14.5496 84.8521 2.63917
9609 2 13.6414 83.2665 3.91575
3265 1 17.279 83.2786 2.61458
9611 2 16.3682 84.84 3.94036
10266 2 21.8245 84.84 3.94036
3267 1 20.0059 84.8521 2.63917
9285 2 19.0977 83.2665 3.91575
3966 1 0.907768 86.4253 2.66322
10100 2 2.72633 86.4131 3.96441
3968 1 3.63462 87.998 2.68664
10098 2 5.45315 87.986 3.98782
3778 1 9.09086 87.998 2.68664
3780 1 6.36401 86.4253 2.66322
9879 2 8.18256 86.4131 3.96441
3542 1 11.8202 86.4253 2.66322
9881 2 10.9094 87.986 3.98782
3544 1 14.5471 87.998 2.68664
9564 2 13.6388 86.4131 3.96441
3219 1 17.2765 86.4253 2.66322
9562 2 16.3656 87.986 3.98782
10267 2 21.8219 87.986 3.98782
3217 1 20.0033 87.998 2.68664
9284 2 19.095 86.4131 3.96441
3952 1 0.905263 89.5704 2.70936
10099 2 2.72376 89.5585 4.01052
3950 1 3.63217 91.1424 2.7313
10101 2 5.45064 91.1308 4.03245
3779 1 6.3615 89.5704 2.70936
3781 1 9.08841 91.1424 2.7313
9848 2 8.18 89.5585 4.01052
3504 1 11.8177 89.5704 2.70936
9846 2 10.9069 91.1308 4.03245
3502 1 14.5446 91.1424 2.7313
9563 2 13.6362 89.5585 4.01052
3218 1 17.274 89.5704 2.70936
9565 2 16.3631 91.1308 4.03245
10258 2 21.8194 91.1308 4.03245
3220 1 20.0009 91.1424 2.7313
9238 2 19.0925 89.5585 4.01052
3951 1 0.902867 92.7142 2.75242
10084 2 2.72132 92.7029 4.05354
3953 1 3.62985 94.2857 2.77266
10082 2 5.44828 94.2748 4.07376
3754 1 9.08609 94.2857 2.77266
3756 1 6.35911 92.7142 2.75242
9847 2 8.17756 92.7029 4.05354
3503 1 11.8153 92.7142 2.75242
9849 2 10.9045 94.2748 4.07376
3505 1 14.5423 94.2857 2.77266
9524 2 13.6338 92.7029 4.05354
3172 1 17.2716 92.7142 2.75242
9522 2 16.3608 94.2748 4.07376
10259 2 21.817 94.2748 4.07376
3170 1 19.9986 94.2857 2.77266
9237 2 19.09 92.7029 4.05354
3944 1 0.900629 95.857 2.79199
10083 2 2.71905 95.8466 4.09306
3942 1 3.62772 97.4282 2.81039
10085 2 5.4461 97.4182 4.11143
3755 1 6.35687 95.857 2.79199
3757 1 9.08396 97.4282 2.81039
9824 2 8.17529 95.8466 4.09306
3472 1 11.8131 95.857 2.79199
9822 2 10.9023 97.4182 4.11143
3470 1 14.5402 97.4282 2.81039
9523 2 13.6315 95.8466 4.09306
3171 1 17.2693 95.857 2.79199
9525 2 16.3586 97.4182 4.11143
10257 2 21.8148 97.4182 4.11143
3173 1 19.9964 97.4282 2.81039
9191 2 19.0878 95.8466 4.09306
3943 1 0.898614 98.9991 2.82777
10073 2 2.71699 98.9897 4.1288
6104 1 3.62579 100.57 2.84413
12409 2 5.44418 100.561 4.14515
3737 1 6.35485 98.9991 2.82777
9823 2 8.17322 98.9897 4.1288
5970 1 9.08203 100.57 2.84413
3471 1 11.8111 98.9991 2.82777
12225 2 10.9004 100.561 4.14515
9489 2 13.6295 98.9897 4.1288
5752 1 14.5383 100.57 2.84413
3129 1 17.2673 98.9991 2.82777
11934 2 16.3567 100.561 4.14515
9190 2 19.0857 98.9897 4.1288
12514 2 21.8129 100.561 4.14515
5433 1 19.9945 100.57 2.84413
10214 2 0.932304 51.682 6.08353
4043 1 1.84027 53.2638 4.79971
3907 1 4.56877 51.6814 4.79395
10212 2 3.65999 53.264 6.08941
10031 2 6.38854 51.682 6.08353
3905 1 7.2965 53.2638 4.79971
10032 2 9.11623 53.264 6.08941
3690 1 10.025 51.6814 4.79395
9741 2 11.8448 51.682 6.08353
3374 1 15.4812 51.6814 4.79395
3691 1 12.7527 53.2638 4.79971
9739 2 14.5725 53.264 6.08941
9402 2 17.301 51.682 6.08353
3372 1 18.209 53.2638 4.79971
3008 1 20.9375 51.6814 4.79395
9403 2 20.0287 53.264 6.08941
10213 2 0.93133 54.8457 6.09758
3906 1 4.56788 54.8464 4.80778
10011 2 6.38757 54.8457 6.09758
3674 1 10.0241 54.8464 4.80778
9740 2 11.8438 54.8457 6.09758
3373 1 15.4804 54.8464 4.80778
9394 2 17.3 54.8457 6.09758
3007 1 20.9366 54.8464 4.80778
4027 1 1.83917 56.4287 4.81807
10191 2 0.929921 58.0083 6.12062
3887 1 4.56659 58.0106 4.8305
10215 2 3.65879 56.4272 6.10803
3908 1 7.2954 56.4287 4.81807
10009 2 9.11503 56.4272 6.10803
10010 2 6.38616 58.0083 6.12062
3673 1 10.0228 58.0106 4.8305
9719 2 11.8424 58.0083 6.12062
3358 1 15.4791 58.0106 4.8305
3672 1 12.7516 56.4287 4.81807
9742 2 14.5713 56.4272 6.10803
3375 1 18.2079 56.4287 4.81807
9393 2 17.2986 58.0083 6.12062
3006 1 20.9353 58.0106 4.8305
9392 2 20.0275 56.4272 6.10803
4028 1 1.8377 59.5922 4.84494
10190 2 0.928164 61.1691 6.15176
3886 1 4.56498 61.1733 4.86127
10189 2 3.6572 59.5889 6.13524
3885 1 7.29394 59.5922 4.84494
9983 2 6.3844 61.1691 6.15176
10012 2 9.11344 59.5889 6.13524
3650 1 10.0212 61.1733 4.86127
9718 2 11.8406 61.1691 6.15176
3357 1 15.4775 61.1733 4.86127
3675 1 12.7502 59.5922 4.84494
9717 2 14.5697 59.5889 6.13524
3356 1 18.2064 59.5922 4.84494
9378 2 17.2969 61.1691 6.15176
2999 1 20.9337 61.1733 4.86127
9395 2 20.0259 59.5889 6.13524
4011 1 1.83595 62.7538 4.87935
10167 2 0.92613 64.328 6.18989
3860 1 4.5631 64.3339 4.89902
10192 2 3.6553 62.7489 6.17003
3888 1 7.29219 62.7538 4.87935
9981 2 9.11154 62.7489 6.17003
9982 2 6.38237 64.328 6.18989
3649 1 10.0193 64.3339 4.89902
9689 2 11.8386 64.328 6.18989
3334 1 15.4756 64.3339 4.89902
3648 1 12.7484 62.7538 4.87935
9720 2 14.5678 62.7489 6.17003
3359 1 18.2047 62.7538 4.87935
9377 2 17.2948 64.328 6.18989
2998 1 20.9318 64.3339 4.89902
9376 2 20.024 62.7489 6.17003
4012 1 1.83395 65.9133 4.9201
10166 2 0.923858 67.4847 6.23366
3859 1 4.56098 67.4922 4.94244
10165 2 3.65314 65.9067 6.21116
3858 1 7.29019 65.9133 4.9201
9948 2 6.3801 67.4847 6.23366
9984 2 9.10938 65.9067 6.21116
3618 1 10.0172 67.4922 4.94244
9688 2 11.8363 67.4847 6.23366
3333 1 15.4735 67.4922 4.94244
3651 1 12.7464 65.9133 4.9201
9687 2 14.5656 65.9067 6.21116
3332 1 18.2027 65.9133 4.9201
9354 2 17.2926 67.4847 6.23366
2983 1 20.9297 67.4922 4.94244
9379 2 20.0219 65.9067 6.21116
3995 1 1.83172 69.0704 4.96583
10143 2 0.921366 70.6393 6.28162
3832 1 4.55865 70.6481 4.99012
10168 2 3.65076 69.0623 6.25721
3861 1 7.28796 69.0704 4.96583
9946 2 9.107 69.0623 6.25721
9947 2 6.3776 70.6393 6.28162
3617 1 10.0149 70.6481 4.99012
9651 2 11.8338 70.6393 6.28162
3302 1 15.4711 70.6481 4.99012
3616 1 12.7442 69.0704 4.96583
9690 2 14.5632 69.0623 6.25721
3335 1 18.2004 69.0704 4.96583
9353 2 17.2901 70.6393 6.28162
2982 1 20.9274 70.6481 4.99012
9352 2 20.0195 69.0623 6.25721
3996 1 1.82928 72.2252 5.0151
10142 2 0.918672 73.7917 6.33229
3831 1 4.55611 73.8018 5.0406
10141 2 3.64816 72.2157 6.3067
3830 1 7.28552 72.2252 5.0151
9912 2 6.37491 73.7917 6.33229
9949 2 9.1044 72.2157 6.3067
3579 1 10.0123 73.8018 5.0406
9650 2 11.8311 73.7917 6.33229
3301 1 15.4686 73.8018 5.0406
3619 1 12.7418 72.2252 5.0151
9649 2 14.5606 72.2157 6.3067
3300 1 18.198 72.2252 5.0151
9322 2 17.2874 73.7917 6.33229
2959 1 20.9248 73.8018 5.0406
9355 2 20.0169 72.2157 6.3067
3979 1 1.82666 75.3778 5.06646
10119 2 0.91581 76.9423 6.38426
10144 2 3.64538 75.3672 6.35819
3804 1 4.5534 76.9533 5.09249
3833 1 7.2829 75.3778 5.06646
9910 2 9.10162 75.3672 6.35819
9911 2 6.37205 76.9423 6.38426
3578 1 10.0096 76.9533 5.09249
9606 2 11.8283 76.9423 6.38426
3577 1 12.7391 75.3778 5.06646
9652 2 14.5579 75.3672 6.35819
3262 1 15.4659 76.9533 5.09249
3303 1 18.1954 75.3778 5.06646
9321 2 17.2845 76.9423 6.38426
9320 2 20.0141 75.3672 6.35819
2958 1 20.9221 76.9533 5.09249
3980 1 1.82388 78.5284 5.11856
10117 2 3.64245 78.517 6.41032
3802 1 7.28012 78.5284 5.11856
9913 2 9.09869 78.517 6.41032
3580 1 12.7364 78.5284 5.11856
9604 2 14.5549 78.517 6.41032
3260 1 18.1926 78.5284 5.11856
9323 2 20.0112 78.517 6.41032
3963 1 1.82101 81.6773 5.17019
10118 2 0.91284 80.0914 6.43625
3803 1 4.55057 80.103 5.1445
10120 2 3.63946 81.6655 6.4619
3805 1 7.27725 81.6773 5.17019
9874 2 9.09569 81.6655 6.4619
9876 2 6.36908 80.0914 6.43625
3539 1 10.0068 80.103 5.1445
9605 2 11.8253 80.0914 6.43625
3261 1 15.463 80.103 5.1445
3537 1 12.7335 81.6773 5.17019
9607 2 14.5519 81.6655 6.4619
3263 1 18.1897 81.6773 5.17019
9282 2 17.2816 80.0914 6.43625
2927 1 20.9193 80.103 5.1445
9280 2 20.0082 81.6655 6.4619
3964 1 1.81813 84.8248 5.22034
10096 2 0.909836 83.2393 6.48716
3776 1 4.54769 83.2512 5.19551
10094 2 3.63647 84.8129 6.51192
3774 1 7.27437 84.8248 5.22034
9875 2 6.36607 83.2393 6.48716
9877 2 9.0927 84.8129 6.51192
3538 1 10.0039 83.2512 5.19551
9560 2 11.8223 83.2393 6.48716
3215 1 15.4602 83.2512 5.19551
3540 1 12.7306 84.8248 5.22034
9558 2 14.5489 84.8129 6.51192
3213 1 18.1868 84.8248 5.22034
9281 2 17.2786 83.2393 6.48716
2926 1 20.9164 83.2512 5.19551
9283 2 20.0052 84.8129 6.51192
3948 1 1.81531 87.9712 5.26819
10095 2 0.90688 86.3863 6.5361
3775 1 4.54483 86.3981 5.2446
10097 2 3.63356 87.9595 6.5596
3777 1 7.27155 87.9712 5.26819
9842 2 9.0898 87.9595 6.5596
9844 2 6.36312 86.3863 6.5361
3500 1 10.0011 86.3981 5.2446
9559 2 11.8194 86.3863 6.5361
3214 1 15.4573 86.3981 5.2446
3498 1 12.7278 87.9712 5.26819
9561 2 14.546 87.9595 6.5596
3216 1 18.184 87.9712 5.26819
9235 2 17.2756 86.3863 6.5361
2887 1 20.9135 86.3981 5.2446
9233 2 20.0023 87.9595 6.5596
3949 1 1.81262 91.1168 5.3131
10080 2 0.904047 89.5326 6.58237
3752 1 4.54206 89.5441 5.29104
10078 2 3.63082 91.1055 6.60433
3750 1 7.26886 91.1168 5.3131
9843 2 6.36029 89.5326 6.58237
9845 2 9.08705 91.1055 6.60433
3499 1 9.9983 89.5441 5.29104
9520 2 11.8165 89.5326 6.58237
3168 1 15.4545 89.5441 5.29104
3501 1 12.7251 91.1168 5.3131
9518 2 14.5433 91.1055 6.60433
3166 1 18.1813 91.1168 5.3131
9234 2 17.2728 89.5326 6.58237
2886 1 20.9108 89.5441 5.29104
9236 2 19.9995 91.1055 6.60433
3940 1 1.81011 94.2617 5.35462
10079 2 0.901399 92.6784 6.62544
3751 1 4.53946 92.6893 5.33431
10081 2 3.62828 94.2512 6.64566
3753 1 7.26635 94.2617 5.35462
9818 2 9.08452 94.2512 6.64566
9820 2 6.35764 92.6784 6.62544
3468 1 9.99569 92.6893 5.33431
9519 2 11.8139 92.6784 6.62544
3167 1 15.4519 92.6893 5.33431
3466 1 12.7226 94.2617 5.35462
9521 2 14.5408 94.2512 6.64566
3169 1 18.1788 94.2617 5.35462
9188 2 17.2701 92.6784 6.62544
2841 1 20.9082 92.6893 5.33431
9186 2 19.997 94.2512 6.64566
3941 1 1.80782 97.4063 5.39241
10072 2 0.898986 95.8239 6.66495
3736 1 4.53706 95.8341 5.37399
10070 2 3.626 97.3966 6.68326
3734 1 7.26406 97.4063 5.39241
9819 2 6.35522 95.8239 6.66495
9821 2 9.08224 97.3966 6.68326
3467 1 9.99329 95.8341 5.37399
9488 2 11.8115 95.8239 6.66495
3128 1 15.4495 95.8341 5.37399
3469 1 12.7203 97.4063 5.39241
9486 2 14.5385 97.3966 6.68326
3126 1 18.1765 97.4063 5.39241
9187 2 17.2677 95.8239 6.66495
2840 1 20.9058 95.8341 5.37399
9189 2 19.9947 97.3966 6.68326
10071 2 0.896832 98.9692 6.70061
6090 1 1.80579 100.551 5.42627
3735 1 4.53489 98.9788 5.40984
12408 2 3.62396 100.542 6.717
9801 2 6.35307 98.9692 6.70061
5969 1 7.26203 100.551 5.42627
12206 2 9.08019 100.542 6.717
3441 1 9.99113 98.9788 5.40984
9487 2 11.8093 98.9692 6.70061
3127 1 15.4474 98.9788 5.40984
5737 1 12.7183 100.551 5.42627
11933 2 14.5364 100.542 6.717
9145 2 17.2655 98.9692 6.70061
5432 1 18.1745 100.551 5.42627
2795 1 20.9036 98.9788 5.40984
11577 2 19.9927 100.542 6.717
3903 1 2.75259 51.6817 7.36121
3879 1 0.936817 51.682 9.9264
4025 1 0.0240111 53.2626 7.36723
10211 2 1.84408 53.2621 8.6539
10007 2 4.57271 51.6821 8.64777
3904 1 5.48025 53.2626 7.36723
3877 1 3.66436 53.2611 9.93273
3670 1 8.20883 51.6817 7.36121
3666 1 6.39306 51.682 9.9264
3667 1 9.1206 53.2611 9.93273
10005 2 7.30031 53.2621 8.6539
3350 1 11.8493 51.682 9.9264
9737 2 10.029 51.6821 8.64777
3668 1 10.9365 53.2626 7.36723
3370 1 13.6651 51.6817 7.36121
9390 2 15.4852 51.6821 8.64777
3348 1 14.5768 53.2611 9.93273
9738 2 12.7566 53.2621 8.6539
3002 1 17.3055 51.682 9.9264
3371 1 16.3927 53.2626 7.36723
9388 2 18.2128 53.2621 8.6539
3005 1 19.1213 51.6817 7.36121
9024 2 20.9414 51.6821 8.64777
3003 1 20.0331 53.2611 9.93273
3883 1 2.75153 54.8433 7.3756
3878 1 0.935509 54.84 9.94154
10006 2 4.57152 54.8419 8.66244
3669 1 8.20777 54.8433 7.3756
3642 1 6.39175 54.84 9.94154
3349 1 11.848 54.84 9.94154
9715 2 10.0278 54.8419 8.66244
3354 1 13.664 54.8433 7.3756
9389 2 15.484 54.8419 8.66244
2994 1 17.3042 54.84 9.94154
3004 1 19.1202 54.8433 7.3756
9023 2 20.9402 54.8419 8.66244
3882 1 2.75002 58.0038 7.39917
4026 1 0.0227107 56.4237 7.38628
3852 1 0.933629 57.9969 9.96622
10187 2 1.84261 56.4214 8.6733
3881 1 5.47895 56.4237 7.38628
3880 1 3.66275 56.4186 9.95273
9979 2 4.56981 58.0006 8.68639
3646 1 8.20626 58.0038 7.39917
3640 1 9.11899 56.4186 9.95273
3641 1 6.38987 57.9969 9.96622
10008 2 7.29885 56.4214 8.6733
3671 1 10.9352 56.4237 7.38628
3326 1 11.8461 57.9969 9.96622
9714 2 10.0261 58.0006 8.68639
3353 1 13.6625 58.0038 7.39917
3351 1 14.5752 56.4186 9.95273
9374 2 15.4823 58.0006 8.68639
9713 2 12.7551 56.4214 8.6733
3352 1 16.3914 56.4237 7.38628
2993 1 17.3023 57.9969 9.96622
9391 2 18.2113 56.4214 8.6733
2997 1 19.1187 58.0038 7.39917
2992 1 20.0315 56.4186 9.95273
9022 2 20.9385 58.0006 8.68639
3856 1 2.74815 61.1628 7.43106
4009 1 0.0210069 59.5835 7.41415
3851 1 0.931339 61.1524 9.99949
10188 2 1.84068 59.5795 8.70158
3884 1 5.47725 59.5835 7.41415
3850 1 3.66065 59.5749 9.98186
9978 2 4.56771 61.1579 8.71871
3645 1 8.20439 61.1628 7.43106
3610 1 6.38758 61.1524 9.99949
3643 1 9.11689 59.5749 9.98186
9977 2 7.29692 59.5795 8.70158
3644 1 10.9335 59.5835 7.41415
3325 1 11.8438 61.1524 9.99949
9685 2 10.0239 61.1579 8.71871
3330 1 13.6606 61.1628 7.43106
3324 1 14.5731 59.5749 9.98186
9373 2 15.4802 61.1579 8.71871
9716 2 12.7532 59.5795 8.70158
3355 1 16.3897 59.5835 7.41415
2978 1 17.3001 61.1524 9.99949
9372 2 18.2094 59.5795 8.70158
2996 1 19.1169 61.1628 7.43106
2995 1 20.0294 59.5749 9.98186
9015 2 20.9364 61.1579 8.71871
3855 1 2.74597 64.3199 7.47008
4010 1 0.0189756 62.7416 7.44976
3824 1 0.928741 64.3062 10.04
10163 2 1.83842 62.7358 8.73763
3854 1 5.47521 62.7416 7.44976
3853 1 3.65819 62.7295 10.019
9944 2 4.5653 64.3133 8.75816
3614 1 8.20221 64.3199 7.47008
3608 1 9.11443 62.7295 10.019
3609 1 6.38498 64.3062 10.04
9980 2 7.29466 62.7358 8.73763
3647 1 10.9315 62.7416 7.44976
3294 1 11.8412 64.3062 10.04
9684 2 10.0215 64.3133 8.75816
3329 1 13.6585 64.3199 7.47008
3327 1 14.5707 62.7295 10.019
9350 2 15.4778 64.3133 8.75816
9683 2 12.7509 62.7358 8.73763
3328 1 16.3877 62.7416 7.44976
2977 1 17.2975 64.3062 10.04
9375 2 18.2071 62.7358 8.73763
2981 1 19.1147 64.3199 7.47008
2976 1 20.0269 62.7295 10.019
9014 2 20.934 64.3133 8.75816
3828 1 2.74354 67.4751 7.51481
3993 1 0.0166693 65.8978 7.49182
3823 1 0.925876 67.4582 10.0863
10164 2 1.83588 65.8903 8.78011
3857 1 5.47291 65.8978 7.49182
3822 1 3.65546 65.8824 10.0626
9943 2 4.56263 67.4669 8.80328
3613 1 8.19978 67.4751 7.51481
3571 1 6.38211 67.4582 10.0863
3611 1 9.1117 65.8824 10.0626
9942 2 7.29212 65.8903 8.78011
3612 1 10.9291 65.8978 7.49182
3293 1 11.8384 67.4582 10.0863
9647 2 10.0189 67.4669 8.80328
3298 1 13.656 67.4751 7.51481
3292 1 14.5679 65.8824 10.0626
9349 2 15.4751 67.4669 8.80328
9686 2 12.7484 65.8903 8.78011
3331 1 16.3854 65.8978 7.49182
2954 1 17.2946 67.4582 10.0863
9348 2 18.2046 65.8903 8.78011
2980 1 19.1123 67.4751 7.51481
2979 1 20.0242 65.8824 10.0626
8999 2 20.9313 67.4669 8.80328
3827 1 2.74086 70.6283 7.56375
3994 1 0.0141087 69.0519 7.53885
3796 1 0.922752 70.6086 10.1367
10139 2 1.83309 69.043 8.82748
3826 1 5.47035 69.0519 7.53885
3825 1 3.65246 69.0336 10.1111
9908 2 4.55973 70.6186 8.85251
3575 1 8.19709 70.6283 7.56375
3569 1 9.1087 69.0336 10.1111
3570 1 6.37899 70.6086 10.1367
9945 2 7.28933 69.043 8.82748
3615 1 10.9266 69.0519 7.53885
3254 1 11.8352 70.6086 10.1367
9646 2 10.016 70.6186 8.85251
3297 1 13.6533 70.6283 7.56375
3295 1 14.5649 69.0336 10.1111
9318 2 15.4722 70.6186 8.85251
9645 2 12.7456 69.043 8.82748
3296 1 16.3828 69.0519 7.53885
2953 1 17.2915 70.6086 10.1367
9351 2 18.2018 69.043 8.82748
2957 1 19.1096 70.6283 7.56375
2952 1 20.0212 69.0336 10.1111
8998 2 20.9284 70.6186 8.85251
3800 1 2.73794 73.7797 7.61534
3977 1 0.0113068 72.2042 7.58931
3795 1 0.919396 73.7577 10.1895
10140 2 1.83007 72.1939 8.87817
3829 1 5.46755 72.2042 7.58931
3794 1 3.64922 72.1833 10.1629
9907 2 4.55661 73.7688 8.90427
3574 1 8.19418 73.7797 7.61534
3531 1 6.37563 73.7577 10.1895
3572 1 9.10546 72.1833 10.1629
9906 2 7.28631 72.1939 8.87817
3573 1 10.9238 72.2042 7.58931
3253 1 11.8319 73.7577 10.1895
9602 2 10.0128 73.7688 8.90427
3258 1 13.6504 73.7797 7.61534
3252 1 14.5617 72.1833 10.1629
9317 2 15.4691 73.7688 8.90427
9648 2 12.7425 72.1939 8.87817
3299 1 16.38 72.2042 7.58931
2922 1 17.2881 73.7577 10.1895
9316 2 18.1988 72.1939 8.87817
2956 1 19.1067 73.7797 7.61534
2955 1 20.0179 72.1833 10.1629
8975 2 20.9253 73.7688 8.90427
3978 1 0.00829423 75.3548 7.64167
10115 2 1.82686 75.3434 8.93063
3768 1 0.915874 76.9057 10.2432
3799 1 2.73485 76.9295 7.66812
3798 1 5.46453 75.3548 7.64167
3797 1 3.64577 75.3318 10.2163
9872 2 4.55333 76.9177 8.95708
3529 1 9.10201 75.3318 10.2163
9909 2 7.2831 75.3434 8.93063
3530 1 6.37211 76.9057 10.2432
3535 1 8.19108 76.9295 7.66812
3576 1 10.9208 75.3548 7.64167
3207 1 11.8284 76.9057 10.2432
9601 2 10.0096 76.9177 8.95708
3255 1 14.5582 75.3318 10.2163
9600 2 12.7393 75.3434 8.93063
3257 1 13.6473 76.9295 7.66812
9278 2 15.4658 76.9177 8.95708
3256 1 16.377 75.3548 7.64167
9319 2 18.1956 75.3434 8.93063
2921 1 17.2846 76.9057 10.2432
2920 1 20.0145 75.3318 10.2163
2925 1 19.1036 76.9295 7.66812
8974 2 20.922 76.9177 8.95708
3961 1 0.00513177 78.5039 7.69454
10116 2 1.82353 78.4918 8.98346
3801 1 5.46137 78.5039 7.69454
3766 1 3.6422 78.4795 10.2699
3532 1 9.09844 78.4795 10.2699
9870 2 7.27977 78.4918 8.98346
3533 1 10.9176 78.5039 7.69454
3205 1 14.5547 78.4795 10.2699
9603 2 12.736 78.4918 8.98346
3259 1 16.3738 78.5039 7.69454
9276 2 18.1922 78.4918 8.98346
2923 1 20.0109 78.4795 10.2699
3772 1 2.73164 80.0781 7.72078
3962 1 0.00190445 81.6521 7.74671
3767 1 0.912287 80.0531 10.2964
10092 2 1.82017 81.6395 9.03548
3770 1 5.45814 81.6521 7.74671
3769 1 3.63862 81.6268 10.3225
9871 2 4.54997 80.0657 9.00964
3534 1 8.18788 80.0781 7.72078
3490 1 9.09486 81.6268 10.3225
3492 1 6.36853 80.0531 10.2964
9873 2 7.27641 81.6395 9.03548
3536 1 10.9144 81.6521 7.74671
3206 1 11.8248 80.0531 10.2964
9556 2 10.0062 80.0657 9.00964
3211 1 13.6441 80.0781 7.72078
3208 1 14.5511 81.6268 10.3225
9277 2 15.4624 80.0657 9.00964
9554 2 12.7326 81.6395 9.03548
3209 1 16.3706 81.6521 7.74671
2882 1 17.281 80.0531 10.2964
9279 2 18.1889 81.6395 9.03548
2924 1 19.1004 80.0781 7.72078
2880 1 20.0073 81.6268 10.3225
8943 2 20.9187 80.0657 9.00964
3771 1 2.72842 83.2258 7.77221
10093 2 1.81688 84.7869 9.08572
3773 1 5.45495 84.7994 7.79719
9840 2 4.54663 83.2132 9.06087
3496 1 8.18465 83.2258 7.77221
9838 2 7.27311 84.7869 9.08572
3494 1 10.9112 84.7994 7.79719
9555 2 10.0029 83.2132 9.06087
3210 1 13.6409 83.2258 7.77221
9231 2 15.4591 83.2132 9.06087
9557 2 12.7294 84.7869 9.08572
3212 1 16.3674 84.7994 7.79719
9229 2 18.1856 84.7869 9.08572
3946 1 21.8237 84.7994 7.79719
2885 1 19.0971 83.2258 7.77221
8942 2 20.9153 83.2132 9.06087
3748 1 2.72527 86.3729 7.82154
10076 2 1.81374 87.934 9.13344
3746 1 5.45187 87.9463 7.84519
9839 2 4.5434 86.3604 9.10994
3495 1 8.1815 86.3729 7.82154
9841 2 7.26998 87.934 9.13344
3497 1 10.9081 87.9463 7.84519
9516 2 9.99964 86.3604 9.10994
3164 1 13.6377 86.3729 7.82154
9230 2 15.4559 86.3604 9.10994
9514 2 12.7262 87.934 9.13344
3162 1 16.3643 87.9463 7.84519
9232 2 18.1825 87.934 9.13344
3947 1 21.8206 87.9463 7.84519
2884 1 19.094 86.3729 7.82154
8904 2 20.9121 86.3604 9.10994
3747 1 2.72227 89.5197 7.86807
10077 2 1.81083 91.0811 9.17809
3749 1 5.44898 91.0929 7.89013
9816 2 4.54037 89.5076 9.15618
3464 1 8.17851 89.5197 7.86807
9814 2 7.26707 91.0811 9.17809
3462 1 10.9052 91.0929 7.89013
9515 2 9.99661 89.5076 9.15618
3163 1 13.6348 89.5197 7.86807
9184 2 15.4528 89.5076 9.15618
9517 2 12.7233 91.0811 9.17809
3165 1 16.3615 91.0929 7.89013
9182 2 18.1795 91.0811 9.17809
3938 1 21.8177 91.0929 7.89013
2839 1 19.091 89.5197 7.86807
8903 2 20.9091 89.5076 9.15618
3732 1 2.7195 92.6662 7.91131
10068 2 1.80819 94.2284 9.21926
3730 1 5.44633 94.2394 7.93158
9815 2 4.53759 92.6547 9.19913
3463 1 8.17574 92.6662 7.91131
9817 2 7.26443 94.2284 9.21926
3465 1 10.9026 94.2394 7.93158
9484 2 9.99383 92.6547 9.19913
3124 1 13.632 92.6662 7.91131
9183 2 15.4501 92.6547 9.19913
9482 2 12.7207 94.2284 9.21926
3122 1 16.3588 94.2394 7.93158
9185 2 18.1769 94.2284 9.21926
3939 1 21.815 94.2394 7.93158
2838 1 19.0882 92.6662 7.91131
8864 2 20.9063 92.6547 9.19913
3731 1 2.71699 95.8126 7.9509
10069 2 1.80583 97.3757 9.2567
3733 1 5.44394 97.3858 7.96924
9800 2 4.53509 95.802 9.23846
3440 1 8.17323 95.8126 7.9509
9798 2 7.26207 97.3757 9.2567
3438 1 10.9002 97.3858 7.96924
9483 2 9.99133 95.802 9.23846
3123 1 13.6295 95.8126 7.9509
9144 2 15.4476 95.802 9.23846
9485 2 12.7183 97.3757 9.2567
3125 1 16.3564 97.3858 7.96924
9142 2 18.1745 97.3757 9.2567
3937 1 21.8127 97.3858 7.96924
2794 1 19.0857 95.8126 7.9509
8863 2 20.9038 95.802 9.23846
3721 1 2.71474 98.959 7.98662
12386 2 1.80378 100.523 9.29025
9799 2 4.53289 98.9494 9.27397
5950 1 5.44187 100.532 8.00303
3439 1 8.17098 98.959 7.98662
12205 2 7.26002 100.523 9.29025
9457 2 9.98912 98.9494 9.27397
5736 1 10.8981 100.532 8.00303
3089 1 13.6272 98.959 7.98662
9143 2 15.4454 98.9494 9.27397
11912 2 12.7163 100.523 9.29025
11576 2 18.1725 100.523 9.29025
5417 1 16.3543 100.532 8.00303
2793 1 19.0835 98.959 7.98662
8824 2 20.9016 98.9494 9.27397
6089 1 21.8106 100.532 8.00303
10003 2 2.75728 51.6822 11.2118
3876 1 1.84897 53.2595 12.4971
10185 2 0.0284976 53.2604 11.2183
3638 1 4.57784 51.6823 12.4904
10004 2 5.48474 53.2604 11.2183
9711 2 8.21352 51.6822 11.2118
3636 1 7.30521 53.2595 12.4971
3346 1 10.0341 51.6823 12.4904
9709 2 10.941 53.2604 11.2183
2990 1 15.4903 51.6823 12.4904
9386 2 13.6698 51.6822 11.2118
3347 1 12.7614 53.2595 12.4971
2988 1 18.2177 53.2595 12.4971
9387 2 16.3972 53.2604 11.2183
2640 1 20.9466 51.6823 12.4904
9021 2 19.126 51.6822 11.2118
9975 2 2.75576 54.8383 11.2273
3637 1 4.57611 54.8366 12.5064
9710 2 8.212 54.8383 11.2273
3322 1 10.0324 54.8366 12.5064
2989 1 15.4886 54.8366 12.5064
9370 2 13.6682 54.8383 11.2273
2639 1 20.9448 54.8366 12.5064
9020 2 19.1245 54.8383 11.2273
3848 1 1.84684 56.4134 12.5182
9974 2 2.75358 57.9933 11.2524
10186 2 0.0266202 56.416 11.2387
3606 1 4.57366 57.9899 12.5325
9973 2 5.48286 56.416 11.2387
3639 1 7.30308 56.4134 12.5182
9681 2 8.20982 57.9933 11.2524
3321 1 10.0299 57.9899 12.5325
9712 2 10.9391 56.416 11.2387
2974 1 15.4861 57.9899 12.5325
3320 1 12.7593 56.4134 12.5182
9369 2 13.6661 57.9933 11.2524
2991 1 18.2156 56.4134 12.5182
9368 2 16.3953 56.416 11.2387
2638 1 20.9424 57.9899 12.5325
9013 2 19.1223 57.9933 11.2524
3849 1 1.84414 59.5661 12.5489
9940 2 2.75096 61.147 11.2862
10161 2 0.0241986 59.5704 11.2683
3605 1 4.57076 61.1419 12.5675
9976 2 5.48044 59.5704 11.2683
3604 1 7.30038 59.5661 12.5489
9680 2 8.2072 61.147 11.2862
3290 1 10.027 61.1419 12.5675
9679 2 10.9367 59.5704 11.2683
2973 1 15.4832 61.1419 12.5675
3323 1 12.7566 59.5661 12.5489
9346 2 13.6634 61.147 11.2862
2972 1 18.2129 59.5661 12.5489
9371 2 16.3929 59.5704 11.2683
2631 1 20.9395 61.1419 12.5675
9012 2 19.1197 61.147 11.2862
3820 1 1.84108 62.7173 12.5879
9939 2 2.74804 64.299 11.3273
10162 2 0.0214145 62.7232 11.306
3567 1 4.56758 64.2923 12.6099
9938 2 5.47765 62.7232 11.306
3607 1 7.29732 62.7173 12.5879
9643 2 8.20428 64.299 11.3273
3289 1 10.0238 64.2923 12.6099
9682 2 10.9339 62.7232 11.306
2950 1 15.4801 64.2923 12.6099
3288 1 12.7536 62.7173 12.5879
9345 2 13.6605 64.299 11.3273
2975 1 18.2098 62.7173 12.5879
9344 2 16.3901 62.7232 11.306
2630 1 20.9363 64.2923 12.6099
8997 2 19.1168 64.299 11.3273
3821 1 1.83777 65.8669 12.6334
9904 2 2.74487 67.4494 11.3741
10137 2 0.0183624 65.8744 11.3501
3566 1 4.56415 67.4411 12.6581
9941 2 5.4746 65.8744 11.3501
3565 1 7.29401 65.8669 12.6334
9642 2 8.2011 67.4494 11.3741
3250 1 10.0204 67.4411 12.6581
9641 2 10.9308 65.8744 11.3501
2949 1 15.4766 67.4411 12.6581
3291 1 12.7502 65.8669 12.6334
9314 2 13.6573 67.4494 11.3741
2948 1 18.2065 65.8669 12.6334
9347 2 16.3871 65.8744 11.3501
2615 1 20.9329 67.4411 12.6581
8996 2 19.1136 67.4494 11.3741
3792 1 1.83422 69.015 12.6838
9903 2 2.74146 70.5983 11.4248
10138 2 0.0150708 69.024 11.3991
3527 1 4.56048 70.5886 12.7102
9902 2 5.47131 69.024 11.3991
3568 1 7.29046 69.015 12.6838
9598 2 8.1977 70.5983 11.4248
3249 1 10.0167 70.5886 12.7102
9644 2 10.9275 69.024 11.3991
2918 1 15.473 70.5886 12.7102
3248 1 12.7467 69.015 12.6838
9313 2 13.6539 70.5983 11.4248
2951 1 18.2029 69.015 12.6838
9312 2 16.3838 69.024 11.3991
2614 1 20.9292 70.5886 12.7102
8973 2 19.1102 70.5983 11.4248
3793 1 1.83044 72.162 12.7371
9868 2 2.73785 73.7462 11.4778
10113 2 0.0115587 72.1724 11.4511
3526 1 4.5566 73.7352 12.7643
9905 2 5.4678 72.1724 11.4511
3525 1 7.28668 72.162 12.7371
9597 2 8.19409 73.7462 11.4778
3203 1 10.0128 73.7352 12.7643
9596 2 10.924 72.1724 11.4511
2917 1 15.4691 73.7352 12.7643
3251 1 12.7429 72.162 12.7371
9274 2 13.6503 73.7462 11.4778
2916 1 18.1992 72.162 12.7371
9315 2 16.3803 72.1724 11.4511
2591 1 20.9253 73.7352 12.7643
8972 2 19.1066 73.7462 11.4778
3764 1 1.8265 75.3083 12.7916
10114 2 0.00788056 75.3198 11.5046
9867 2 2.73413 76.8933 11.5315
9866 2 5.46412 75.3198 11.5046
3488 1 4.55262 76.8814 12.8188
3528 1 7.28273 75.3083 12.7916
9552 2 8.19037 76.8933 11.5315
9599 2 10.9204 75.3198 11.5046
3202 1 10.0089 76.8814 12.8188
3201 1 12.739 75.3083 12.7916
2878 1 15.4651 76.8814 12.8188
9273 2 13.6466 76.8933 11.5315
2919 1 18.1952 75.3083 12.7916
9272 2 16.3766 75.3198 11.5046
2590 1 20.9213 76.8814 12.8188
8941 2 19.1028 76.8933 11.5315
3765 1 1.82251 78.4545 12.8458
10090 2 0.00413359 78.4668 11.5581
9869 2 5.46037 78.4668 11.5581
3486 1 7.27875 78.4545 12.8458
9550 2 10.9166 78.4668 11.5581
3204 1 12.735 78.4545 12.8458
2876 1 18.1912 78.4545 12.8458
9275 2 16.3728 78.4668 11.5581
3740 1 1.81861 81.6011 12.8986
9836 2 2.73039 80.0403 11.5845
10091 2 0.00043655 81.6138 11.6105
3487 1 4.54866 80.0277 12.8724
9834 2 5.45667 81.6138 11.6105
3489 1 7.27485 81.6011 12.8986
9551 2 8.18663 80.0403 11.5845
3156 1 10.0049 80.0277 12.8724
9553 2 10.9129 81.6138 11.6105
2877 1 15.4611 80.0277 12.8724
3154 1 12.7311 81.6011 12.8986
9227 2 13.6429 80.0403 11.5845
2879 1 18.1873 81.6011 12.8986
9225 2 16.3692 81.6138 11.6105
2559 1 20.9174 80.0277 12.8724
8940 2 19.0991 80.0403 11.5845
3744 1 0.90875 83.2004 10.3481
3741 1 1.81494 84.7482 12.9491
9835 2 2.72676 83.1874 11.6359
10074 2 -0.00309874 84.7611 11.6607
3742 1 3.63515 84.774 10.3731
3456 1 4.54486 83.1746 12.9242
9837 2 5.45314 84.7611 11.6607
3491 1 6.36499 83.2004 10.3481
3493 1 9.09139 84.774 10.3731
3454 1 7.27118 84.7482 12.9491
9512 2 8.183 83.1874 11.6359
3160 1 11.8212 83.2004 10.3481
3155 1 10.0011 83.1746 12.9242
9510 2 10.9094 84.7611 11.6607
3158 1 14.5476 84.774 10.3731
2832 1 15.4573 83.1746 12.9242
3157 1 12.7274 84.7482 12.9491
9226 2 13.6392 83.1874 11.6359
2881 1 17.2775 83.2004 10.3481
2830 1 18.1837 84.7482 12.9491
9228 2 16.3656 84.7611 11.6607
2883 1 20.0039 84.774 10.3731
2558 1 20.9136 83.1746 12.9242
8902 2 19.0955 83.1874 11.6359
3743 1 0.905369 86.3476 10.3974
3724 1 1.81156 87.8962 12.9967
9812 2 2.72334 86.3349 11.6849
3745 1 3.63188 87.9214 10.421
3455 1 4.54133 86.3221 12.9733
9810 2 5.44985 87.9088 11.7083
3458 1 9.08812 87.9214 10.421
3460 1 6.36161 86.3476 10.3974
3457 1 7.2678 87.8962 12.9967
9511 2 8.17958 86.3349 11.6849
3159 1 11.8178 86.3476 10.3974
3116 1 9.99757 86.3221 12.9733
9513 2 10.9061 87.9088 11.7083
3161 1 14.5444 87.9214 10.421
2831 1 15.4538 86.3221 12.9733
3114 1 12.724 87.8962 12.9967
9180 2 13.6358 86.3349 11.6849
2836 1 17.2741 86.3476 10.3974
2833 1 18.1803 87.8962 12.9967
9178 2 16.3623 87.9088 11.7083
2834 1 20.0006 87.9214 10.421
10075 2 21.8186 87.9088 11.7083
2523 1 20.91 86.3221 12.9733
8901 2 19.0921 86.3349 11.6849
3728 1 0.902223 89.4951 10.4438
3725 1 1.80853 91.045 13.041
9811 2 2.7202 89.4828 11.7309
3726 1 3.62887 91.069 10.4657
3432 1 4.53812 89.4705 13.0193
9813 2 5.44687 91.057 11.7527
3459 1 6.35846 89.4951 10.4438
3461 1 9.08511 91.069 10.4657
3430 1 7.26477 91.045 13.041
9480 2 8.17644 89.4828 11.7309
3120 1 11.8147 89.4951 10.4438
3115 1 9.99436 89.4705 13.0193
9478 2 10.9031 91.057 11.7527
3118 1 14.5414 91.069 10.4657
2787 1 15.4506 89.4705 13.0193
3117 1 12.721 91.045 13.041
9179 2 13.6327 89.4828 11.7309
2835 1 17.2709 89.4951 10.4438
2785 1 18.1772 91.045 13.041
9181 2 16.3593 91.057 11.7527
2837 1 19.9976 91.069 10.4657
10066 2 21.8156 91.057 11.7527
2522 1 20.9068 89.4705 13.0193
8862 2 19.0889 89.4828 11.7309
3727 1 0.899363 92.6429 10.4868
3716 1 1.80587 94.1945 13.0818
9796 2 2.71738 92.6314 11.7735
3729 1 3.62617 94.217 10.5069
3431 1 4.53527 92.6196 13.0619
9794 2 5.44421 94.2058 11.7935
3436 1 6.3556 92.6429 10.4868
3434 1 9.08241 94.217 10.5069
3433 1 7.26211 94.1945 13.0818
9479 2 8.17362 92.6314 11.7735
3119 1 11.8118 92.6429 10.4868
3084 1 9.99151 92.6196 13.0619
9481 2 10.9004 94.2058 11.7935
3121 1 14.5386 94.217 10.5069
2786 1 15.4478 92.6196 13.0619
3082 1 12.7183 94.1945 13.0818
9140 2 13.6299 92.6314 11.7735
2791 1 17.2681 92.6429 10.4868
2788 1 18.1746 94.1945 13.0818
9138 2 16.3567 94.2058 11.7935
10067 2 21.8129 94.2058 11.7935
2789 1 19.9949 94.217 10.5069
2487 1 20.904 92.6196 13.0619
8861 2 19.0861 92.6314 11.7735
3720 1 0.896814 95.7911 10.5261
3717 1 1.80356 97.3448 13.1188
9795 2 2.71489 95.7804 11.8125
3718 1 3.62378 97.3653 10.5444
3416 1 4.53279 95.7696 13.1007
9797 2 5.44188 97.3551 11.8306
3435 1 6.35305 95.7911 10.5261
3437 1 9.08002 97.3653 10.5444
3414 1 7.2598 97.3448 13.1188
9456 2 8.17112 95.7804 11.8125
3088 1 11.8093 95.7911 10.5261
3083 1 9.98903 95.7696 13.1007
9454 2 10.8981 97.3551 11.8306
3086 1 14.5363 97.3653 10.5444
2749 1 15.4453 95.7696 13.1007
3085 1 12.716 97.3448 13.1188
9139 2 13.6274 95.7804 11.8125
2790 1 17.2655 95.7911 10.5261
2747 1 18.1723 97.3448 13.1188
9141 2 16.3544 97.3551 11.8306
10065 2 21.8106 97.3551 11.8306
2792 1 19.9925 97.3653 10.5444
2486 1 20.9015 95.7696 13.1007
8823 2 19.0836 95.7804 11.8125
3719 1 0.894585 98.9395 10.5616
9785 2 2.71273 98.9299 11.8477
5923 1 1.80159 100.496 13.1518
3415 1 4.53065 98.9201 13.1358
12178 2 5.43988 100.505 11.8638
5949 1 3.62171 100.514 10.5779
3417 1 6.35082 98.9395 10.5616
9455 2 8.16896 98.9299 11.8477
5712 1 7.25783 100.496 13.1518
5713 1 9.07795 100.514 10.5779
3087 1 11.8071 98.9395 10.5616
3057 1 9.98689 98.9201 13.1358
11911 2 10.8961 100.505 11.8638
2748 1 15.4431 98.9201 13.1358
9105 2 13.6252 98.9299 11.8477
5393 1 12.7141 100.496 13.1518
5416 1 14.5342 100.514 10.5779
2750 1 17.2633 98.9395 10.5616
11561 2 16.3524 100.505 11.8638
5048 1 18.1703 100.496 13.1518
2451 1 20.8994 98.9201 13.1358
8822 2 19.0814 98.9299 11.8477
12385 2 21.8086 100.505 11.8638
5049 1 19.9904 100.514 10.5779
9971 2 0.942443 51.6822 13.7753
3634 1 2.76335 51.6822 15.0533
3846 1 0.0341873 53.2575 15.0605
9969 2 3.66967 53.2584 13.7822
3635 1 5.49043 53.2575 15.0605
9707 2 6.39868 51.6822 13.7753
3318 1 8.21959 51.6822 15.0533
9708 2 9.12591 53.2584 13.7822
9366 2 11.8549 51.6822 13.7753
3316 1 10.9467 53.2575 15.0605
2986 1 13.6758 51.6822 15.0533
9364 2 14.5821 53.2584 13.7822
9018 2 17.3112 51.6822 13.7753
2987 1 16.4029 53.2575 15.0605
2637 1 19.1321 51.6822 15.0533
9019 2 20.0384 53.2584 13.7822
9970 2 0.940404 54.8344 13.7917
3602 1 2.76097 54.8326 15.0704
9677 2 6.39664 54.8344 13.7917
3317 1 8.2172 54.8326 15.0704
9365 2 11.8529 54.8344 13.7917
2970 1 13.6734 54.8326 15.0704
9010 2 17.3091 54.8344 13.7917
2636 1 19.1297 54.8326 15.0704
9936 2 0.937532 57.9857 13.8183
3601 1 2.75766 57.9822 15.0982
3847 1 0.0312773 56.4076 15.0831
9972 2 3.66717 56.4102 13.8038
3600 1 5.48752 56.4076 15.0831
9675 2 9.12341 56.4102 13.8038
9676 2 6.39377 57.9857 13.8183
3286 1 8.2139 57.9822 15.0982
9342 2 11.85 57.9857 13.8183
3319 1 10.9438 56.4076 15.0831
9367 2 14.5796 56.4102 13.8038
2969 1 13.6701 57.9822 15.0982
9009 2 17.3062 57.9857 13.8183
2968 1 16.4 56.4076 15.0831
9008 2 20.0359 56.4102 13.8038
2629 1 19.1264 57.9822 15.0982
9935 2 0.934181 61.1357 13.854
3563 1 2.75391 61.1305 15.1353
3818 1 0.027703 59.5565 15.1157
9934 2 3.66402 59.5609 13.8351
3603 1 5.48394 59.5565 15.1157
9639 2 6.39042 61.1357 13.854
9678 2 9.12026 59.5609 13.8351
3285 1 8.21015 61.1305 15.1353
9341 2 11.8467 61.1357 13.854
3284 1 10.9402 59.5565 15.1157
9340 2 14.5765 59.5609 13.8351
2946 1 13.6664 61.1305 15.1353
8994 2 17.3029 61.1357 13.854
2971 1 16.3964 59.5565 15.1157
9011 2 20.0327 59.5609 13.8351
2628 1 19.1226 61.1305 15.1353
9900 2 0.930561 64.2842 13.8971
3562 1 2.74993 64.2773 15.1801
3819 1 0.0238225 62.7041 15.1569
9937 2 3.66052 62.7102 13.8747
3561 1 5.48006 62.7041 15.1569
9637 2 9.11676 62.7102 13.8747
9638 2 6.3868 64.2842 13.8971
3246 1 8.20617 64.2773 15.1801
9310 2 11.843 64.2842 13.8971
3287 1 10.9363 62.7041 15.1569
9343 2 14.573 62.7102 13.8747
2945 1 13.6624 64.2773 15.1801
8993 2 17.2993 64.2842 13.8971
2944 1 16.3925 62.7041 15.1569
8992 2 20.0292 62.7102 13.8747
2613 1 19.1186 64.2773 15.1801
9899 2 0.926737 67.4313 13.9459
3523 1 2.74578 67.4228 15.2306
3790 1 0.0197602 65.8502 15.2048
9898 2 3.65679 65.8579 13.9209
3564 1 5.476 65.8502 15.2048
9594 2 6.38298 67.4313 13.9459
9640 2 9.11303 65.8579 13.9209
3245 1 8.20202 67.4228 15.2306
9309 2 11.8392 67.4313 13.9459
3244 1 10.9322 65.8502 15.2048
9308 2 14.5693 65.8579 13.9209
2914 1 13.6583 67.4228 15.2306
8970 2 17.2955 67.4313 13.9459
2947 1 16.3885 65.8502 15.2048
8995 2 20.0255 65.8579 13.9209
2612 1 19.1145 67.4228 15.2306
9864 2 0.92272 70.5773 13.9984
3522 1 2.74144 70.5673 15.2847
3791 1 0.015511 68.9951 15.2573
9901 2 3.65287 69.0044 13.9718
3521 1 5.47175 68.9951 15.2573
9592 2 9.10911 69.0044 13.9718
9593 2 6.37896 70.5773 13.9984
3199 1 8.19768 70.5673 15.2847
9270 2 11.8352 70.5773 13.9984
3247 1 10.928 68.9951 15.2573
9311 2 14.5653 69.0044 13.9718
2913 1 13.6539 70.5673 15.2847
8969 2 17.2914 70.5773 13.9984
2912 1 16.3842 68.9951 15.2573
8968 2 20.0216 69.0044 13.9718
2589 1 19.1102 70.5673 15.2847
9863 2 0.918557 73.7228 14.0527
3484 1 2.73696 73.7114 15.3402
3762 1 0.0110897 72.1393 15.3123
9862 2 3.64877 72.1501 14.0254
3524 1 5.46733 72.1393 15.3123
9548 2 6.3748 73.7228 14.0527
9595 2 9.10501 72.1501 14.0254
3198 1 8.1932 73.7114 15.3402
9269 2 11.831 73.7228 14.0527
3197 1 10.9236 72.1393 15.3123
9268 2 14.5612 72.1501 14.0254
2874 1 13.6494 73.7114 15.3402
8938 2 17.2873 73.7228 14.0527
2915 1 16.3798 72.1393 15.3123
8971 2 20.0175 72.1501 14.0254
2588 1 19.1057 73.7114 15.3402
3763 1 0.00659836 75.2835 15.3679
9832 2 0.914359 76.8682 14.1072
3483 1 2.7325 76.8558 15.3955
9865 2 3.64457 75.2955 14.08
3482 1 5.46284 75.2835 15.3679
9546 2 9.10081 75.2955 14.08
9547 2 6.3706 76.8682 14.1072
3152 1 8.18873 76.8558 15.3955
3200 1 10.9191 75.2835 15.3679
9223 2 11.8268 76.8682 14.1072
9271 2 14.557 75.2955 14.08
2873 1 13.645 76.8558 15.3955
2872 1 16.3753 75.2835 15.3679
8937 2 17.2831 76.8682 14.1072
8936 2 20.0133 75.2955 14.08
2557 1 19.1012 76.8558 15.3955
3738 1 0.00219797 78.4283 15.4226
9830 2 3.64041 78.4411 14.1341
3485 1 5.45844 78.4283 15.4226
9549 2 9.09665 78.4411 14.1341
3150 1 10.9147 78.4283 15.4226
9221 2 14.5529 78.4411 14.1341
2875 1 16.3709 78.4283 15.4226
8939 2 20.0091 78.4411 14.1341
9831 2 0.910269 80.0142 14.1605
3452 1 2.7282 80.0012 15.4493
3739 1 -0.00195288 81.5743 15.4754
9833 2 3.63643 81.5875 14.1865
3450 1 5.45429 81.5743 15.4754
9506 2 9.09266 81.5875 14.1865
9508 2 6.36651 80.0142 14.1605
3151 1 8.18444 80.0012 15.4493
9222 2 11.8227 80.0142 14.1605
3153 1 10.9105 81.5743 15.4754
9224 2 14.5489 81.5875 14.1865
2828 1 13.6407 80.0012 15.4493
8899 2 17.279 80.0142 14.1605
2826 1 16.3668 81.5743 15.4754
8897 2 20.0051 81.5875 14.1865
2556 1 19.0969 80.0012 15.4493
9808 2 0.906417 83.161 14.2119
3451 1 2.72422 83.1478 15.5009
3722 1 -0.00574036 84.7216 15.5256
9806 2 3.63273 84.7348 14.2366
3453 1 5.4505 84.7216 15.5256
9507 2 6.36266 83.161 14.2119
9509 2 9.08897 84.7348 14.2366
3112 1 8.18046 83.1478 15.5009
9176 2 11.8189 83.161 14.2119
3110 1 10.9067 84.7216 15.5256
9174 2 14.5452 84.7348 14.2366
2827 1 13.6367 83.1478 15.5009
8898 2 17.2751 83.161 14.2119
2829 1 16.363 84.7216 15.5256
8900 2 20.0014 84.7348 14.2366
2521 1 19.0929 83.1478 15.5009
9807 2 0.902895 86.3089 14.2606
3428 1 2.72064 86.2958 15.5495
9809 2 3.62939 87.8833 14.2838
3426 1 5.44713 87.8704 15.5727
9474 2 9.08563 87.8833 14.2838
9476 2 6.35913 86.3089 14.2606
3111 1 8.17688 86.2958 15.5495
9175 2 11.8154 86.3089 14.2606
3113 1 10.9034 87.8704 15.5727
9177 2 14.5419 87.8833 14.2838
2783 1 13.6331 86.2958 15.5495
8859 2 17.2716 86.3089 14.2606
2781 1 16.3596 87.8704 15.5727
3723 1 21.8158 87.8704 15.5727
8857 2 19.9981 87.8833 14.2838
2520 1 19.0894 86.2958 15.5495
9792 2 0.899749 89.4579 14.3061
3427 1 2.71749 89.4453 15.5949
9790 2 3.62644 91.0328 14.3276
3429 1 5.4442 91.0205 15.6163
9475 2 6.35599 89.4579 14.3061
9477 2 9.08268 91.0328 14.3276
3080 1 8.17373 89.4453 15.5949
9136 2 11.8122 89.4579 14.3061
3078 1 10.9004 91.0205 15.6163
9134 2 14.5389 91.0328 14.3276
2782 1 13.63 89.4453 15.5949
8858 2 17.2685 89.4579 14.3061
2784 1 16.3567 91.0205 15.6163
3714 1 21.8129 91.0205 15.6163
8860 2 19.9952 91.0328 14.3276
2485 1 19.0862 89.4453 15.5949
9791 2 0.896992 92.6079 14.3482
3412 1 2.71477 92.596 15.6368
9793 2 3.62388 94.1833 14.3679
3410 1 5.44169 94.1719 15.6564
9450 2 9.08011 94.1833 14.3679
9452 2 6.35323 92.6079 14.3482
3079 1 8.17101 92.596 15.6368
9135 2 11.8095 92.6079 14.3482
3081 1 10.8979 94.1719 15.6564
9137 2 14.5364 94.1833 14.3679
2745 1 13.6273 92.596 15.6368
8820 2 17.2657 92.6079 14.3482
2743 1 16.3542 94.1719 15.6564
3715 1 21.8104 94.1719 15.6564
8818 2 19.9926 94.1833 14.3679
2484 1 19.0835 92.596 15.6368
9784 2 0.894612 95.7588 14.3867
3411 1 2.71246 95.7479 15.6751
9782 2 3.62168 97.3346 14.4045
3413 1 5.43956 97.3242 15.6928
9451 2 6.35085 95.7588 14.3867
9453 2 9.07791 97.3346 14.4045
3056 1 8.1687 95.7479 15.6751
9104 2 11.8071 95.7588 14.3867
3054 1 10.8958 97.3242 15.6928
9102 2 14.5342 97.3346 14.4045
2744 1 13.6249 95.7479 15.6751
8819 2 17.2633 95.7588 14.3867
2746 1 16.352 97.3242 15.6928
3713 1 21.8083 97.3242 15.6928
8821 2 19.9904 97.3346 14.4045
2450 1 19.0812 95.7479 15.6751
9783 2 0.892587 98.9105 14.4214
3401 1 2.71051 98.9007 15.7095
5681 1 5.43778 100.477 15.7253
12177 2 3.61982 100.487 14.4373
9433 2 6.34883 98.9105 14.4214
3055 1 8.16675 98.9007 15.7095
11882 2 9.07606 100.487 14.4373
9103 2 11.8051 98.9105 14.4214
5392 1 10.894 100.477 15.7253
2712 1 13.623 98.9007 15.7095
11560 2 14.5323 100.487 14.4373
8785 2 17.2613 98.9105 14.4214
5033 1 16.3503 100.477 15.7253
5922 1 21.8065 100.477 15.7253
2449 1 19.0792 98.9007 15.7095
11193 2 19.9885 100.487 14.4373
3598 1 0.949796 51.6814 17.6154
9968 2 1.85527 53.2557 16.3454
9673 2 4.58464 51.6816 16.3381
3596 1 3.67641 53.2545 17.6231
3314 1 6.40603 51.6814 17.6154
9671 2 7.31151 53.2557 16.3454
3315 1 9.13265 53.2545 17.6231
9362 2 10.0409 51.6816 16.3381
2966 1 11.8623 51.6814 17.6154
9006 2 15.4971 51.6816 16.3381
9363 2 12.7678 53.2557 16.3454
2964 1 14.5889 53.2545 17.6231
2634 1 17.3185 51.6814 17.6154
9004 2 18.224 53.2557 16.3454
8704 2 20.9534 51.6816 16.3381
2635 1 20.0451 53.2545 17.6231
3597 1 0.946388 54.8275 17.6337
9672 2 4.5818 54.8297 16.3556
3282 1 6.40263 54.8275 17.6337
9338 2 10.038 54.8297 16.3556
2965 1 11.8589 54.8275 17.6337
9005 2 15.4943 54.8297 16.3556
2626 1 17.3151 54.8275 17.6337
8703 2 20.9505 54.8297 16.3556
9932 2 1.85183 56.4034 16.3685
3559 1 0.941847 57.973 17.6635
9635 2 4.57792 57.9769 16.3839
3599 1 3.67232 56.4003 17.6472
9674 2 7.30807 56.4034 16.3685
3280 1 9.12856 56.4003 17.6472
3281 1 6.39809 57.973 17.6635
9337 2 10.0342 57.9769 16.3839
2942 1 11.8543 57.973 17.6635
8990 2 15.4904 57.9769 16.3839
9336 2 12.7643 56.4034 16.3685
2967 1 14.5848 56.4003 17.6472
9007 2 18.2205 56.4034 16.3685
2625 1 17.3106 57.973 17.6635
8702 2 20.9466 57.9769 16.3839
2624 1 20.041 56.4003 17.6472
9933 2 1.84765 59.5502 16.4018
3558 1 0.93692 61.1173 17.7032
9634 2 4.57356 61.1231 16.4218
3557 1 3.66752 59.5453 17.6822
9633 2 7.30389 59.5502 16.4018
3242 1 6.39316 61.1173 17.7032
3283 1 9.12376 59.5453 17.6822
9306 2 10.0298 61.1231 16.4218
2941 1 11.8494 61.1173 17.7032
8989 2 15.486 61.1231 16.4218
9339 2 12.7601 59.5502 16.4018
2940 1 14.58 59.5453 17.6822
8988 2 18.2164 59.5502 16.4018
2610 1 17.3056 61.1173 17.7032
8695 2 20.9423 61.1231 16.4218
2627 1 20.0362 59.5453 17.6822
9896 2 1.84318 62.6957 16.4438
3519 1 0.931928 64.2604 17.7509
9590 2 4.56902 64.2679 16.4675
3560 1 3.66255 62.689 17.7262
9636 2 7.29942 62.6957 16.4438
3240 1 9.11879 62.689 17.7262
3241 1 6.38817 64.2604 17.7509
9305 2 10.0253 64.2679 16.4675
2910 1 11.8444 64.2604 17.7509
8966 2 15.4815 64.2679 16.4675
9304 2 12.7557 62.6957 16.4438
2943 1 14.575 62.689 17.7262
8991 2 18.2119 62.6957 16.4438
2609 1 17.3006 64.2604 17.7509
8694 2 20.9377 64.2679 16.4675
2608 1 20.0313 62.689 17.7262
9897 2 1.8386 65.8398 16.4925
3518 1 0.926872 67.4022 17.8042
9589 2 4.56438 67.4115 16.5187
3517 1 3.65753 65.8314 17.777
9588 2 7.29484 65.8398 16.4925
3195 1 6.38311 67.4022 17.8042
3243 1 9.11377 65.8314 17.777
9266 2 10.0206 67.4115 16.5187
2909 1 11.8393 67.4022 17.8042
8965 2 15.4769 67.4115 16.5187
9307 2 12.7511 65.8398 16.4925
2908 1 14.57 65.8314 17.777
8964 2 18.2073 65.8398 16.4925
2586 1 17.2956 67.4022 17.8042
8679 2 20.9331 67.4115 16.5187
2611 1 20.0262 65.8314 17.777
9860 2 1.8339 68.983 16.5457
3480 1 0.921723 70.5434 17.8605
9544 2 4.55963 70.5545 16.5732
3520 1 3.65243 68.9728 17.8321
9591 2 7.29013 68.983 16.5457
3193 1 9.10866 68.9728 17.8321
3194 1 6.37796 70.5434 17.8605
9265 2 10.0159 70.5545 16.5732
2870 1 11.8342 70.5434 17.8605
8934 2 15.4721 70.5545 16.5732
9264 2 12.7464 68.983 16.5457
2911 1 14.5649 68.9728 17.8321
8967 2 18.2026 68.983 16.5457
2585 1 17.2904 70.5434 17.8605
8678 2 20.9283 70.5545 16.5732
2584 1 20.0211 68.9728 17.8321
9861 2 1.82911 72.1259 16.601
3479 1 0.91658 73.6851 17.9174
9543 2 4.55483 73.6975 16.6289
3478 1 3.64726 72.1141 17.889
9542 2 7.28534 72.1259 16.601
3148 1 6.37282 73.6851 17.9174
3196 1 9.1035 72.1141 17.889
9219 2 10.0111 73.6975 16.6289
2869 1 11.8291 73.6851 17.9174
8933 2 15.4673 73.6975 16.6289
9267 2 12.7416 72.1259 16.601
2868 1 14.5597 72.1141 17.889
8932 2 18.1978 72.1259 16.601
2554 1 17.2853 73.6851 17.9174
8655 2 20.9235 73.6975 16.6289
2587 1 20.016 72.1141 17.889
9828 2 1.82435 75.2693 16.6566
3448 1 0.91164 76.8279 17.9733
3481 1 3.64219 75.2563 17.9456
9504 2 4.55016 76.8414 16.6841
9545 2 7.28059 75.2693 16.6566
3146 1 9.09843 75.2563 17.9456
3147 1 6.36788 76.8279 17.9733
9218 2 10.0064 76.8414 16.6841
2824 1 11.8241 76.8279 17.9733
9217 2 12.7368 75.2693 16.6566
2871 1 14.5547 75.2563 17.9456
8895 2 15.4626 76.8414 16.6841
8935 2 18.1931 75.2693 16.6566
2553 1 17.2804 76.8279 17.9733
2552 1 20.0109 75.2563 17.9456
8654 2 20.9189 76.8414 16.6841
9829 2 1.8198 78.4138 16.7111
3446 1 3.63743 78.4 18.0005
9502 2 7.27604 78.4138 16.7111
3149 1 9.09366 78.4 18.0005
9220 2 12.7323 78.4138 16.7111
2822 1 14.5499 78.4 18.0005
8893 2 18.1885 78.4138 16.7111
2555 1 20.0061 78.4 18.0005
9804 2 1.81561 81.5598 16.7635
3447 1 0.907091 79.9727 18.0271
9503 2 4.54577 79.9866 16.7376
3449 1 3.63312 81.5458 18.053
9505 2 7.27185 81.5598 16.7635
3106 1 9.08936 81.5458 18.053
3108 1 6.36333 79.9727 18.0271
9172 2 10.002 79.9866 16.7376
2823 1 11.8196 79.9727 18.0271
8894 2 15.4583 79.9866 16.7376
9170 2 12.7281 81.5598 16.7635
2825 1 14.5456 81.5458 18.053
8896 2 18.1843 81.5598 16.7635
2518 1 17.2758 79.9727 18.0271
8627 2 20.9145 79.9866 16.7376
2516 1 20.0018 81.5458 18.053
9805 2 1.81187 84.7076 16.8131
3424 1 0.903054 83.1195 18.0782
9472 2 4.5418 83.1335 16.7887
3422 1 3.62936 84.6937 18.1025
9470 2 7.26811 84.7076 16.8131
3107 1 6.35929 83.1195 18.0782
3109 1 9.0856 84.6937 18.1025
9171 2 9.99804 83.1335 16.7887
2779 1 11.8155 83.1195 18.0782
8855 2 15.4543 83.1335 16.7887
9173 2 12.7243 84.7076 16.8131
2777 1 14.5418 84.6937 18.1025
8853 2 18.1806 84.7076 16.8131
2517 1 17.2718 83.1195 18.0782
8626 2 20.9105 83.1335 16.7887
2519 1 19.9981 84.6937 18.1025
9788 2 1.80861 87.857 16.8596
3423 1 0.899569 86.2684 18.1261
9471 2 4.5383 86.2821 16.8368
3425 1 3.62615 87.8436 18.1488
9473 2 7.26485 87.857 16.8596
3074 1 9.08239 87.8436 18.1488
3076 1 6.35581 86.2684 18.1261
9132 2 9.99454 86.2821 16.8368
2778 1 11.812 86.2684 18.1261
8854 2 15.4508 86.2821 16.8368
9130 2 12.7211 87.857 16.8596
2780 1 14.5386 87.8436 18.1488
8856 2 18.1773 87.857 16.8596
2482 1 17.2683 86.2684 18.1261
8599 2 20.907 86.2821 16.8368
2480 1 19.9949 87.8436 18.1488
9789 2 1.80582 91.008 16.9027
3408 1 0.896619 89.4193 18.1706
9448 2 4.53528 89.4323 16.8816
3406 1 3.62345 90.9954 18.1916
9446 2 7.26205 91.008 16.9027
3075 1 6.35286 89.4193 18.1706
3077 1 9.07969 90.9954 18.1916
9131 2 9.99151 89.4323 16.8816
2741 1 11.8091 89.4193 18.1706
8816 2 15.4478 89.4323 16.8816
9133 2 12.7183 91.008 16.9027
2739 1 14.5359 90.9954 18.1916
8814 2 18.1745 91.008 16.9027
2481 1 17.2653 89.4193 18.1706
8598 2 20.904 89.4323 16.8816
2483 1 19.9922 90.9954 18.1916
9780 2 1.80346 94.1604 16.9423
3407 1 0.894154 92.5719 18.2116
9447 2 4.5327 92.584 16.923
3409 1 3.6212 94.1488 18.2308
9449 2 7.25969 94.1604 16.9423
3050 1 9.07744 94.1488 18.2308
3052 1 6.35039 92.5719 18.2116
9100 2 9.98894 92.584 16.923
2740 1 11.8066 92.5719 18.2116
8815 2 15.4452 92.584 16.923
9098 2 12.7159 94.1604 16.9423
2742 1 14.5337 94.1488 18.2308
8817 2 18.1722 94.1604 16.9423
2447 1 17.2629 92.5719 18.2116
8571 2 20.9014 92.584 16.923
2445 1 19.9899 94.1488 18.2308
9781 2 1.80148 97.3139 16.9782
3400 1 0.892115 95.726 18.2491
9432 2 4.53054 95.737 16.9607
3398 1 3.61935 97.3035 18.2664
9430 2 7.25772 97.3139 16.9782
3051 1 6.34835 95.726 18.2491
3053 1 9.07559 97.3035 18.2664
9099 2 9.98678 95.737 16.9607
2711 1 11.8046 95.726 18.2491
8784 2 15.443 95.737 16.9607
9101 2 12.714 97.3139 16.9782
2709 1 14.5318 97.3035 18.2664
8782 2 18.1702 97.3139 16.9782
2446 1 17.2608 95.726 18.2491
8570 2 20.8993 95.737 16.9607
2448 1 19.9881 97.3035 18.2664
3399 1 0.89044 98.8812 18.2828
12143 2 1.79984 100.468 17.0104
9431 2 4.52874 98.8911 16.9948
5680 1 3.61784 100.459 18.2983
3033 1 6.34668 98.8812 18.2828
11881 2 7.25608 100.468 17.0104
5361 1 9.07408 100.459 18.2983
9073 2 9.98498 98.8911 16.9948
2710 1 11.8029 98.8812 18.2828
8783 2 15.4412 98.8911 16.9948
11537 2 12.7123 100.468 17.0104
5032 1 14.5303 100.459 18.2983
2416 1 17.2592 98.8812 18.2828
11192 2 18.1686 100.468 17.0104
8543 2 20.8975 98.8911 16.9948
4681 1 19.9866 100.459 18.2983
9669 2 2.7716 51.6801 18.9002
9627 2 0.959796 51.6771 21.462
3595 1 1.8633 53.2499 20.185
9930 2 0.0416934 53.2518 18.908
3278 1 4.59363 51.6794 20.1768
9670 2 5.49793 53.2518 18.908
9625 2 3.68529 53.2458 21.4703
9334 2 8.22784 51.6801 18.9002
9330 2 6.41603 51.6771 21.462
3276 1 7.31954 53.2499 20.185
9331 2 9.14153 53.2458 21.4703
2962 1 10.0499 51.6794 20.1768
8982 2 11.8723 51.6771 21.462
9332 2 10.9542 53.2518 18.908
2622 1 15.5061 51.6794 20.1768
9002 2 13.6841 51.6801 18.9002
2963 1 12.7758 53.2499 20.185
8980 2 14.5978 53.2458 21.4703
8698 2 17.3285 51.6771 21.462
2620 1 18.232 53.2499 20.185
9003 2 16.4104 53.2518 18.908
2352 1 20.9623 51.6794 20.1768
8701 2 19.1403 51.6801 18.9002
8699 2 20.054 53.2458 21.4703
9631 2 2.76755 54.8234 18.9189
9626 2 0.953916 54.8146 21.4818
3277 1 4.58867 54.8204 20.1964
9333 2 8.22379 54.8234 18.9189
9298 2 6.41015 54.8146 21.4818
2938 1 10.0449 54.8204 20.1964
8981 2 11.8664 54.8146 21.4818
2621 1 15.5011 54.8204 20.1964
8986 2 13.68 54.8234 18.9189
8690 2 17.3226 54.8146 21.4818
2351 1 20.9574 54.8204 20.1964
8700 2 19.1363 54.8234 18.9189
3555 1 1.85746 56.3909 20.2109
9630 2 2.76221 57.9662 18.9492
9931 2 0.0368549 56.3948 18.9327
9582 2 0.946502 57.9523 21.5143
3238 1 4.58235 57.9612 20.2284
9629 2 5.49309 56.3948 18.9327
9628 2 3.67841 56.3834 21.4965
3279 1 7.3137 56.3909 20.2109
9302 2 8.21844 57.9662 18.9492
9297 2 6.40274 57.9523 21.5143
9296 2 9.13464 56.3834 21.4965
2937 1 10.0386 57.9612 20.2284
9335 2 10.9493 56.3948 18.9327
8958 2 11.859 57.9523 21.5143
2606 1 15.4948 57.9612 20.2284
2936 1 12.7699 56.3909 20.2109
8985 2 13.6747 57.9662 18.9492
8983 2 14.5909 56.3834 21.4965
2623 1 18.2262 56.3909 20.2109
8984 2 16.4056 56.3948 18.9327
8689 2 17.3152 57.9523 21.5143
2350 1 20.9511 57.9612 20.2284
8693 2 19.1309 57.9662 18.9492
8688 2 20.0471 56.3834 21.4965
3556 1 1.85097 59.5314 20.2485
9586 2 2.75649 61.1081 18.9899
9894 2 0.031237 59.5373 18.9684
9581 2 0.939008 61.0894 21.5582
3237 1 4.57587 61.1013 20.2712
9632 2 5.48748 59.5373 18.9684
9580 2 3.67083 59.521 21.535
3236 1 7.30721 59.5314 20.2485
9301 2 8.21273 61.1081 18.9899
9258 2 6.39525 61.0894 21.5582
9299 2 9.12707 59.521 21.535
2906 1 10.0321 61.1013 20.2712
9300 2 10.9437 59.5373 18.9684
8957 2 11.8515 61.0894 21.5582
2605 1 15.4883 61.1013 20.2712
2939 1 12.7634 59.5314 20.2485
8962 2 13.669 61.1081 18.9899
8956 2 14.5833 59.521 21.535
2604 1 18.2197 59.5314 20.2485
8987 2 16.4 59.5373 18.9684
8674 2 17.3077 61.0894 21.5582
2343 1 20.9446 61.1013 20.2712
8692 2 19.1252 61.1081 18.9899
8691 2 20.0396 59.521 21.535
3515 1 1.84459 62.6708 20.296
9585 2 2.7508 64.2488 19.0386
9895 2 0.0255156 62.6786 19.0134
9536 2 0.931884 64.2256 21.6107
3191 1 4.5696 64.2401 20.3226
9584 2 5.48175 62.6786 19.0134
9583 2 3.66352 62.6576 21.5836
3239 1 7.30083 62.6708 20.296
9262 2 8.20704 64.2488 19.0386
9256 2 9.11976 62.6576 21.5836
9257 2 6.38812 64.2256 21.6107
2905 1 10.0258 64.2401 20.3226
9303 2 10.938 62.6786 19.0134
8926 2 11.8444 64.2256 21.6107
2582 1 15.4821 64.2401 20.3226
2904 1 12.7571 62.6708 20.296
8961 2 13.6633 64.2488 19.0386
8959 2 14.576 62.6576 21.5836
2607 1 18.2133 62.6708 20.296
8960 2 16.3942 62.6786 19.0134
8673 2 17.3006 64.2256 21.6107
2342 1 20.9383 64.2401 20.3226
8677 2 19.1195 64.2488 19.0386
8672 2 20.0322 62.6576 21.5836
3516 1 1.8384 65.809 20.3505
9540 2 2.74515 67.3887 19.0927
9858 2 0.0198535 65.8188 19.0652
9535 2 0.925029 67.3613 21.6683
3190 1 4.56345 67.3779 20.3792
9587 2 5.47609 65.8188 19.0652
9534 2 3.65655 65.7934 21.6391
3189 1 7.29464 65.809 20.3505
9261 2 8.20139 67.3887 19.0927
9211 2 6.38127 67.3613 21.6683
9259 2 9.11279 65.7934 21.6391
2866 1 10.0197 67.3779 20.3792
9260 2 10.9323 65.8188 19.0652
8925 2 11.8375 67.3613 21.6683
2581 1 15.4759 67.3779 20.3792
2907 1 12.7509 65.809 20.3505
8930 2 13.6576 67.3887 19.0927
8924 2 14.569 65.7934 21.6391
2580 1 18.2071 65.809 20.3505
8963 2 16.3886 65.8188 19.0652
8650 2 17.2937 67.3613 21.6683
2327 1 20.9322 67.3779 20.3792
8676 2 19.1139 67.3887 19.0927
8675 2 20.0253 65.7934 21.6391
3476 1 1.83227 68.9467 20.4085
9539 2 2.73953 70.5285 19.1495
9859 2 0.0142117 68.9585 19.1209
9496 2 0.91843 70.4979 21.7274
3144 1 4.55736 70.5158 20.4379
9538 2 5.47045 68.9585 19.1209
9537 2 3.64981 68.9294 21.6979
3192 1 7.28851 68.9467 20.4085
9215 2 8.19577 70.5285 19.1495
9209 2 9.10605 68.9294 21.6979
9210 2 6.37467 70.4979 21.7274
2865 1 10.0136 70.5158 20.4379
9263 2 10.9267 68.9585 19.1209
8887 2 11.8309 70.4979 21.7274
2550 1 15.4698 70.5158 20.4379
2864 1 12.7447 68.9467 20.4085
8929 2 13.652 70.5285 19.1495
8927 2 14.5623 68.9294 21.6979
2583 1 18.201 68.9467 20.4085
8928 2 16.3829 68.9585 19.1209
8649 2 17.2871 70.4979 21.7274
2326 1 20.9261 70.5158 20.4379
8653 2 19.1082 70.5285 19.1495
8648 2 20.0185 68.9294 21.6979
3477 1 1.82628 72.0852 20.4672
9500 2 2.73406 73.6692 19.2065
9826 2 0.00864157 72.0987 19.1781
9495 2 0.912307 73.6368 21.7856
3143 1 4.55153 73.6551 20.4961
9541 2 5.46488 72.0987 19.1781
9494 2 3.64341 72.067 21.7567
3142 1 7.28252 72.0852 20.4672
9214 2 8.1903 73.6692 19.2065
9164 2 6.36855 73.6368 21.7856
9212 2 9.09965 72.067 21.7567
2820 1 10.0078 73.6551 20.4961
9213 2 10.9211 72.0987 19.1781
8886 2 11.8248 73.6368 21.7856
2549 1 15.464 73.6551 20.4961
2867 1 12.7388 72.0852 20.4672
8891 2 13.6465 73.6692 19.2065
8885 2 14.5559 72.067 21.7567
2548 1 18.195 72.0852 20.4672
8931 2 16.3774 72.0987 19.1781
8622 2 17.281 73.6368 21.7856
2304 1 20.9202 73.6551 20.4961
8652 2 19.1028 73.6692 19.2065
8651 2 20.0121 72.067 21.7567
3444 1 1.82066 75.2256 20.5246
9827 2 0.00332878 75.2403 19.2346
9499 2 2.72895 76.8118 19.2622
9498 2 5.45957 75.2403 19.2346
3104 1 4.54619 76.7968 20.5523
3145 1 7.2769 75.2256 20.5246
9168 2 8.18519 76.8118 19.2622
9216 2 10.9158 75.2403 19.2346
2819 1 10.0024 76.7968 20.5523
2818 1 12.7331 75.2256 20.5246
2514 1 15.4587 76.7968 20.5523
8890 2 13.6414 76.8118 19.2622
2551 1 18.1894 75.2256 20.5246
8889 2 16.372 75.2403 19.2346
2303 1 20.9149 76.7968 20.5523
8625 2 19.0977 76.8118 19.2622
3445 1 1.81566 78.3688 20.5794
9802 2 -0.00152219 78.384 19.2892
9501 2 5.45472 78.384 19.2892
3102 1 7.2719 78.3688 20.5794
9166 2 10.911 78.384 19.2892
2821 1 12.7281 78.3688 20.5794
2512 1 18.1844 78.3688 20.5794
8892 2 16.3672 78.384 19.2892
3420 1 1.81137 81.5149 20.6312
9468 2 2.72439 79.9568 19.3155
9803 2 -0.00578178 81.5301 19.3411
3103 1 4.54154 79.9415 20.6057
9466 2 5.45046 81.5301 19.3411
3105 1 7.26761 81.5149 20.6312
9167 2 8.18063 79.9568 19.3155
2775 1 9.99778 79.9415 20.6057
9169 2 10.9067 81.5301 19.3411
2513 1 15.454 79.9415 20.6057
2773 1 12.7239 81.5149 20.6312
8851 2 13.6369 79.9568 19.3155
2515 1 18.1801 81.5149 20.6312
8849 2 16.3629 81.5301 19.3411
2280 1 20.9103 79.9415 20.6057
8624 2 19.0931 79.9568 19.3155
3421 1 1.80782 84.6639 20.6797
9467 2 2.72044 83.1041 19.366
3072 1 4.53763 83.0891 20.6559
9469 2 5.44683 84.6787 19.39
3070 1 7.26406 84.6639 20.6797
9128 2 8.17668 83.1041 19.366
2774 1 9.99387 83.0891 20.6559
9126 2 10.9031 84.6787 19.39
2478 1 15.4501 83.0891 20.6559
2776 1 12.7203 84.6639 20.6797
8850 2 13.6329 83.1041 19.366
2476 1 18.1765 84.6639 20.6797
8852 2 16.3593 84.6787 19.39
9786 2 21.8155 84.6787 19.39
2279 1 20.9063 83.0891 20.6559
8597 2 19.0892 83.1041 19.366
3404 1 1.80493 87.8156 20.7249
9444 2 2.71712 86.2539 19.4132
3071 1 4.53442 86.2395 20.7027
9442 2 5.44379 87.8296 19.4356
3073 1 7.26117 87.8156 20.7249
9127 2 8.17336 86.2539 19.4132
2737 1 9.99065 86.2395 20.7027
9129 2 10.9 87.8296 19.4356
2477 1 15.4469 86.2395 20.7027
2735 1 12.7174 87.8156 20.7249
8812 2 13.6296 86.2539 19.4132
2479 1 18.1736 87.8156 20.7249
8810 2 16.3563 87.8296 19.4356
9787 2 21.8125 87.8296 19.4356
2256 1 20.9031 86.2395 20.7027
8596 2 19.0858 86.2539 19.4132
3405 1 1.8026 90.9694 20.7666
9443 2 2.71436 89.4058 19.4571
3048 1 4.53182 89.3922 20.7462
9445 2 5.4413 90.9825 19.4778
3046 1 7.25884 90.9694 20.7666
9096 2 8.1706 89.4058 19.4571
2736 1 9.98806 89.3922 20.7462
9094 2 10.8975 90.9825 19.4778
2443 1 15.4443 89.3922 20.7462
2738 1 12.7151 90.9694 20.7666
8811 2 13.6268 89.4058 19.4571
2441 1 18.1713 90.9694 20.7666
8813 2 16.3538 90.9825 19.4778
9778 2 21.81 90.9825 19.4778
2255 1 20.9005 89.3922 20.7462
8569 2 19.0831 89.4058 19.4571
3396 1 1.80074 94.1251 20.8048
9428 2 2.7121 92.5596 19.4976
3047 1 4.52974 92.5471 20.7862
9426 2 5.43926 94.137 19.5165
3049 1 7.25698 94.1251 20.8048
9095 2 8.16834 92.5596 19.4976
2707 1 9.98598 92.5471 20.7862
9097 2 10.8955 94.137 19.5165
2442 1 15.4422 92.5471 20.7862
2705 1 12.7132 94.1251 20.8048
8780 2 13.6246 92.5596 19.4976
2444 1 18.1695 94.1251 20.8048
8778 2 16.3517 94.137 19.5165
9779 2 21.808 94.137 19.5165
2232 1 20.8985 92.5471 20.7862
8568 2 19.0808 92.5596 19.4976
3397 1 1.79926 97.2823 20.8396
9427 2 2.71026 95.7149 19.5345
3032 1 4.52808 95.7036 20.8226
9429 2 5.4376 97.293 19.5516
3030 1 7.2555 97.2823 20.8396
9072 2 8.1665 95.7149 19.5345
2706 1 9.98432 95.7036 20.8226
9070 2 10.8938 97.293 19.5516
2415 1 15.4406 95.7036 20.8226
2708 1 12.7117 97.2823 20.8396
8779 2 13.6227 95.7149 19.5345
2413 1 18.168 97.2823 20.8396
8781 2 16.3501 97.293 19.5516
9777 2 21.8063 97.293 19.5516
2231 1 20.8968 95.7036 20.8226
8542 2 19.079 95.7149 19.5345
9417 2 2.70877 98.8714 19.5678
5642 1 1.79809 100.441 20.8707
3031 1 4.52676 98.8614 20.8556
11844 2 5.43626 100.45 19.583
9071 2 8.16501 98.8714 19.5678
5360 1 7.25433 100.441 20.8707
2682 1 9.983 98.8614 20.8556
11536 2 10.8925 100.45 19.583
2414 1 15.4392 98.8614 20.8556
8753 2 13.6213 98.8714 19.5678
5009 1 12.7106 100.441 20.8707
4680 1 18.1668 100.441 20.8707
11177 2 16.3487 100.45 19.583
12142 2 21.805 100.45 19.583
2208 1 20.8955 98.8614 20.8556
8541 2 19.0775 98.8714 19.5678
3274 1 2.78266 51.6755 22.7381
9294 2 4.60571 51.6719 24.0241
2934 1 8.2389 51.6755 22.7381
8978 2 10.0619 51.6719 24.0241
2618 1 13.6951 51.6755 22.7381
8686 2 15.5182 51.6719 24.0241
2349 1 19.1514 51.6755 22.7381
8480 2 20.9744 51.6719 24.0241
3234 1 2.77531 54.8102 22.7587
3553 1 0.0512186 53.2427 22.7467
9624 2 1.87369 53.2367 24.0325
3275 1 5.50746 53.2427 22.7467
9293 2 4.59707 54.8021 24.0444
2933 1 8.23155 54.8102 22.7587
9292 2 7.32992 53.2367 24.0325
2932 1 10.9637 53.2427 22.7467
8954 2 10.0533 54.8021 24.0444
2602 1 13.6878 54.8102 22.7587
8685 2 15.5095 54.8021 24.0444
8979 2 12.7862 53.2367 24.0325
2619 1 16.4199 53.2427 22.7467
8684 2 18.2424 53.2367 24.0325
2348 1 19.144 54.8102 22.7587
8479 2 20.9658 54.8021 24.0444
3233 1 2.76649 57.9458 22.7929
3554 1 0.0428105 56.378 22.7741
9578 2 1.86382 56.3679 24.06
3232 1 5.49905 56.378 22.7741
9254 2 4.58677 57.9338 24.0791
2902 1 8.22273 57.9458 22.7929
9295 2 7.32006 56.3679 24.06
2935 1 10.9553 56.378 22.7741
8953 2 10.043 57.9338 24.0791
2601 1 13.679 57.9458 22.7929
8670 2 15.4992 57.9338 24.0791
8952 2 12.7763 56.3679 24.06
2600 1 16.4115 56.378 22.7741
8687 2 18.2325 56.3679 24.06
2341 1 19.1352 57.9458 22.7929
8478 2 20.9555 57.9338 24.0791
3187 1 2.75801 61.081 22.8397
3513 1 0.0340391 59.5135 22.8149
9579 2 1.85365 59.4997 24.1016
3235 1 5.49028 59.5135 22.8149
9253 2 4.57701 61.0655 24.127
2901 1 8.21425 61.081 22.8397
9252 2 7.30989 59.4997 24.1016
2900 1 10.9465 59.5135 22.8149
8922 2 10.0332 61.0655 24.127
2578 1 13.6705 61.081 22.8397
8669 2 15.4895 61.0655 24.127
8955 2 12.7661 59.4997 24.1016
2603 1 16.4028 59.5135 22.8149
8668 2 18.2224 59.4997 24.1016
2340 1 19.1267 61.081 22.8397
8471 2 20.9457 61.0655 24.127
3186 1 2.75018 64.2149 22.8956
3514 1 0.0259145 62.6481 22.8668
9532 2 1.84437 62.6309 24.1548
3185 1 5.48215 62.6481 22.8668
9207 2 4.56815 64.1963 24.1843
2862 1 8.20642 64.2149 22.8956
9255 2 7.30061 62.6309 24.1548
2903 1 10.9384 62.6481 22.8668
8921 2 10.0244 64.1963 24.1843
2577 1 13.6627 64.2149 22.8956
8646 2 15.4806 64.1963 24.1843
8920 2 12.7568 62.6309 24.1548
2576 1 16.3946 62.6481 22.8668
8671 2 18.2131 62.6309 24.1548
2325 1 19.1189 64.2149 22.8956
8470 2 20.9369 64.1963 24.1843
3140 1 2.74273 67.3482 22.9562
3474 1 0.0183016 65.7815 22.9256
9533 2 1.83584 65.7617 24.2149
3188 1 5.47454 65.7815 22.9256
9206 2 4.5599 67.3275 24.2458
2861 1 8.19896 67.3482 22.9562
9205 2 7.29208 65.7617 24.2149
2860 1 10.9308 65.7815 22.9256
8883 2 10.0161 67.3275 24.2458
2546 1 13.6552 67.3482 22.9562
8645 2 15.4724 67.3275 24.2458
8923 2 12.7483 65.7617 24.2149
2579 1 16.387 65.7815 22.9256
8644 2 18.2046 65.7617 24.2149
2324 1 19.1114 67.3482 22.9562
8456 2 20.9286 67.3275 24.2458
3139 1 2.73562 70.4827 23.0173
3475 1 0.0109922 68.9152 22.9869
9492 2 1.82787 68.894 24.2767
3138 1 5.46723 68.9152 22.9869
9160 2 4.55229 70.4612 24.3072
2816 1 8.19185 70.4827 23.0173
9208 2 7.28411 68.894 24.2767
2863 1 10.9235 68.9152 22.9869
8882 2 10.0085 70.4612 24.3072
2545 1 13.6481 70.4827 23.0173
8618 2 15.4648 70.4612 24.3072
8881 2 12.7403 68.894 24.2767
2544 1 16.3797 68.9152 22.9869
8647 2 18.1966 68.894 24.2767
2302 1 19.1043 70.4827 23.0173
8455 2 20.921 70.4612 24.3072
3100 1 2.72916 73.6202 23.0764
3442 1 0.0041633 72.051 23.0472
9493 2 1.82072 72.0295 24.337
3141 1 5.4604 72.051 23.0472
9159 2 4.54568 73.5989 24.3659
2815 1 8.18539 73.6202 23.0764
9158 2 7.27696 72.0295 24.337
2814 1 10.9166 72.051 23.0472
8843 2 10.0019 73.5989 24.3659
2510 1 13.6416 73.6202 23.0764
8617 2 15.4582 73.5989 24.3659
8884 2 12.7332 72.0295 24.337
2547 1 16.3729 72.051 23.0472
8616 2 18.1894 72.0295 24.337
2301 1 19.0979 73.6202 23.0764
8440 2 20.9144 73.5989 24.3659
9464 2 0.90691 76.7787 21.8413
3443 1 -0.00185386 75.1904 23.1048
9460 2 1.8147 75.1694 24.394
3099 1 2.72363 76.7616 23.1323
9497 2 3.63763 75.2073 21.8138
3098 1 5.45438 75.1904 23.1048
9120 2 4.54027 76.7411 24.4212
9162 2 9.09386 75.2073 21.8138
9163 2 6.36315 76.7787 21.8413
9161 2 7.27094 75.1694 24.394
2771 1 8.17987 76.7616 23.1323
8847 2 11.8194 76.7787 21.8413
2817 1 10.9106 75.1904 23.1048
8842 2 9.99651 76.7411 24.4212
8888 2 14.5501 75.2073 21.8138
8841 2 12.7272 75.1694 24.394
2509 1 13.6361 76.7616 23.1323
8590 2 15.4527 76.7411 24.4212
8621 2 17.2756 76.7787 21.8413
2508 1 16.3669 75.1904 23.1048
8619 2 18.1834 75.1694 24.394
8620 2 20.0063 75.2073 21.8138
2278 1 19.0923 76.7616 23.1323
8439 2 20.909 76.7411 24.4212
9463 2 0.902363 79.924 21.8941
3418 1 -0.0068701 78.3338 23.159
9461 2 1.80989 78.3139 24.4474
3068 1 2.71912 79.907 23.1847
9462 2 3.63265 78.3509 21.8681
3101 1 5.44937 78.3338 23.159
9119 2 4.53603 79.8878 24.4728
9165 2 9.08889 78.3509 21.8681
9124 2 6.3586 79.924 21.8941
9118 2 7.26613 78.3139 24.4474
2770 1 8.17536 79.907 23.1847
8846 2 11.8148 79.924 21.8941
2769 1 10.9056 78.3338 23.159
8804 2 9.99227 79.8878 24.4728
8845 2 14.5451 78.3509 21.8681
8844 2 12.7224 78.3139 24.4474
2474 1 13.6316 79.907 23.1847
8589 2 15.4485 79.8878 24.4728
8594 2 17.2711 79.924 21.8941
2511 1 16.3618 78.3338 23.159
8588 2 18.1786 78.3139 24.4474
8623 2 20.0014 78.3509 21.8681
2277 1 19.0878 79.907 23.1847
8424 2 20.9047 79.8878 24.4728
9436 2 1.80619 81.4627 24.4973
9465 2 3.62853 81.4979 21.9192
3066 1 5.44535 81.4812 23.2096
9122 2 9.08477 81.4979 21.9192
9121 2 7.26243 81.4627 24.4973
2772 1 10.9016 81.4812 23.2096
8848 2 14.541 81.4979 21.9192
8802 2 12.7187 81.4627 24.4973
2472 1 16.3578 81.4812 23.2096
8591 2 18.1749 81.4627 24.4973
8592 2 19.9972 81.4979 21.9192
3419 1 21.8141 81.4812 23.2096
9440 2 0.898654 83.0726 21.9435
3067 1 2.71557 83.0562 23.2337
9437 2 1.80341 84.615 24.5437
9438 2 3.62521 84.648 21.967
3069 1 5.44223 84.6321 23.2568
9088 2 4.53282 83.0384 24.5209
9123 2 6.35489 83.0726 21.9435
9125 2 9.08145 84.648 21.967
2733 1 8.17181 83.0562 23.2337
9086 2 7.25965 84.615 24.5437
8808 2 11.8111 83.0726 21.9435
2731 1 10.8985 84.6321 23.2568
8803 2 9.98905 83.0384 24.5209
8806 2 14.5377 84.648 21.967
2473 1 13.628 83.0562 23.2337
8562 2 15.4453 83.0384 24.5209
8805 2 12.7159 84.615 24.5437
8593 2 17.2674 83.0726 21.9435
2475 1 16.3547 84.6321 23.2568
8560 2 18.1721 84.615 24.5437
3402 1 21.8109 84.6321 23.2568
8595 2 19.9939 84.648 21.967
2254 1 19.0843 83.0562 23.2337
8423 2 20.9015 83.0384 24.5209
9439 2 0.895695 86.2241 21.9896
3044 1 2.71283 86.2087 23.2792
9420 2 1.80136 87.7705 24.5868
9441 2 3.62258 87.8008 22.0114
3042 1 5.43984 87.786 23.3007
9087 2 4.53042 86.1924 24.5656
9090 2 9.07882 87.8008 22.0114
9092 2 6.35193 86.2241 21.9896
2732 1 8.16907 86.2087 23.2792
9089 2 7.25759 87.7705 24.5868
8807 2 11.8082 86.2241 21.9896
2734 1 10.8961 87.786 23.3007
8772 2 9.98666 86.1924 24.5656
8809 2 14.5351 87.8008 22.0114
2439 1 13.6253 86.2087 23.2792
8561 2 15.4429 86.1924 24.5656
8770 2 12.7138 87.7705 24.5868
8566 2 17.2644 86.2241 21.9896
2437 1 16.3523 87.786 23.3007
8563 2 18.1701 87.7705 24.5868
3403 1 21.8086 87.786 23.3007
8564 2 19.9913 87.8008 22.0114
2253 1 19.0815 86.2087 23.2792
8408 2 20.8991 86.1924 24.5656
9424 2 0.893363 89.3781 22.0324
3043 1 2.71075 89.3639 23.3213
9422 2 3.62051 90.956 22.0525
3045 1 5.43803 90.9424 23.3411
9064 2 4.52866 89.3492 24.6071
9091 2 6.3496 89.3781 22.0324
9093 2 9.07675 90.956 22.0525
2703 1 8.16699 89.3639 23.3213
8776 2 11.8058 89.3781 22.0324
2701 1 10.8943 90.9424 23.3411
8771 2 9.9849 89.3492 24.6071
8774 2 14.533 90.956 22.0525
2438 1 13.6232 89.3639 23.3213
8535 2 15.4411 89.3492 24.6071
8565 2 17.2621 89.3781 22.0324
2440 1 16.3505 90.9424 23.3411
3394 1 21.8067 90.9424 23.3411
8567 2 19.9892 90.956 22.0525
2230 1 19.0795 89.3639 23.3213
8407 2 20.8974 89.3492 24.6071
9423 2 0.891537 92.5343 22.0718
3028 1 2.70917 92.5214 23.3601
3026 1 5.43666 94.1008 23.3783
9425 2 3.6189 94.1131 22.0902
9068 2 6.34778 92.5343 22.0718
2702 1 8.16541 92.5214 23.3601
9066 2 9.07514 94.1131 22.0902
8775 2 11.804 92.5343 22.0718
2704 1 10.8929 94.1008 23.3783
2411 1 13.6217 92.5214 23.3601
8777 2 14.5314 94.1131 22.0902
8539 2 17.2603 92.5343 22.0718
2409 1 16.3491 94.1008 23.3783
3395 1 21.8054 94.1008 23.3783
2229 1 19.0779 92.5214 23.3601
8537 2 19.9876 94.1131 22.0902
3027 1 2.70798 95.6806 23.3956
9416 2 0.890113 95.6922 22.1077
3029 1 5.43562 97.2608 23.4121
9414 2 3.61764 97.2717 22.1244
2681 1 8.16422 95.6806 23.3956
9067 2 6.34635 95.6922 22.1077
9069 2 9.07388 97.2717 22.1244
2679 1 10.8919 97.2608 23.4121
8752 2 11.8026 95.6922 22.1077
2410 1 13.6205 95.6806 23.3956
8750 2 14.5301 97.2717 22.1244
2412 1 16.3481 97.2608 23.4121
8538 2 17.2588 95.6922 22.1077
3393 1 21.8043 97.2608 23.4121
2207 1 19.0767 95.6806 23.3956
8540 2 19.9864 97.2717 22.1244
3017 1 2.70708 98.8413 23.4277
9415 2 0.889002 98.8515 22.1402
5321 1 5.43484 100.422 23.4424
11843 2 3.61666 100.432 22.1551
2680 1 8.16332 98.8413 23.4277
9049 2 6.34524 98.8515 22.1402
11505 2 9.0729 100.432 22.1551
8751 2 11.8015 98.8515 22.1402
5008 1 10.8911 100.422 23.4424
2388 1 13.6196 98.8413 23.4277
11176 2 14.5291 100.432 22.1551
8516 2 17.2577 98.8515 22.1402
4665 1 16.3473 100.422 23.4424
5641 1 21.8036 100.422 23.4424
2206 1 19.0758 98.8413 23.4277
10873 2 19.9854 100.432 22.1551
3230 1 0.973484 51.6686 25.3005
9290 2 2.79712 51.6634 26.5876
2930 1 6.42972 51.6686 25.3005
8950 2 8.25336 51.6634 26.5876
2598 1 11.886 51.6686 25.3005
8682 2 13.7096 51.6634 26.5876
2346 1 17.3422 51.6686 25.3005
8477 2 19.1658 51.6634 26.5876
3229 1 0.962523 54.7957 25.3207
9250 2 2.78434 54.7846 26.6068
9576 2 0.063162 53.2234 26.5952
3228 1 3.69655 53.2317 25.3087
9291 2 5.5194 53.2234 26.5952
2898 1 6.41876 54.7957 25.3207
2931 1 9.15279 53.2317 25.3087
8949 2 8.24058 54.7846 26.6068
2597 1 11.875 54.7957 25.3207
8948 2 10.9756 53.2234 26.5952
2596 1 14.609 53.2317 25.3087
8666 2 13.6968 54.7846 26.6068
2338 1 17.3312 54.7957 25.3207
8683 2 16.4319 53.2234 26.5952
2347 1 20.0653 53.2317 25.3087
8476 2 19.1531 54.7846 26.6068
3183 1 0.950178 57.9253 25.3572
9249 2 2.77007 57.9091 26.6435
9577 2 0.0489961 56.3466 26.6229
3231 1 3.68437 56.3603 25.3369
9248 2 5.50523 56.3466 26.6229
2896 1 9.14061 56.3603 25.3369
2897 1 6.40642 57.9253 25.3572
8918 2 8.22631 57.9091 26.6435
2574 1 11.8627 57.9253 25.3572
8951 2 10.9615 56.3466 26.6229
2599 1 14.5969 56.3603 25.3369
8665 2 13.6825 57.9091 26.6435
2337 1 17.3189 57.9253 25.3572
8664 2 16.4177 56.3466 26.6229
2336 1 20.0531 56.3603 25.3369
8469 2 19.1388 57.9091 26.6435
3182 1 0.939148 61.0547 25.4089
9203 2 2.75748 61.0339 26.6967
9530 2 0.0353993 59.4716 26.6683
3181 1 3.67256 59.4901 25.3814
9251 2 5.49164 59.4716 26.6683
2858 1 6.39539 61.0547 25.4089
2899 1 9.1288 59.4901 25.3814
8917 2 8.21372 61.0339 26.6967
2573 1 11.8516 61.0547 25.4089
8916 2 10.9479 59.4716 26.6683
2572 1 14.585 59.4901 25.3814
8642 2 13.67 61.0339 26.6967
2322 1 17.3079 61.0547 25.4089
8667 2 16.4041 59.4716 26.6683
2339 1 20.0413 59.4901 25.3814
8468 2 19.1262 61.0339 26.6967
3136 1 0.929455 64.1826 25.4708
9202 2 2.74658 64.1583 26.7601
9531 2 0.0237553 62.596 26.7276
3184 1 3.66229 62.6188 25.439
9201 2 5.47999 62.596 26.7276
2856 1 9.11853 62.6188 25.439
2857 1 6.38569 64.1826 25.4708
8879 2 8.20282 64.1583 26.7601
2542 1 11.8419 64.1826 25.4708
8919 2 10.9362 62.596 26.7276
2575 1 14.5748 62.6188 25.439
8641 2 13.6591 64.1583 26.7601
2321 1 17.2982 64.1826 25.4708
8640 2 16.3925 62.596 26.7276
2320 1 20.031 62.6188 25.439
8454 2 19.1153 64.1583 26.7601
3135 1 0.920511 67.3108 25.5357
9156 2 2.73678 67.2849 26.8258
9490 2 0.0134201 65.7211 26.7931
3134 1 3.65302 65.7465 25.5033
9204 2 5.46966 65.7211 26.7931
2812 1 6.37675 67.3108 25.5357
2859 1 9.10926 65.7465 25.5033
8878 2 8.19302 67.2849 26.8258
2541 1 11.833 67.3108 25.5357
8877 2 10.9259 65.7211 26.7931
2540 1 14.5655 65.7465 25.5033
8614 2 13.6493 67.2849 26.8258
2299 1 17.2892 67.3108 25.5357
8643 2 16.3821 65.7211 26.7931
2323 1 20.0217 65.7465 25.5033
8453 2 19.1055 67.2849 26.8258
3096 1 0.912411 70.4423 25.5988
9155 2 2.72836 70.4166 26.8886
9491 2 0.00424323 68.85 26.8577
3137 1 3.64444 68.876 25.5677
9154 2 5.46048 68.85 26.8577
2810 1 9.10068 68.876 25.5677
2811 1 6.36865 70.4423 25.5988
8839 2 8.18459 70.4166 26.8886
2506 1 11.8249 70.4423 25.5988
8880 2 10.9167 68.85 26.8577
2543 1 14.5569 68.876 25.5677
8613 2 13.6408 70.4166 26.8886
2298 1 17.2811 70.4423 25.5988
8612 2 16.373 68.85 26.8577
2297 1 20.0132 68.876 25.5677
8438 2 19.0971 70.4166 26.8886
3095 1 0.905593 73.5791 25.6579
9116 2 2.72167 73.5545 26.9471
9458 2 -0.0033292 71.9848 26.9184
3094 1 3.63694 72.01 25.6289
9157 2 5.45291 71.9848 26.9184
2767 1 6.36183 73.5791 25.6579
2813 1 9.09318 72.01 25.6289
8838 2 8.17791 73.5545 26.9471
2505 1 11.8181 73.5791 25.6579
8837 2 10.9091 71.9848 26.9184
2504 1 14.5494 72.01 25.6289
8586 2 13.6341 73.5545 26.9471
2275 1 17.2743 73.5791 25.6579
8615 2 16.3654 71.9848 26.9184
2300 1 20.0057 72.01 25.6289
8437 2 19.0904 73.5545 26.9471
9459 2 -0.00913577 75.1258 26.9746
3064 1 0.900233 76.7214 25.7128
9115 2 2.71669 76.6985 27.0011
3097 1 3.63085 75.1496 25.6858
9114 2 5.4471 75.1258 26.9746
2765 1 9.08709 75.1496 25.6858
2766 1 6.35647 76.7214 25.7128
8800 2 8.17293 76.6985 27.0011
8840 2 10.9033 75.1258 26.9746
2470 1 11.8127 76.7214 25.7128
2507 1 14.5433 75.1496 25.6858
8585 2 13.6292 76.6985 27.0011
8584 2 16.3596 75.1258 26.9746
2274 1 17.2689 76.7214 25.7128
2273 1 19.9996 75.1496 25.6858
8422 2 19.0854 76.6985 27.0011
9434 2 -0.0133612 78.2726 27.0266
3063 1 0.896219 79.8688 25.7637
9084 2 2.71314 79.8479 27.0511
3062 1 3.62619 78.2945 25.7387
9117 2 5.44288 78.2726 27.0266
2768 1 9.08243 78.2945 25.7387
2729 1 6.35246 79.8688 25.7637
8799 2 8.16938 79.8479 27.0511
8798 2 10.8991 78.2726 27.0266
2469 1 11.8087 79.8688 25.7637
2468 1 14.5387 78.2945 25.7387
8558 2 13.6256 79.8479 27.0511
8587 2 16.3554 78.2726 27.0266
2251 1 17.2649 79.8688 25.7637
2276 1 19.9949 78.2945 25.7387
8421 2 19.0819 79.8479 27.0511
3065 1 3.62276 81.4443 25.7878
9082 2 5.43992 81.4242 27.0748
2727 1 9.079 81.4443 25.7878
8801 2 10.8962 81.4242 27.0748
2471 1 14.5352 81.4443 25.7878
8556 2 16.3524 81.4242 27.0748
9435 2 21.8086 81.4242 27.0748
2249 1 19.9915 81.4443 25.7878
3040 1 0.893312 83.0207 25.811
9083 2 2.71069 83.0016 27.0976
3038 1 3.62031 84.5979 25.8334
9085 2 5.4379 84.5798 27.1196
2728 1 6.34955 83.0207 25.811
2730 1 9.07655 84.5979 25.8334
8768 2 8.16693 83.0016 27.0976
2435 1 11.8058 83.0207 25.811
8766 2 10.8941 84.5798 27.1196
2433 1 14.5328 84.5979 25.8334
8557 2 13.6232 83.0016 27.0976
2250 1 17.262 83.0207 25.811
8559 2 16.3504 84.5798 27.1196
9418 2 21.8066 84.5798 27.1196
2252 1 19.989 84.5979 25.8334
8406 2 19.0794 83.0016 27.0976
3039 1 0.891258 86.176 25.8549
9060 2 2.70905 86.1589 27.1408
3041 1 3.6186 87.7548 25.8757
9058 2 5.43658 87.7386 27.1612
2697 1 9.07484 87.7548 25.8757
2699 1 6.3475 86.176 25.8549
8767 2 8.16529 86.1589 27.1408
2434 1 11.8037 86.176 25.8549
8769 2 10.8928 87.7386 27.1612
2436 1 14.5311 87.7548 25.8757
8531 2 13.6215 86.1589 27.1408
2227 1 17.26 86.176 25.8549
8529 2 16.3491 87.7386 27.1612
9419 2 21.8053 87.7386 27.1612
2225 1 19.9873 87.7548 25.8757
8405 2 19.0778 86.1589 27.1408
9421 2 1.79985 90.9284 24.6266
3024 1 0.889831 89.3343 25.8957
9059 2 2.70798 89.3189 27.1809
3022 1 3.61742 90.9143 25.9149
9061 2 5.43573 90.8998 27.1998
9062 2 7.25609 90.9284 24.6266
2698 1 6.34607 89.3343 25.8957
2700 1 9.07365 90.9143 25.9149
8744 2 8.16422 89.3189 27.1809
2407 1 11.8023 89.3343 25.8957
8742 2 10.892 90.8998 27.1998
8773 2 12.7123 90.9284 24.6266
2405 1 14.5299 90.9143 25.9149
8530 2 13.6205 89.3189 27.1809
8533 2 18.1686 90.9284 24.6266
2226 1 17.2585 89.3343 25.8957
8532 2 16.3482 90.8998 27.1998
9410 2 21.8044 90.8998 27.1998
2228 1 19.9861 90.9143 25.9149
8390 2 19.0767 89.3189 27.1809
9412 2 1.79876 94.0884 24.6632
3023 1 0.888855 92.4948 25.9333
9044 2 2.70732 92.4812 27.2179
9063 2 4.52738 92.5082 24.6453
3025 1 3.61661 94.0758 25.9509
9042 2 5.43521 94.063 27.2353
9065 2 7.25499 94.0884 24.6632
2675 1 9.07285 94.0758 25.9509
2677 1 6.34509 92.4948 25.9333
8743 2 8.16355 92.4812 27.2179
8748 2 9.98362 92.5082 24.6453
2406 1 11.8013 92.4948 25.9333
8745 2 10.8914 94.063 27.2353
8534 2 15.4399 92.5082 24.6453
8746 2 12.7112 94.0884 24.6632
2408 1 14.5291 94.0758 25.9509
8511 2 13.6198 92.4812 27.2179
8536 2 18.1675 94.0884 24.6632
2204 1 17.2576 92.4948 25.9333
8509 2 16.3477 94.063 27.2353
8392 2 20.8961 92.5082 24.6453
9411 2 21.8039 94.063 27.2353
2202 1 19.9853 94.0758 25.9509
8389 2 19.076 92.4812 27.2179
9413 2 1.79796 97.2499 24.6965
3016 1 0.888194 95.6571 25.9678
9043 2 2.70692 95.6452 27.2519
9048 2 4.52644 95.669 24.6803
3014 1 3.61607 97.2388 25.9838
9045 2 5.43491 97.2277 27.2677
9046 2 7.2542 97.2499 24.6965
2676 1 6.34443 95.6571 25.9678
2678 1 9.07231 97.2388 25.9838
8728 2 8.16315 95.6452 27.2519
8747 2 9.98268 95.669 24.6803
2387 1 11.8007 95.6571 25.9678
8726 2 10.8911 97.2277 27.2677
8515 2 15.4389 95.669 24.6803
8749 2 12.7104 97.2499 24.6965
2385 1 14.5285 97.2388 25.9838
8510 2 13.6194 95.6452 27.2519
8513 2 18.1667 97.2499 24.6965
2203 1 17.2569 95.6571 25.9678
8512 2 16.3474 97.2277 27.2677
8391 2 20.8952 95.669 24.6803
9409 2 21.8036 97.2277 27.2677
2205 1 19.9848 97.2388 25.9838
8375 2 19.0756 95.6452 27.2519
11799 2 1.79738 100.413 24.7264
3015 1 0.887753 98.8209 25.999
9033 2 2.70669 98.8105 27.2827
9047 2 4.52576 98.8312 24.7119
5320 1 3.61571 100.403 26.0133
11465 2 5.43475 100.394 27.2969
11504 2 7.25362 100.413 24.7264
2660 1 6.34399 98.8209 25.999
8727 2 8.16293 98.8105 27.2827
4977 1 9.07195 100.403 26.0133
8729 2 9.982 98.8312 24.7119
2386 1 11.8002 98.8209 25.999
11152 2 10.891 100.394 27.2969
8514 2 15.4382 98.8312 24.7119
11153 2 12.7099 100.413 24.7264
8496 2 13.6192 98.8105 27.2827
4664 1 14.5282 100.403 26.0133
10872 2 18.1661 100.413 24.7264
2185 1 17.2565 98.8209 25.999
10857 2 16.3472 100.394 27.2969
8376 2 20.8945 98.8312 24.7119
11798 2 21.8035 100.394 27.2969
8374 2 19.0754 98.8105 27.2827
4393 1 19.9844 100.403 26.0133
9246 2 0.990599 51.6514 29.1537
2894 1 4.62282 51.6575 27.8659
8946 2 6.44684 51.6514 29.1537
2594 1 10.0791 51.6575 27.8659
8662 2 11.9031 51.6514 29.1537
2334 1 15.5353 51.6575 27.8659
8474 2 17.3593 51.6514 29.1537
2160 1 20.9915 51.6575 27.8659
3227 1 1.88707 53.2154 27.8723
9245 2 0.971623 54.7607 29.1683
2893 1 4.60648 54.7751 27.8829
9244 2 3.71003 53.205 29.1584
2892 1 7.34331 53.2154 27.8723
8914 2 6.42786 54.7607 29.1683
8947 2 9.16627 53.205 29.1584
2570 1 10.0627 54.7751 27.8829
8661 2 11.8841 54.7607 29.1683
2333 1 15.519 54.7751 27.8829
2595 1 12.7995 53.2154 27.8723
8660 2 14.6225 53.205 29.1584
2332 1 18.2558 53.2154 27.8723
8466 2 17.3403 54.7607 29.1683
2159 1 20.9752 54.7751 27.8829
8475 2 20.0787 53.205 29.1584
3179 1 1.86931 56.336 27.8994
9199 2 0.951792 57.8757 29.2066
2854 1 4.58904 57.8977 27.9214
9247 2 3.68952 56.3179 29.1842
2895 1 7.32555 56.336 27.8994
8912 2 9.14576 56.3179 29.1842
8913 2 6.40803 57.8757 29.2066
2569 1 10.0453 57.8977 27.9214
8638 2 11.8643 57.8757 29.2066
2318 1 15.5015 57.8977 27.9214
2568 1 12.7818 56.336 27.8994
8663 2 14.602 56.3179 29.1842
2335 1 18.238 56.336 27.8994
8465 2 17.3205 57.8757 29.2066
2158 1 20.9578 57.8977 27.9214
8464 2 20.0582 56.3179 29.1842
3180 1 1.8534 59.459 27.9488
9198 2 0.935765 60.9911 29.2676
2853 1 4.57479 61.0197 27.9802
9197 2 3.67147 59.4335 29.2349
2852 1 7.30964 59.459 27.9488
8875 2 6.392 60.9911 29.2676
8915 2 9.1277 59.4335 29.2349
2538 1 10.031 61.0197 27.9802
8637 2 11.8482 60.9911 29.2676
2317 1 15.4873 61.0197 27.9802
2571 1 12.7659 59.459 27.9488
8636 2 14.5839 59.4335 29.2349
2316 1 18.2221 59.459 27.9488
8451 2 17.3045 60.9911 29.2676
2151 1 20.9435 61.0197 27.9802
8467 2 20.0402 59.4335 29.2349
3132 1 1.84058 62.5798 28.0144
9152 2 0.92253 64.1076 29.3389
2808 1 4.563 64.1398 28.0496
9200 2 3.65704 62.5489 29.3029
2855 1 7.29682 62.5798 28.0144
8873 2 9.11328 62.5489 29.3029
8874 2 6.37877 64.1076 29.3389
2537 1 10.0192 64.1398 28.0496
8610 2 11.835 64.1076 29.3389
2295 1 15.4755 64.1398 28.0496
2536 1 12.7531 62.5798 28.0144
8639 2 14.5695 62.5489 29.3029
2319 1 18.2093 62.5798 28.0144
8450 2 17.2912 64.1076 29.3389
2150 1 20.9317 64.1398 28.0496
8449 2 20.0258 62.5489 29.3029
3133 1 1.82946 65.7005 28.0845
9151 2 0.911359 67.2306 29.4081
2807 1 4.5525 67.2627 28.1184
9150 2 3.64477 65.6681 29.3742
2806 1 7.2857 65.7005 28.0845
8835 2 6.3676 67.2306 29.4081
8876 2 9.10101 65.6681 29.3742
2502 1 10.0087 67.2627 28.1184
8609 2 11.8238 67.2306 29.4081
2294 1 15.465 67.2627 28.1184
2539 1 12.7419 65.7005 28.0845
8608 2 14.5572 65.6681 29.3742
2293 1 18.1982 65.7005 28.0845
8435 2 17.2801 67.2306 29.4081
2139 1 20.9212 67.2627 28.1184
8452 2 20.0135 65.6681 29.3742
3092 1 1.81975 68.8267 28.151
9112 2 0.902773 70.3624 29.4712
2763 1 4.54375 70.3928 28.182
9153 2 3.63485 68.7953 29.4405
2809 1 7.27599 68.8267 28.151
8833 2 9.09109 68.7953 29.4405
8834 2 6.35901 70.3624 29.4712
2501 1 9.99999 70.3928 28.182
8582 2 11.8153 70.3624 29.4712
2271 1 15.4562 70.3928 28.182
2500 1 12.7322 68.8267 28.151
8611 2 14.5473 68.7953 29.4405
2296 1 18.1885 68.8267 28.151
8434 2 17.2715 70.3624 29.4712
2138 1 20.9125 70.3928 28.182
8433 2 20.0036 68.7953 29.4405
3093 1 1.81205 71.9608 28.2117
9111 2 0.896744 73.5029 29.5282
2762 1 4.53713 73.5308 28.24
9110 2 3.62758 71.9317 29.5004
2761 1 7.26829 71.9608 28.2117
8796 2 6.35298 73.5029 29.5282
8836 2 9.08382 71.9317 29.5004
2466 1 9.99336 73.5308 28.24
8581 2 11.8092 73.5029 29.5282
2270 1 15.4496 73.5308 28.24
2503 1 12.7245 71.9608 28.2117
8580 2 14.5401 71.9317 29.5004
2269 1 18.1808 71.9608 28.2117
8419 2 17.2655 73.5029 29.5282
2127 1 20.9058 73.5308 28.24
8436 2 19.9963 71.9317 29.5004
3060 1 1.80646 75.1025 28.267
9080 2 0.892767 76.6507 29.5802
9113 2 3.62265 75.076 29.5547
2725 1 4.53247 76.6759 28.293
2764 1 7.26269 75.1025 28.267
8794 2 9.07889 75.076 29.5547
8795 2 6.34901 76.6507 29.5802
2465 1 9.9887 76.6759 28.293
8554 2 11.8052 76.6507 29.5802
2464 1 12.7189 75.1025 28.267
8583 2 14.5351 75.076 29.5547
2247 1 15.4449 76.6759 28.293
2272 1 18.1752 75.1025 28.267
8418 2 17.2615 76.6507 29.5802
8417 2 19.9914 75.076 29.5547
2126 1 20.9012 76.6759 28.293
3061 1 1.80263 78.2507 28.3179
9079 2 0.890285 79.8042 29.6282
9078 2 3.61949 78.2268 29.6047
2724 1 4.52936 79.8269 28.3419
2723 1 7.25886 78.2507 28.3179
8797 2 9.07573 78.2268 29.6047
8764 2 6.34652 79.8042 29.6282
2431 1 9.98559 79.8269 28.3419
8553 2 11.8028 79.8042 29.6282
2467 1 12.7151 78.2507 28.3179
8552 2 14.532 78.2268 29.6047
2246 1 15.4418 79.8269 28.3419
2245 1 18.1713 78.2507 28.3179
8403 2 17.259 79.8042 29.6282
8420 2 19.9882 78.2268 29.6047
2115 1 20.8981 79.8269 28.3419
3036 1 1.80013 81.4041 28.365
9081 2 3.61758 81.3827 29.651
2726 1 7.25637 81.4041 28.365
8762 2 9.07381 81.3827 29.651
2429 1 12.7126 81.4041 28.365
8555 2 14.5301 81.3827 29.651
2248 1 18.1688 81.4041 28.365
8401 2 19.9863 81.3827 29.651
3037 1 1.79858 84.5615 28.4088
9056 2 0.888839 82.9622 29.6729
2695 1 4.52737 82.9824 28.3873
9054 2 3.61651 84.5424 29.6941
2693 1 7.25481 84.5615 28.4088
8763 2 6.34508 82.9622 29.6729
8765 2 9.07275 84.5424 29.6941
2430 1 9.98361 82.9824 28.3873
8527 2 11.8013 82.9622 29.6729
2223 1 15.4399 82.9824 28.3873
2432 1 12.7111 84.5615 28.4088
8525 2 14.529 84.5424 29.6941
2221 1 18.1673 84.5615 28.4088
8402 2 17.2576 82.9622 29.6729
2114 1 20.8961 82.9824 28.3873
8404 2 19.9852 84.5424 29.6941
3020 1 1.79767 87.7221 28.4497
9055 2 0.888086 86.1235 29.7145
2694 1 4.52618 86.1415 28.4296
9057 2 3.61601 87.7051 29.7343
2696 1 7.25391 87.7221 28.4497
8738 2 9.07225 87.7051 29.7343
8740 2 6.34432 86.1235 29.7145
2403 1 9.98242 86.1415 28.4296
8526 2 11.8006 86.1235 29.7145
2222 1 15.4387 86.1415 28.4296
2401 1 12.7101 87.7221 28.4497
8528 2 14.5285 87.7051 29.7343
2224 1 18.1664 87.7221 28.4497
8387 2 17.2568 86.1235 29.7145
2103 1 20.8949 86.1415 28.4296
8385 2 19.9847 87.7051 29.7343
3021 1 1.7972 90.8851 28.4876
9040 2 0.887784 89.2874 29.7533
2673 1 4.52551 89.3033 28.469
9038 2 3.61587 90.8701 29.7717
2671 1 7.25344 90.8851 28.4876
8739 2 6.34402 89.2874 29.7533
8741 2 9.0721 90.8701 29.7717
2402 1 9.98175 89.3033 28.469
8507 2 11.8003 89.2874 29.7533
2200 1 15.438 89.3033 28.469
2404 1 12.7097 90.8851 28.4876
8505 2 14.5283 90.8701 29.7717
2198 1 18.1659 90.8851 28.4876
8386 2 17.2565 89.2874 29.7533
2102 1 20.8942 89.3033 28.469
8388 2 19.9846 90.8701 29.7717
3012 1 1.797 94.05 28.5225
9039 2 0.887764 92.4533 29.7893
2672 1 4.52519 92.4674 28.5054
9041 2 3.61594 94.0369 29.8062
2674 1 7.25324 94.05 28.5225
8722 2 9.07218 94.0369 29.8062
8724 2 6.344 92.4533 29.7893
2383 1 9.98143 92.4674 28.5054
8506 2 11.8002 92.4533 29.7893
2199 1 15.4377 92.4674 28.5054
2381 1 12.7095 94.05 28.5225
8508 2 14.5284 94.0369 29.8062
2201 1 18.1657 94.05 28.5225
8372 2 17.2565 92.4533 29.7893
2091 1 20.8939 92.4674 28.5054
8370 2 19.9847 94.0369 29.8062
3013 1 1.79698 97.2164 28.5545
9032 2 0.887907 95.6208 29.8224
2659 1 4.52509 95.633 28.5389
9030 2 3.61613 97.205 29.8378
2657 1 7.25322 97.2164 28.5545
8723 2 6.34415 95.6208 29.8224
8725 2 9.07237 97.205 29.8378
2382 1 9.98133 95.633 28.5389
8495 2 11.8004 95.6208 29.8224
2184 1 15.4376 95.633 28.5389
2384 1 12.7095 97.2164 28.5545
8493 2 14.5286 97.205 29.8378
2182 1 18.1657 97.2164 28.5545
8371 2 17.2566 95.6208 29.8224
2090 1 20.8938 95.633 28.5389
8373 2 19.9848 97.205 29.8378
9031 2 0.888137 98.7895 29.8524
5274 1 1.79705 100.384 28.5833
2658 1 4.52512 98.8 28.5693
11464 2 3.61639 100.374 29.8663
8713 2 6.34438 98.7895 29.8524
4976 1 7.25328 100.384 28.5833
11121 2 9.07262 100.374 29.8663
2368 1 9.98136 98.8 28.5693
8494 2 11.8006 98.7895 29.8524
2183 1 15.4376 98.8 28.5693
4641 1 12.7095 100.384 28.5833
10856 2 14.5289 100.374 29.8663
8361 2 17.2569 98.7895 29.8524
4392 1 18.1658 100.384 28.5833
2079 1 20.8938 98.8 28.5693
10649 2 19.9851 100.374 29.8663
2890 1 2.81956 51.642 30.438
2846 1 1.02361 51.6311 33.0272
8910 2 4.64358 51.6384 31.7256
2566 1 8.2758 51.642 30.438
2562 1 6.47985 51.6311 33.0272
8658 2 10.0998 51.6384 31.7256
2310 1 11.9361 51.6311 33.0272
2330 1 13.732 51.642 30.438
8462 2 15.5561 51.6384 31.7256
2154 1 17.3923 51.6311 33.0272
2157 1 19.1883 51.642 30.438
8352 2 21.0123 51.6384 31.7256
2850 1 2.79481 54.7468 30.4465
9243 2 1.90193 53.1823 31.7214
3177 1 0.0788832 53.1923 30.4391
2845 1 0.980245 54.7068 33.0127
2891 1 5.53512 53.1923 30.4391
8909 2 4.61455 54.7298 31.7272
2844 1 3.7303 53.1647 33.0192
2565 1 8.25105 54.7468 30.4465
8908 2 7.35817 53.1823 31.7214
2530 1 6.43648 54.7068 33.0127
2563 1 9.18654 53.1647 33.0192
2564 1 10.9914 53.1923 30.4391
8634 2 10.0708 54.7298 31.7272
2309 1 11.8927 54.7068 33.0127
2314 1 13.7073 54.7468 30.4465
8461 2 15.527 54.7298 31.7272
8659 2 12.8144 53.1823 31.7214
2308 1 14.6428 53.1647 33.0192
2331 1 16.4476 53.1923 30.4391
8460 2 18.2706 53.1823 31.7214
2146 1 17.349 54.7068 33.0127
2156 1 19.1635 54.7468 30.4465
8351 2 20.9833 54.7298 31.7272
2155 1 20.099 53.1647 33.0192
2849 1 2.76944 57.8602 30.4873
3178 1 0.0527097 56.3032 30.4623
9195 2 1.87132 56.2794 31.7414
2800 1 0.943328 57.8062 33.0605
2848 1 5.50895 56.3032 30.4623
8871 2 4.58685 57.8296 31.7673
2847 1 3.68727 56.2577 33.0318
2534 1 8.22568 57.8602 30.4873
8911 2 7.32756 56.2794 31.7414
2529 1 6.39957 57.8062 33.0605
2528 1 9.1435 56.2577 33.0318
2567 1 10.9652 56.3032 30.4623
8633 2 10.0431 57.8296 31.7673
2287 1 11.8558 57.8062 33.0605
2313 1 13.6819 57.8602 30.4873
8447 2 15.4993 57.8296 31.7673
8632 2 12.7838 56.2794 31.7414
2311 1 14.5997 56.2577 33.0318
2312 1 16.4214 56.3032 30.4623
8463 2 18.24 56.2794 31.7414
2145 1 17.312 57.8062 33.0605
2149 1 19.1382 57.8602 30.4873
8350 2 20.9556 57.8296 31.7673
2144 1 20.056 56.2577 33.0318
2804 1 2.7514 60.971 30.5567
3130 1 0.0312928 59.4163 30.5194
9196 2 1.84761 59.3802 31.8011
2799 1 0.923799 60.8958 33.1461
2851 1 5.48753 59.4163 30.5194
8870 2 4.56659 60.9307 31.8411
2798 1 3.66036 59.3519 33.1016
2533 1 8.20764 60.971 30.5567
8869 2 7.30385 59.3802 31.8011
2494 1 6.38004 60.8958 33.1461
2531 1 9.1166 59.3519 33.1016
2532 1 10.9438 59.4163 30.5194
8606 2 10.0228 60.9307 31.8411
2286 1 11.8363 60.8958 33.1461
2291 1 13.6639 60.971 30.5567
8446 2 15.4791 60.9307 31.8411
8635 2 12.7601 59.3802 31.8011
2285 1 14.5728 59.3519 33.1016
2315 1 16.4 59.4163 30.5194
8445 2 18.2163 59.3802 31.8011
2134 1 17.2925 60.8958 33.1461
2148 1 19.1201 60.971 30.5567
8347 2 20.9353 60.9307 31.8411
2147 1 20.0291 59.3519 33.1016
2803 1 2.73739 64.0808 30.634
3131 1 0.0160685 62.5251 30.5959
9148 2 1.8302 62.4834 31.8819
2755 1 0.907693 63.9973 33.2253
2802 1 5.47231 62.5251 30.5959
8831 2 4.55109 64.0393 31.9211
2801 1 3.64325 62.4439 33.1872
2498 1 8.19363 64.0808 30.634
8872 2 7.28644 62.4834 31.8819
2492 1 9.09949 62.4439 33.1872
2493 1 6.36393 63.9973 33.2253
2535 1 10.9285 62.5251 30.5959
8605 2 10.0073 64.0393 31.9211
2263 1 11.8202 63.9973 33.2253
2290 1 13.6499 64.0808 30.634
8431 2 15.4636 64.0393 31.9211
8604 2 12.7427 62.4834 31.8819
2288 1 14.5557 62.4439 33.1872
2289 1 16.3848 62.5251 30.5959
8448 2 18.1989 62.4834 31.8819
2133 1 17.2764 63.9973 33.2253
2137 1 19.1061 64.0808 30.634
8346 2 20.9198 64.0393 31.9211
2132 1 20.012 62.4439 33.1872
2759 1 2.72571 67.2005 30.7043
3090 1 0.00308847 65.639 30.6703
9149 2 1.81672 65.5987 31.9578
2805 1 5.45933 65.639 30.6703
8830 2 4.53965 67.1618 31.9919
2753 1 3.62945 65.5566 33.2598
2497 1 8.18195 67.2005 30.7043
8829 2 7.27295 65.5987 31.9578
2495 1 9.08569 65.5566 33.2598
2496 1 10.9156 65.639 30.6703
8578 2 9.99589 67.1618 31.9919
2267 1 13.6382 67.2005 30.7043
8430 2 15.4521 67.1618 31.9919
8607 2 12.7292 65.5987 31.9578
2261 1 14.5419 65.5566 33.2598
2292 1 16.3718 65.639 30.6703
8429 2 18.1854 65.5987 31.9578
2136 1 19.0944 67.2005 30.7043
8343 2 20.9084 67.1618 31.9919
2135 1 19.9982 65.5566 33.2598
2758 1 2.71718 70.3325 30.7661
3091 1 -0.00708225 68.765 30.7361
9108 2 1.80735 68.7283 32.0236
2757 1 5.44916 68.765 30.7361
8792 2 4.53218 70.2977 32.0533
2462 1 8.17342 70.3325 30.7661
8832 2 7.26358 68.7283 32.0236
2499 1 10.9054 68.765 30.7361
8577 2 9.98841 70.2977 32.0533
2266 1 13.6297 70.3325 30.7661
8415 2 15.4447 70.2977 32.0533
8576 2 12.7198 68.7283 32.0236
2265 1 16.3616 68.765 30.7361
8432 2 18.1761 68.7283 32.0236
2125 1 19.0859 70.3325 30.7661
8342 2 20.9009 70.2977 32.0533
2721 1 2.71163 73.4749 30.8214
3058 1 -0.0140427 71.9025 30.7945
9109 2 1.80152 71.8697 32.0812
2760 1 5.4422 71.9025 30.7945
8791 2 4.52773 73.444 32.1078
2461 1 8.16787 73.4749 30.8214
8790 2 7.25776 71.8697 32.0812
2460 1 10.8984 71.9025 30.7945
8550 2 9.98397 73.444 32.1078
2243 1 13.6241 73.4749 30.8214
8579 2 12.714 71.8697 32.0812
8414 2 15.4402 73.444 32.1078
2268 1 16.3547 71.9025 30.7945
8413 2 18.1702 71.8697 32.0812
2124 1 19.0803 73.4749 30.8214
8339 2 20.8964 73.444 32.1078
3059 1 -0.0183791 75.0492 30.8471
9076 2 1.7982 75.0201 32.1331
2720 1 2.70831 76.6251 30.8718
2719 1 5.43786 75.0492 30.8471
8760 2 4.52531 76.5979 32.1574
8793 2 7.25444 75.0201 32.1331
2427 1 8.16455 76.6251 30.8718
2463 1 10.8941 75.0492 30.8471
8549 2 9.98155 76.5979 32.1574
8548 2 12.7107 75.0201 32.1331
2242 1 13.6208 76.6251 30.8718
8399 2 15.4378 76.5979 32.1574
2241 1 16.3503 75.0492 30.8471
8416 2 18.1669 75.0201 32.1331
2113 1 19.077 76.6251 30.8718
8338 2 20.894 76.5979 32.1574
9077 2 1.79651 78.1769 32.1807
2691 1 2.70649 79.7812 30.9184
2722 1 5.43537 78.2026 30.8955
8759 2 4.52419 79.7572 32.2033
8758 2 7.25275 78.1769 32.1807
2426 1 8.16273 79.7812 30.9184
2425 1 10.8916 78.2026 30.8955
8523 2 9.98043 79.7572 32.2033
8551 2 12.709 78.1769 32.1807
2219 1 13.619 79.7812 30.9184
8398 2 15.4367 79.7572 32.2033
2244 1 16.3478 78.2026 30.8955
8397 2 18.1652 78.1769 32.1807
3034 1 21.8041 78.2026 30.8955
2112 1 19.0752 79.7812 30.9184
8335 2 20.8929 79.7572 32.2033
9052 2 1.79584 81.3383 32.2251
2690 1 2.70565 82.9416 30.9619
2689 1 5.43409 81.361 30.9405
8736 2 4.52389 82.9204 32.2462
8761 2 7.25208 81.3383 32.2251
2399 1 8.16189 82.9416 30.9619
2428 1 10.8903 81.361 30.9405
8522 2 9.98013 82.9204 32.2462
8521 2 12.7083 81.3383 32.2251
2218 1 13.6181 82.9416 30.9619
8383 2 15.4364 82.9204 32.2462
2217 1 16.3466 81.361 30.9405
8400 2 18.1646 81.3383 32.2251
3035 1 21.8028 81.361 30.9405
2101 1 19.0744 82.9416 30.9619
8334 2 20.8926 82.9204 32.2462
9053 2 1.79581 84.5031 32.2667
2692 1 5.43359 84.5231 30.9826
8734 2 7.25205 84.5031 32.2667
2397 1 10.8898 84.5231 30.9826
8524 2 12.7083 84.5031 32.2667
2220 1 16.3461 84.5231 30.9826
8381 2 18.1645 84.5031 32.2667
3018 1 21.8023 84.5231 30.9826
2669 1 2.70542 86.1052 31.0027
9036 2 1.79616 87.6704 32.3056
2667 1 5.43357 87.6879 31.022
8735 2 4.52407 86.0865 32.2865
2398 1 8.16165 86.1052 31.0027
8737 2 7.2524 87.6704 32.3056
2400 1 10.8898 87.6879 31.022
8503 2 9.98031 86.0865 32.2865
2196 1 13.6179 86.1052 31.0027
8382 2 15.4365 86.0865 32.2865
8501 2 12.7086 87.6704 32.3056
2194 1 16.346 87.6879 31.022
8384 2 18.1649 87.6704 32.3056
3019 1 21.8023 87.6879 31.022
2100 1 19.0741 86.1052 31.0027
8331 2 20.8928 86.0865 32.2865
2668 1 2.70555 89.2712 31.0408
9037 2 1.7967 90.8396 32.342
2670 1 5.43383 90.855 31.0588
8720 2 4.52453 89.2548 32.3242
2379 1 8.16179 89.2712 31.0408
8718 2 7.25294 90.8396 32.342
2377 1 10.8901 90.855 31.0588
8502 2 9.98077 89.2548 32.3242
2195 1 13.618 89.2712 31.0408
8368 2 15.437 89.2548 32.3242
8504 2 12.7092 90.8396 32.342
2197 1 16.3463 90.855 31.0588
8366 2 18.1654 90.8396 32.342
3010 1 21.8025 90.855 31.0588
2089 1 19.0743 89.2712 31.0408
8330 2 20.8932 89.2548 32.3242
2655 1 2.7059 92.4391 31.0761
9028 2 1.79734 94.0102 32.3757
2653 1 5.43424 94.0236 31.0928
8719 2 4.52514 92.4247 32.3592
2378 1 8.16214 92.4391 31.0761
8721 2 7.25358 94.0102 32.3757
2380 1 10.8905 94.0236 31.0928
8491 2 9.98137 92.4247 32.3592
2180 1 13.6184 92.4391 31.0761
8367 2 15.4376 92.4247 32.3592
8489 2 12.7098 94.0102 32.3757
2178 1 16.3467 94.0236 31.0928
8369 2 18.1661 94.0102 32.3757
3011 1 21.803 94.0236 31.0928
2088 1 19.0746 92.4391 31.0761
8327 2 20.8939 92.4247 32.3592
2654 1 2.70635 95.6084 31.1087
9029 2 1.798 97.1819 32.4066
2656 1 5.4347 97.1935 31.124
8712 2 4.52579 95.5959 32.3915
2367 1 8.16259 95.6084 31.1087
8710 2 7.25424 97.1819 32.4066
2365 1 10.8909 97.1935 31.124
8490 2 9.98203 95.5959 32.3915
2179 1 13.6188 95.6084 31.1087
8360 2 15.4383 95.5959 32.3915
8492 2 12.7105 97.1819 32.4066
2181 1 16.3472 97.1935 31.124
8358 2 18.1667 97.1819 32.4066
3009 1 21.8034 97.1935 31.124
2078 1 19.0751 95.6084 31.1087
8326 2 20.8945 95.5959 32.3915
2646 1 2.70683 98.7789 31.1384
11418 2 1.79863 100.355 32.4346
8711 2 4.52644 98.7682 32.421
4937 1 5.43518 100.364 31.1522
2366 1 8.16306 98.7789 31.1384
11120 2 7.25487 100.355 32.4346
8484 2 9.98268 98.7682 32.421
4640 1 10.8914 100.364 31.1522
2169 1 13.6193 98.7789 31.1384
8359 2 15.4389 98.7682 32.421
10833 2 12.7111 100.355 32.4346
4377 1 16.3477 100.364 31.1522
10648 2 18.1673 100.355 32.4346
2077 1 19.0755 98.7789 31.1384
8323 2 20.8952 98.7682 32.421
5273 1 21.8039 100.364 31.1522
8906 2 2.84561 51.6318 34.3068
2526 1 4.68181 51.6307 35.6294
8630 2 8.30184 51.6318 34.3068
2306 1 10.1381 51.6307 35.6294
8458 2 13.7581 51.6318 34.3068
2142 1 15.5943 51.6307 35.6294
8349 2 19.2143 51.6318 34.3068
2064 1 21.0505 51.6307 35.6294
8867 2 2.79669 54.6936 34.2768
2843 1 1.93245 53.1697 35.6461
9193 2 0.0962487 53.1661 34.2906
8907 2 5.55249 53.1661 34.2906
2525 1 4.62911 54.6699 35.614
8629 2 8.25293 54.6936 34.2768
2524 1 7.38869 53.1697 35.6461
8628 2 11.0087 53.1661 34.2906
2283 1 10.0854 54.6699 35.614
8443 2 13.7092 54.6936 34.2768
2307 1 12.8449 53.1697 35.6461
2141 1 15.5416 54.6699 35.614
8459 2 16.465 53.1661 34.2906
2140 1 18.3012 53.1697 35.6461
8348 2 19.1654 54.6936 34.2768
2063 1 20.9978 54.6699 35.614
8866 2 2.75722 57.7633 34.3198
2796 1 1.83854 56.1645 35.6244
9194 2 0.0495483 56.2275 34.29
8865 2 5.50579 56.2275 34.29
2490 1 4.55667 57.7041 35.6659
8602 2 8.21346 57.7633 34.3198
2527 1 7.29478 56.1645 35.6244
8631 2 10.962 56.2275 34.29
2282 1 10.0129 57.7041 35.6659
8442 2 13.6697 57.7633 34.3198
2281 1 12.751 56.1645 35.6244
2130 1 15.4691 57.7041 35.6659
8441 2 16.4183 56.2275 34.29
2143 1 18.2073 56.1645 35.6244
8345 2 19.1259 57.7633 34.3198
2062 1 20.9254 57.7041 35.6659
8827 2 2.73478 60.8422 34.418
9146 2 0.0178432 59.3 34.3683
2797 1 1.82168 59.2217 35.7148
8868 2 5.47408 59.3 34.3683
2489 1 4.5397 60.7657 35.7521
8601 2 8.19102 60.8422 34.418
2488 1 7.27791 59.2217 35.7148
8600 2 10.9303 59.3 34.3683
2259 1 9.99594 60.7657 35.7521
8427 2 13.6473 60.8422 34.418
2284 1 12.7342 59.2217 35.7148
2129 1 15.4522 60.7657 35.7521
8444 2 16.3866 59.3 34.3683
2128 1 18.1904 59.2217 35.7148
8344 2 19.1035 60.8422 34.418
2061 1 20.9084 60.7657 35.7521
8826 2 2.71939 63.9477 34.5048
9147 2 -0.00187412 62.3913 34.464
2751 1 1.80545 62.3167 35.7885
8825 2 5.45436 62.3913 34.464
2454 1 4.52817 63.8796 35.8198
8574 2 8.17563 63.9477 34.5048
2491 1 7.26169 62.3167 35.7885
8603 2 10.9106 62.3913 34.464
2258 1 9.98441 63.8796 35.8198
8426 2 13.6319 63.9477 34.5048
2257 1 12.7179 62.3167 35.7885
2118 1 15.4406 63.8796 35.8198
8425 2 16.3668 62.3913 34.464
2131 1 18.1742 62.3167 35.7885
8341 2 19.0881 63.9477 34.5048
2060 1 20.8969 63.8796 35.8198
2754 1 0.896278 67.1209 33.2915
8788 2 2.71005 67.077 34.5742
9106 2 -0.0140887 65.5098 34.5413
2752 1 1.79594 65.4485 35.8487
8828 2 5.44215 65.5098 34.5413
2453 1 4.52123 67.0224 35.876
2458 1 6.35252 67.1209 33.2915
8573 2 8.16629 67.077 34.5742
2452 1 7.25218 65.4485 35.8487
2262 1 11.8088 67.1209 33.2915
8572 2 10.8984 65.5098 34.5413
2235 1 9.97747 67.0224 35.876
8411 2 13.6225 67.077 34.5742
2260 1 12.7084 65.4485 35.8487
2117 1 15.4337 67.0224 35.876
2122 1 17.265 67.1209 33.2915
8428 2 16.3546 65.5098 34.5413
2116 1 18.1647 65.4485 35.8487
8340 2 19.0788 67.077 34.5742
2059 1 20.8899 67.0224 35.876
2717 1 0.889558 70.2609 33.3489
8787 2 2.70524 70.2226 34.6324
9107 2 -0.020911 68.6482 34.6044
2713 1 1.79137 68.5994 35.9021
2756 1 3.62053 68.6892 33.3211
8786 2 5.43533 68.6482 34.6044
2419 1 4.5185 70.1788 35.9273
2456 1 9.07676 68.6892 33.3211
2457 1 6.3458 70.2609 33.3489
8546 2 8.16148 70.2226 34.6324
2455 1 7.24761 68.5994 35.9021
2239 1 11.802 70.2609 33.3489
8575 2 10.8916 68.6482 34.6044
2234 1 9.97474 70.1788 35.9273
2264 1 14.533 68.6892 33.3211
8410 2 13.6177 70.2226 34.6324
2233 1 12.7039 68.5994 35.9021
2106 1 15.431 70.1788 35.9273
2121 1 17.2583 70.2609 33.3489
8409 2 16.3478 68.6482 34.6044
2119 1 18.1601 68.5994 35.9021
2120 1 19.9892 68.6892 33.3211
8337 2 19.074 70.2226 34.6324
2058 1 20.8872 70.1788 35.9273
2716 1 0.886129 73.4117 33.4005
8756 2 2.70315 73.3785 34.684
2714 1 1.78996 71.7599 35.9516
2715 1 3.61564 71.8352 33.3753
8789 2 5.43207 71.7996 34.6589
2418 1 4.51804 73.3424 35.9751
2423 1 6.34237 73.4117 33.4005
2459 1 9.07188 71.8352 33.3753
8545 2 8.15939 73.3785 34.684
2417 1 7.2462 71.7599 35.9516
2238 1 11.7986 73.4117 33.4005
8544 2 10.8883 71.7996 34.6589
2211 1 9.97428 73.3424 35.9751
2237 1 14.5281 71.8352 33.3753
8395 2 13.6156 73.3785 34.684
2236 1 12.7024 71.7599 35.9516
2105 1 15.4305 73.3424 35.9751
2110 1 17.2548 73.4117 33.4005
8412 2 16.3445 71.7996 34.6589
2104 1 18.1587 71.7599 35.9516
2123 1 19.9844 71.8352 33.3753
9074 2 21.8008 71.7996 34.6589
8336 2 19.0719 73.3785 34.684
2057 1 20.8868 73.3424 35.9751
2687 1 0.884692 76.5696 33.448
2683 1 1.79016 74.9259 35.9979
8755 2 2.70262 76.5408 34.7312
2718 1 3.61334 74.9899 33.4246
8754 2 5.43086 74.959 34.7081
2391 1 4.51871 76.5104 36.0202
2421 1 9.06958 74.9899 33.4246
2422 1 6.34093 76.5696 33.448
2420 1 7.2464 74.9259 35.9979
8519 2 8.15885 76.5408 34.7312
2215 1 11.7972 76.5696 33.448
8547 2 10.8871 74.959 34.7081
2210 1 9.97495 76.5104 36.0202
2240 1 14.5258 74.9899 33.4246
2209 1 12.7026 74.9259 35.9979
8394 2 13.6151 76.5408 34.7312
2094 1 15.4312 76.5104 36.0202
2109 1 17.2534 76.5696 33.448
8393 2 16.3433 74.959 34.7081
2107 1 18.1589 74.9259 35.9979
2108 1 19.9821 74.9899 33.4246
9075 2 21.7996 74.959 34.7081
8333 2 19.0713 76.5408 34.7312
2056 1 20.8874 76.5104 36.0202
2686 1 0.884411 79.7324 33.4924
2684 1 1.79116 78.0955 36.0418
8732 2 2.70295 79.7073 34.7754
2685 1 3.61256 78.1505 33.4705
8757 2 5.43082 78.1236 34.7537
2424 1 9.0688 78.1505 33.4705
2395 1 6.34065 79.7324 33.4924
2389 1 7.2474 78.0955 36.0418
8518 2 8.15919 79.7073 34.7754
2214 1 11.7969 79.7324 33.4924
8517 2 10.8871 78.1236 34.7537
2213 1 14.525 78.1505 33.4705
2212 1 12.7036 78.0955 36.0418
8379 2 13.6154 79.7073 34.7754
2098 1 17.2531 79.7324 33.4924
8396 2 16.3433 78.1236 34.7537
2092 1 18.1599 78.0955 36.0418
9050 2 21.7995 78.1236 34.7537
2111 1 19.9813 78.1505 33.4705
8332 2 19.0717 79.7073 34.7754
2665 1 0.884787 82.8987 33.5342
8731 2 2.70376 82.8767 34.817
2688 1 3.61266 81.3152 33.5136
8730 2 5.43143 81.2917 34.7965
2393 1 9.0689 81.3152 33.5136
2394 1 6.34103 82.8987 33.5342
8499 2 8.16 82.8767 34.817
8520 2 10.8877 81.2917 34.7965
2192 1 11.7973 82.8987 33.5342
2216 1 14.5251 81.3152 33.5136
8378 2 13.6162 82.8767 34.817
8377 2 16.3439 81.2917 34.7965
2097 1 17.2535 82.8987 33.5342
2096 1 19.9814 81.3152 33.5136
9051 2 21.8001 81.2917 34.7965
8329 2 19.0725 82.8767 34.817
2663 1 3.61324 84.4828 33.5542
8733 2 5.43239 84.4623 34.8369
2396 1 9.06948 84.4828 33.5542
8497 2 10.8886 84.4623 34.8369
2190 1 14.5257 84.4828 33.5542
8380 2 16.3449 84.4623 34.8369
2099 1 19.982 84.4828 33.5542
9034 2 21.8011 84.4623 34.8369
2664 1 0.885518 86.0675 33.5737
8716 2 2.70481 86.0482 34.8562
2666 1 3.61408 87.6526 33.5925
8714 2 5.4335 87.6346 34.8749
2373 1 9.07031 87.6526 33.5925
2375 1 6.34176 86.0675 33.5737
8498 2 8.16105 86.0482 34.8562
2191 1 11.798 86.0675 33.5737
8500 2 10.8897 87.6346 34.8749
2193 1 14.5266 87.6526 33.5925
8364 2 13.6173 86.0482 34.8562
2086 1 17.2542 86.0675 33.5737
8362 2 16.346 87.6346 34.8749
9035 2 21.8022 87.6346 34.8749
2084 1 19.9828 87.6526 33.5925
8328 2 19.0735 86.0482 34.8562
8715 2 2.70596 89.2213 34.893
2651 1 0.886422 89.2381 33.6107
8717 2 5.43466 90.8082 34.9105
2649 1 3.61502 90.824 33.6283
8487 2 8.1622 89.2213 34.893
2376 1 9.07126 90.824 33.6283
2374 1 6.34266 89.2381 33.6107
8485 2 10.8909 90.8082 34.9105
2176 1 11.7989 89.2381 33.6107
8363 2 13.6184 89.2213 34.893
2174 1 14.5275 90.824 33.6283
8365 2 16.3471 90.8082 34.9105
2085 1 17.2551 89.2381 33.6107
9026 2 21.8034 90.8082 34.9105
8325 2 19.0747 89.2213 34.893
2087 1 19.9837 90.824 33.6283
8708 2 2.70711 92.3955 34.9274
2650 1 0.887381 92.4102 33.6453
8706 2 5.43579 93.983 34.9436
2652 1 3.61598 93.9966 33.6616
8486 2 8.16335 92.3955 34.9274
2363 1 6.34362 92.4102 33.6453
2361 1 9.07221 93.9966 33.6616
2175 1 11.7999 92.4102 33.6453
8488 2 10.892 93.983 34.9436
2177 1 14.5285 93.9966 33.6616
8356 2 13.6196 92.3955 34.9274
2075 1 17.2561 92.4102 33.6453
8354 2 16.3483 93.983 34.9436
9027 2 21.8045 93.983 34.9436
2073 1 19.9847 93.9966 33.6616
8324 2 19.0758 92.3955 34.9274
2645 1 0.888322 95.5833 33.6772
8707 2 2.70821 95.5706 34.9592
8709 2 5.43684 97.1585 34.9741
2643 1 3.61689 97.1703 33.6921
8483 2 8.16445 95.5706 34.9592
2364 1 9.07313 97.1703 33.6921
2362 1 6.34456 95.5833 33.6772
8481 2 10.8931 97.1585 34.9741
2168 1 11.8008 95.5833 33.6772
8355 2 13.6207 95.5706 34.9592
2166 1 14.5294 97.1703 33.6921
8357 2 16.3493 97.1585 34.9741
2074 1 17.257 95.5833 33.6772
8322 2 19.0769 95.5706 34.9592
2076 1 19.9856 97.1703 33.6921
9025 2 21.8056 97.1585 34.9741
8705 2 2.70922 98.7465 34.9882
2644 1 0.889202 98.7574 33.7064
4936 1 3.61773 100.345 33.7199
11081 2 5.4378 100.335 35.0016
8482 2 8.16545 98.7465 34.9882
2356 1 6.34544 98.7574 33.7064
4609 1 9.07397 100.345 33.7199
2167 1 11.8017 98.7574 33.7064
10832 2 10.894 100.335 35.0016
8353 2 13.6217 98.7465 34.9882
4376 1 14.5302 100.345 33.7199
2068 1 17.2579 98.7574 33.7064
10633 2 16.3503 100.335 35.0016
8321 2 19.0779 98.7465 34.9882
11417 2 21.8065 100.335 35.0016
4201 1 19.9864 100.345 33.7199
10494 2 1.08854 51.6458 36.885
16495 1 2.18157 53.5093 38.299
16494 1 4.90654 51.8095 38.2316
10463 2 6.54478 51.6458 36.885
16398 1 7.63781 53.5093 38.299
10430 2 12.001 51.6458 36.885
16400 1 10.3628 51.8095 38.2316
16207 1 13.094 53.5093 38.299
10399 2 17.4573 51.6458 36.885
16206 1 15.819 51.8095 38.2316
15920 1 18.5503 53.5093 38.299
16512 1 21.2753 51.8095 38.2316
10493 2 0.951816 54.675 36.8539
10492 2 3.766 53.1871 36.8577
16496 1 4.8948 55.3591 38.3721
10460 2 6.40805 54.675 36.8539
10464 2 9.22225 53.1871 36.8577
10429 2 11.8643 54.675 36.8539
16396 1 10.351 55.3591 38.3721
10428 2 14.6785 53.1871 36.8577
10396 2 17.3205 54.675 36.8539
16208 1 15.8073 55.3591 38.3721
16510 1 21.2635 55.3591 38.3721
10400 2 20.1347 53.1871 36.8577
16491 1 2.43277 57.0869 38.42
10490 2 0.923091 57.6462 36.8698
10495 2 3.64049 56.1556 36.8077
16489 1 5.35881 58.8958 38.3231
16397 1 7.88901 57.0869 38.42
10458 2 9.09673 56.1556 36.8077
10459 2 6.37933 57.6462 36.8698
10426 2 11.8356 57.6462 36.8698
16399 1 10.815 58.8958 38.3231
16203 1 13.3453 57.0869 38.42
10431 2 14.553 56.1556 36.8077
15919 1 18.8015 57.0869 38.42
10395 2 17.2918 57.6462 36.8698
16201 1 16.2713 58.8958 38.3231
16511 1 21.7275 58.8958 38.3231
10394 2 20.0092 56.1556 36.8077
16490 1 2.65828 60.502 38.3538
10489 2 0.897032 60.7092 36.9942
10488 2 3.63757 59.1731 36.9309
16492 1 5.40138 62.1163 38.3807
16390 1 8.11452 60.502 38.3538
10456 2 6.35327 60.7092 36.9942
10461 2 9.09381 59.1731 36.9309
10425 2 11.8095 60.7092 36.9942
16388 1 10.8576 62.1163 38.3807
16202 1 13.5708 60.502 38.3538
10424 2 14.55 59.1731 36.9309
15914 1 19.027 60.502 38.3538
10392 2 17.2657 60.7092 36.9942
16204 1 16.3139 62.1163 38.3807
16508 1 21.7701 62.1163 38.3807
10397 2 20.0063 59.1731 36.9309
16480 1 2.6813 63.7157 38.4025
10486 2 0.886288 63.8291 37.0831
10491 2 3.6195 62.2649 37.0421
16478 1 5.41495 65.313 38.426
16389 1 8.13754 63.7157 38.4025
10454 2 9.07574 62.2649 37.0421
10455 2 6.34253 63.8291 37.0831
10422 2 11.7988 63.8291 37.0831
16391 1 10.8712 65.313 38.426
16191 1 13.5938 63.7157 38.4025
10427 2 14.532 62.2649 37.0421
15913 1 19.05 63.7157 38.4025
10391 2 17.255 63.8291 37.0831
16189 1 16.3274 65.313 38.426
16509 1 21.7837 65.313 38.426
10390 2 19.9882 62.2649 37.0421
10485 2 0.881388 66.9772 37.1499
16479 1 2.68992 66.9061 38.45
10484 2 3.61134 65.4008 37.1184
10452 2 6.33763 66.9772 37.1499
10457 2 9.06758 65.4008 37.1184
16374 1 8.14616 66.9061 38.45
10421 2 11.7939 66.9772 37.1499
10420 2 14.5238 65.4008 37.1184
16190 1 13.6024 66.9061 38.45
10388 2 17.2501 66.9772 37.1499
15900 1 19.0586 66.9061 38.45
10393 2 19.9801 65.4008 37.1184
10482 2 0.880101 70.1392 37.2054
16468 1 2.69357 70.0887 38.4973
16481 1 5.42014 68.498 38.4738
10487 2 3.60856 68.557 37.1786
10450 2 9.0648 68.557 37.1786
10451 2 6.33634 70.1392 37.2054
16373 1 8.14981 70.0887 38.4973
16372 1 10.8764 68.498 38.4738
10418 2 11.7926 70.1392 37.2054
10423 2 14.521 68.557 37.1786
16171 1 13.6061 70.0887 38.4973
16192 1 16.3326 68.498 38.4738
10387 2 17.2488 70.1392 37.2054
16506 1 21.7889 68.498 38.4738
15899 1 19.0623 70.0887 38.4973
10386 2 19.9773 68.557 37.1786
10481 2 0.880512 73.3081 37.2549
16467 1 2.69621 73.269 38.5432
16466 1 5.42306 71.679 38.5205
10480 2 3.60829 71.723 37.2307
10448 2 6.33675 73.3081 37.2549
10453 2 9.06452 71.723 37.2307
16351 1 8.15245 73.269 38.5432
16375 1 10.8793 71.679 38.5205
10417 2 11.793 73.3081 37.2549
10416 2 14.5208 71.723 37.2307
16170 1 13.6087 73.269 38.5432
16169 1 16.3355 71.679 38.5205
10384 2 17.2492 73.3081 37.2549
16507 1 21.7918 71.679 38.5205
15878 1 19.0649 73.269 38.5432
10389 2 19.977 71.723 37.2307
16456 1 2.69869 76.4487 38.5873
10478 2 0.881724 76.4807 37.3007
16469 1 5.42558 74.8588 38.5655
10483 2 3.60917 74.8941 37.2781
10446 2 9.06541 74.8941 37.2781
16350 1 8.15493 76.4487 38.5873
10447 2 6.33796 76.4807 37.3007
16349 1 10.8818 74.8588 38.5655
10414 2 11.7942 76.4807 37.3007
10419 2 14.5216 74.8941 37.2781
16143 1 13.6112 76.4487 38.5873
16172 1 16.3381 74.8588 38.5655
10383 2 17.2504 76.4807 37.3007
16504 1 21.7943 74.8588 38.5655
15877 1 19.0674 76.4487 38.5873
10382 2 19.9779 74.8941 37.2781
16455 1 2.7011 79.6286 38.6294
10477 2 0.883309 79.6555 37.3438
10476 2 3.61061 78.0679 37.3225
16454 1 5.42803 78.0386 38.6086
2390 1 4.51994 79.6813 36.0629
10449 2 9.06684 78.0679 37.3225
16327 1 8.15734 79.6286 38.6294
10444 2 6.33955 79.6555 37.3438
16352 1 10.8843 78.0386 38.6086
10413 2 11.7958 79.6555 37.3438
2188 1 9.97618 79.6813 36.0629
10412 2 14.5231 78.0679 37.3225
16142 1 13.6136 79.6286 38.6294
2093 1 15.4324 79.6813 36.0629
16141 1 16.3405 78.0386 38.6086
10380 2 17.252 79.6555 37.3438
15848 1 19.0698 79.6286 38.6294
16505 1 21.7967 78.0386 38.6086
10385 2 19.9793 78.0679 37.3225
2055 1 20.8887 79.6813 36.0629
16444 1 2.70343 82.8087 38.6697
10474 2 0.885043 82.8318 37.3846
2661 1 1.79255 81.2675 36.0835
10479 2 3.61229 81.2435 37.3645
16457 1 5.4304 81.2186 38.6498
2371 1 4.52143 82.8542 36.1036
10442 2 9.06853 81.2435 37.3645
16326 1 8.15966 82.8087 38.6697
10443 2 6.34128 82.8318 37.3846
2392 1 7.24879 81.2675 36.0835
16325 1 10.8866 81.2186 38.6498
10410 2 11.7975 82.8318 37.3846
2187 1 9.97767 82.8542 36.1036
10415 2 14.5248 81.2435 37.3645
16108 1 13.6159 82.8087 38.6697
2186 1 12.705 81.2675 36.0835
2082 1 15.4339 82.8542 36.1036
16144 1 16.3429 81.2186 38.6498
10379 2 17.2538 82.8318 37.3846
2095 1 18.1613 81.2675 36.0835
15847 1 19.0721 82.8087 38.6697
16502 1 21.7991 81.2186 38.6498
10378 2 19.981 81.2435 37.3645
2054 1 20.8901 82.8542 36.1036
2662 1 1.7941 84.4413 36.1232
10472 2 3.61404 84.4203 37.4042
16442 1 5.43266 84.3989 38.6891
10445 2 9.07028 84.4203 37.4042
2369 1 7.25033 84.4413 36.1232
16328 1 10.8889 84.3989 38.6891
10408 2 14.5265 84.4203 37.4042
2189 1 12.7066 84.4413 36.1232
16106 1 16.3451 84.3989 38.6891
2080 1 18.1628 84.4413 36.1232
16503 1 21.8014 84.3989 38.6891
10381 2 19.9828 84.4203 37.4042
16443 1 2.70561 85.9891 38.708
10473 2 0.886795 86.0091 37.4233
2647 1 1.79567 87.6163 36.1607
10475 2 3.61577 87.598 37.4418
16445 1 5.43476 87.5794 38.7263
2370 1 4.523 86.0287 36.1422
16303 1 8.16185 85.9891 38.708
10438 2 9.07201 87.598 37.4418
10440 2 6.34303 86.0091 37.4233
2372 1 7.25191 87.6163 36.1607
10409 2 11.7993 86.0091 37.4233
16301 1 10.891 87.5794 38.7263
2172 1 9.97924 86.0287 36.1422
16107 1 13.6181 85.9891 38.708
10411 2 14.5282 87.598 37.4418
2170 1 12.7081 87.6163 36.1607
2081 1 15.4355 86.0287 36.1422
10376 2 17.2555 86.0091 37.4233
16109 1 16.3472 87.5794 38.7263
2083 1 18.1644 87.6163 36.1607
15810 1 19.0743 85.9891 38.708
16500 1 21.8035 87.5794 38.7263
10374 2 19.9845 87.598 37.4418
2053 1 20.8917 86.0287 36.1422
16432 1 2.70762 89.1698 38.7442
10470 2 0.888483 89.1871 37.4597
2648 1 1.79718 90.7924 36.1959
10468 2 3.61741 90.7764 37.4771
16430 1 5.43668 90.7603 38.7614
2359 1 4.52455 89.2042 36.1786
16302 1 8.16386 89.1698 38.7442
10439 2 6.34472 89.1871 37.4597
10441 2 9.07364 90.7764 37.4771
2357 1 7.25342 90.7924 36.1959
10406 2 11.801 89.1871 37.4597
16304 1 10.8929 90.7603 38.7614
2171 1 9.98079 89.2042 36.1786
16072 1 13.6201 89.1698 38.7442
10404 2 14.5299 90.7764 37.4771
2173 1 12.7097 90.7924 36.1959
2071 1 15.437 89.2042 36.1786
10375 2 17.2572 89.1871 37.4597
16070 1 16.3492 90.7603 38.7614
2069 1 18.1659 90.7924 36.1959
15809 1 19.0763 89.1698 38.7442
16501 1 21.8054 90.7603 38.7614
10377 2 19.9861 90.7764 37.4771
2052 1 20.8933 89.2042 36.1786
16431 1 2.70945 92.3508 38.778
10469 2 0.890059 92.3658 37.4938
2641 1 1.79859 93.9692 36.2287
10471 2 3.61891 93.9553 37.5099
16433 1 5.43841 93.9414 38.794
2358 1 4.52602 92.3807 36.2126
16279 1 8.16569 92.3508 38.778
10434 2 9.07515 93.9553 37.5099
10436 2 6.3463 92.3658 37.4938
2360 1 7.25483 93.9692 36.2287
10405 2 11.8025 92.3658 37.4938
16277 1 10.8947 93.9414 38.794
2164 1 9.98226 92.3807 36.2126
16071 1 13.6219 92.3508 38.778
10407 2 14.5314 93.9553 37.5099
2162 1 12.7111 93.9692 36.2287
2070 1 15.4385 92.3807 36.2126
10372 2 17.2588 92.3658 37.4938
16073 1 16.3509 93.9414 38.794
2072 1 18.1673 93.9692 36.2287
15765 1 19.0782 92.3508 38.778
16498 1 21.8071 93.9414 38.794
10370 2 19.9876 93.9553 37.5099
2051 1 20.8947 92.3807 36.2126
10467 2 0.891494 95.545 37.5253
16420 1 2.71108 95.532 38.8094
2642 1 1.79987 97.1467 36.2589
10465 2 3.62027 97.1347 37.54
16418 1 5.43995 97.1228 38.8241
2355 1 4.52737 95.5579 36.2441
10435 2 6.34773 95.545 37.5253
10437 2 9.07651 97.1347 37.54
16278 1 8.16732 95.532 38.8094
2353 1 7.25611 97.1467 36.2589
10403 2 11.804 95.545 37.5253
16280 1 10.8962 97.1228 38.8241
2163 1 9.98361 95.5579 36.2441
10401 2 14.5327 97.1347 37.54
16036 1 13.6236 95.532 38.8094
2067 1 15.4398 95.5579 36.2441
2165 1 12.7123 97.1467 36.2589
10371 2 17.2602 95.545 37.5253
16034 1 16.3524 97.1228 38.8241
2065 1 18.1686 97.1467 36.2589
16499 1 21.8087 97.1228 38.8241
10373 2 19.989 97.1347 37.54
15764 1 19.0798 95.532 38.8094
2050 1 20.8961 95.5579 36.2441
4890 1 1.801 100.325 36.2863
10466 2 0.892774 98.7246 37.554
16419 1 2.71252 98.7136 38.8381
12672 2 3.62147 100.315 37.5674
2354 1 4.52857 98.7356 36.2729
16421 1 5.44129 100.304 38.8514
4608 1 7.25724 100.325 36.2863
12638 2 9.07771 100.315 37.5674
10433 2 6.34901 98.7246 37.554
16256 1 8.16876 98.7136 38.8381
10402 2 11.8053 98.7246 37.554
16254 1 10.8975 100.304 38.8514
2161 1 9.98481 98.7356 36.2729
4353 1 12.7135 100.325 36.2863
12608 2 14.5339 100.315 37.5674
16035 1 13.625 98.7136 38.8381
2066 1 15.441 98.7356 36.2729
4200 1 18.1697 100.325 36.2863
10369 2 17.2615 98.7246 37.554
16037 1 16.3538 100.304 38.8514
12574 2 19.9902 100.315 37.5674
16497 1 21.81 100.304 38.8514
15719 1 19.0812 98.7136 38.8381
2049 1 20.8973 98.7356 36.2729
16487 1 0.759109 53.6546 40.619
22151 2 1.53511 51.8549 39.4432
16493 1 3.41574 51.9581 40.7091
22118 2 4.30549 53.5539 39.4026
16394 1 6.21535 53.6546 40.619
16393 1 8.87198 51.9581 40.7091
22120 2 6.99134 51.8549 39.4432
16199 1 11.6716 53.6546 40.619
21991 2 9.76173 53.5539 39.4026
21990 2 12.4476 51.8549 39.4432
16205 1 14.3282 51.9581 40.7091
21766 2 15.218 53.5539 39.4026
15917 1 17.1278 53.6546 40.619
21768 2 17.9038 51.8549 39.4432
15916 1 19.7845 51.9581 40.7091
21448 2 20.6742 53.5539 39.4026
22152 2 1.63255 55.352 39.3706
16485 1 3.55769 55.3724 40.5575
16395 1 9.01393 55.3724 40.5575
22116 2 7.08879 55.352 39.3706
21992 2 12.545 55.352 39.3706
16197 1 14.4702 55.3724 40.5575
21764 2 18.0013 55.352 39.3706
15918 1 19.9264 55.3724 40.5575
16486 1 0.824149 56.9655 40.6926
22148 2 1.77456 58.8586 39.5042
22117 2 4.46974 57.2234 39.4288
16386 1 6.28039 56.9655 40.6926
16488 1 3.53226 58.6317 40.8482
16384 1 8.9885 58.6317 40.8482
22119 2 7.23079 58.8586 39.5042
16198 1 11.7366 56.9655 40.6926
21987 2 9.92598 57.2234 39.4288
21985 2 12.687 58.8586 39.5042
21765 2 15.3822 57.2234 39.4288
16200 1 14.4447 58.6317 40.8482
15911 1 17.1929 56.9655 40.6926
21767 2 18.1433 58.8586 39.5042
21447 2 20.8385 57.2234 39.4288
15909 1 19.901 58.6317 40.8482
16476 1 0.821594 60.2858 40.8893
22149 2 1.78365 62.0828 39.6061
16385 1 6.27783 60.2858 40.8893
22110 2 4.50727 60.48 39.5626
16474 1 3.5699 61.9331 40.9197
16387 1 9.02614 61.9331 40.9197
22108 2 7.23989 62.0828 39.6061
16187 1 11.7341 60.2858 40.8893
21986 2 9.96351 60.48 39.5626
21988 2 12.6961 62.0828 39.6061
21758 2 15.4197 60.48 39.5626
16185 1 14.4824 61.9331 40.9197
15910 1 17.1903 60.2858 40.8893
21756 2 18.1524 62.0828 39.6061
21446 2 20.876 60.48 39.5626
15912 1 19.9386 61.9331 40.9197
16475 1 0.854031 63.559 40.9511
22144 2 1.78502 65.2744 39.6817
22109 2 4.51236 63.681 39.6469
16477 1 3.58949 65.1783 40.9798
16370 1 6.31027 63.559 40.9511
16368 1 9.04573 65.1783 40.9798
22111 2 7.24126 65.2744 39.6817
21975 2 9.9686 63.681 39.6469
16186 1 11.7665 63.559 40.9511
21973 2 12.6975 65.2744 39.6817
21757 2 15.4248 63.681 39.6469
16188 1 14.502 65.1783 40.9798
15897 1 17.2227 63.559 40.9511
21759 2 18.1537 65.2744 39.6817
21439 2 20.8811 63.681 39.6469
15895 1 19.9582 65.1783 40.9798
16464 1 0.866711 66.7888 41.0061
22095 2 4.51354 66.8671 39.7134
16369 1 6.32295 66.7888 41.0061
16167 1 11.7792 66.7888 41.0061
21974 2 9.96978 66.8671 39.7134
21742 2 15.426 66.8671 39.7134
15896 1 17.2354 66.7888 41.0061
21438 2 20.8823 66.8671 39.7134
22145 2 1.78608 68.4592 39.7423
16463 1 0.873541 69.997 41.0564
16462 1 3.59872 68.395 41.0317
22094 2 4.51504 70.0513 39.7692
16371 1 9.05496 68.395 41.0317
22093 2 7.24232 68.4592 39.7423
16347 1 6.32978 69.997 41.0564
16166 1 11.786 69.997 41.0564
21955 2 9.97128 70.0513 39.7692
21976 2 12.6986 68.4592 39.7423
16165 1 14.5112 68.395 41.0317
21741 2 15.4275 70.0513 39.7692
21740 2 18.1548 68.4592 39.7423
15875 1 17.2423 69.997 41.0564
15898 1 19.9674 68.395 41.0317
21423 2 20.8838 70.0513 39.7692
22140 2 1.78792 71.6434 39.7946
16452 1 0.877914 73.1944 41.1037
16465 1 3.60402 71.5967 41.0804
22079 2 4.51714 73.2354 39.8189
16345 1 9.06026 71.5967 41.0804
22096 2 7.24416 71.6434 39.7946
16346 1 6.33415 73.1944 41.1037
16139 1 11.7904 73.1944 41.1037
21954 2 9.97338 73.2354 39.8189
21953 2 12.7004 71.6434 39.7946
16168 1 14.5165 71.5967 41.0804
21718 2 15.4296 73.2354 39.8189
21743 2 18.1566 71.6434 39.7946
15874 1 17.2466 73.1944 41.1037
15873 1 19.9727 71.5967 41.0804
21422 2 20.8859 73.2354 39.8189
22141 2 1.79018 74.8273 39.8422
16451 1 0.881381 76.3863 41.1486
16450 1 3.60784 74.7908 41.1265
22078 2 4.51949 76.4192 39.8648
16348 1 9.06407 74.7908 41.1265
22077 2 7.24642 74.8273 39.8422
16323 1 6.33762 76.3863 41.1486
16138 1 11.7939 76.3863 41.1486
21928 2 9.97573 76.4192 39.8648
21956 2 12.7027 74.8273 39.8422
16137 1 14.5203 74.7908 41.1265
21717 2 15.432 76.4192 39.8648
21716 2 18.1589 74.8273 39.8422
15845 1 17.2501 76.3863 41.1486
15876 1 19.9766 74.7908 41.1265
21399 2 20.8882 76.4192 39.8648
16440 1 0.884426 79.5753 41.1915
22136 2 1.79258 78.011 39.8867
16453 1 3.61106 77.9811 41.1703
22063 2 4.52189 79.6028 39.908
16322 1 6.34066 79.5753 41.1915
16321 1 9.0673 77.9811 41.1703
22080 2 7.24881 78.011 39.8867
16104 1 11.7969 79.5753 41.1915
21927 2 9.97813 79.6028 39.908
21926 2 12.7051 78.011 39.8867
16140 1 14.5235 77.9811 41.1703
21686 2 15.4344 79.6028 39.908
15844 1 17.2531 79.5753 41.1915
21719 2 18.1613 78.011 39.8867
15843 1 19.9798 77.9811 41.1703
21398 2 20.8906 79.6028 39.908
16439 1 0.887182 82.7627 41.2322
22137 2 1.79495 81.1945 39.9287
16438 1 3.61396 81.1692 41.2121
22062 2 4.52421 82.7861 39.9489
16299 1 6.34342 82.7627 41.2322
16324 1 9.07019 81.1692 41.2121
22061 2 7.25118 81.1945 39.9287
16103 1 11.7997 82.7627 41.2322
21900 2 9.98045 82.7861 39.9489
21929 2 12.7074 81.1945 39.9287
16102 1 14.5264 81.1692 41.2121
21685 2 15.4367 82.7861 39.9489
15807 1 17.2559 82.7627 41.2322
21684 2 18.1637 81.1945 39.9287
15846 1 19.9827 81.1692 41.2121
21367 2 20.8929 82.7861 39.9489
16428 1 0.889686 85.9492 41.2709
22132 2 1.79721 84.3778 39.9686
16441 1 3.61658 84.3561 41.2519
22047 2 4.52641 85.9694 39.9876
16297 1 9.07282 84.3561 41.2519
16298 1 6.34592 85.9492 41.2709
22064 2 7.25345 84.3778 39.9686
16068 1 11.8022 85.9492 41.2709
21899 2 9.98265 85.9694 39.9876
16105 1 14.5291 84.3561 41.2519
21647 2 15.4389 85.9694 39.9876
21898 2 12.7097 84.3778 39.9686
15806 1 17.2584 85.9492 41.2709
21687 2 18.1659 84.3778 39.9686
15805 1 19.9853 84.3561 41.2519
21366 2 20.8951 85.9694 39.9876
22133 2 1.79933 87.5609 40.0062
16426 1 3.61897 87.5422 41.2895
16300 1 9.0752 87.5422 41.2895
22045 2 7.25557 87.5609 40.0062
16066 1 14.5314 87.5422 41.2895
21901 2 12.7118 87.5609 40.0062
21645 2 18.168 87.5609 40.0062
15808 1 19.9877 87.5422 41.2895
16427 1 0.891946 89.1351 41.3074
22128 2 1.80127 90.7441 40.0415
22046 2 4.52844 89.1525 40.0241
16429 1 3.6211 90.7279 41.3248
16275 1 6.34818 89.1351 41.3074
16273 1 9.07734 90.7279 41.3248
22048 2 7.25751 90.7441 40.0415
16067 1 11.8044 89.1351 41.3074
21872 2 9.98468 89.1525 40.0241
21646 2 15.4409 89.1525 40.0241
16069 1 14.5336 90.7279 41.3248
21870 2 12.7137 90.7441 40.0415
15762 1 17.2607 89.1351 41.3074
21648 2 18.17 90.7441 40.0415
21327 2 20.8972 89.1525 40.0241
15760 1 19.9898 90.7279 41.3248
16416 1 0.893966 92.3206 41.3415
22129 2 1.80302 93.9273 40.0743
22031 2 4.53029 92.3357 40.0582
16414 1 3.62301 93.9133 41.3576
16274 1 6.3502 92.3206 41.3415
16276 1 9.07925 93.9133 41.3576
22029 2 7.25926 93.9273 40.0743
16032 1 11.8064 92.3206 41.3415
21871 2 9.98653 92.3357 40.0582
21607 2 15.4428 92.3357 40.0582
16030 1 14.5355 93.9133 41.3576
21873 2 12.7155 93.9273 40.0743
15761 1 17.2627 92.3206 41.3415
21605 2 18.1717 93.9273 40.0743
21326 2 20.899 92.3357 40.0582
15763 1 19.9917 93.9133 41.3576
16415 1 0.895754 95.506 41.373
22124 2 1.80458 97.1107 40.1044
16417 1 3.62468 97.0987 41.3878
22030 2 4.53194 95.519 40.0897
16250 1 9.08092 97.0987 41.3878
16252 1 6.35199 95.506 41.373
22032 2 7.26081 97.1107 40.1044
16031 1 11.8082 95.506 41.373
21844 2 9.98818 95.519 40.0897
16033 1 14.5372 97.0987 41.3878
21606 2 15.4444 95.519 40.0897
21842 2 12.7171 97.1107 40.1044
15716 1 17.2645 95.506 41.373
21608 2 18.1733 97.1107 40.1044
15714 1 19.9934 97.0987 41.3878
21280 2 20.9007 95.519 40.0897
16408 1 0.897318 98.6914 41.4018
22125 2 1.80594 100.294 40.1317
16406 1 3.62614 100.284 41.4151
22016 2 4.5334 98.7024 40.1185
16251 1 6.35356 98.6914 41.4018
16253 1 9.08238 100.284 41.4151
22014 2 7.26217 100.294 40.1317
16000 1 11.8098 98.6914 41.4018
21843 2 9.98964 98.7024 40.1185
15998 1 14.5386 100.284 41.4151
21568 2 15.4459 98.7024 40.1185
21845 2 12.7184 100.294 40.1317
15715 1 17.266 98.6914 41.4018
21566 2 18.1747 100.294 40.1317
15717 1 19.9949 100.284 41.4151
21279 2 20.9021 98.7024 40.1185
16483 1 1.67595 51.9457 43.1963
22114 2 2.56559 53.6081 41.9311
16382 1 4.41617 53.6039 43.1851
22113 2 5.26533 51.9241 41.9609
22112 2 3.5037 51.9163 44.4923
16392 1 7.13219 51.9457 43.1963
21983 2 8.02183 53.6081 41.9311
21978 2 8.95994 51.9163 44.4923
16195 1 9.87241 53.6039 43.1851
21989 2 10.7216 51.9241 41.9609
15907 1 15.3286 53.6039 43.1851
16194 1 12.5884 51.9457 43.1963
21762 2 13.4781 53.6081 41.9311
21760 2 14.4162 51.9162 44.4923
15915 1 18.0447 51.9457 43.1963
21761 2 16.1778 51.9241 41.9609
22150 2 21.634 51.9241 41.9609
15552 1 20.7849 53.6039 43.1851
21445 2 18.9343 53.6081 41.9311
21441 2 19.8724 51.9163 44.4923
16484 1 1.70877 55.2311 43.2111
22115 2 5.33113 55.2837 41.9305
16380 1 7.16501 55.2311 43.2111
21981 2 10.7874 55.2837 41.9305
16196 1 12.6212 55.2311 43.2111
15905 1 18.0775 55.2311 43.2111
21763 2 16.2436 55.2837 41.9305
22146 2 21.6998 55.2837 41.9305
22106 2 2.63629 56.9493 41.9642
16472 1 1.75645 58.5083 43.2999
16381 1 4.46127 56.8672 43.2474
22104 2 5.38981 58.6281 42.0372
21982 2 8.09253 56.9493 41.9642
16383 1 7.21269 58.5083 43.2999
16183 1 9.91751 56.8672 43.2474
21984 2 10.846 58.6281 42.0372
15906 1 15.3737 56.8672 43.2474
21754 2 13.5488 56.9493 41.9642
16181 1 12.6689 58.5083 43.2999
15908 1 18.1252 58.5083 43.2999
21752 2 16.3023 58.6281 42.0372
15551 1 20.83 56.8672 43.2474
21444 2 19.005 56.9493 41.9642
22147 2 21.7585 58.6281 42.0372
22105 2 2.67755 60.2908 42.0969
16473 1 1.76414 61.8005 43.4369
16366 1 4.49063 60.1569 43.3778
22107 2 5.41414 61.9211 42.148
21971 2 8.13379 60.2908 42.0969
16364 1 7.22037 61.8005 43.4369
16182 1 9.94687 60.1569 43.3778
21969 2 10.8704 61.9211 42.148
15893 1 15.4031 60.1569 43.3778
21753 2 13.59 60.2908 42.0969
16184 1 12.6766 61.8005 43.4369
15891 1 18.1329 61.8005 43.4369
21755 2 16.3266 61.9211 42.148
15550 1 20.8593 60.1569 43.3778
21437 2 19.0463 60.2908 42.0969
22142 2 21.7829 61.9211 42.148
16460 1 1.77601 65.0639 43.5144
22091 2 2.69056 63.5402 42.1913
16365 1 4.49827 63.4362 43.4783
22089 2 5.42151 65.1519 42.2294
16367 1 7.23225 65.0639 43.5144
21970 2 8.1468 63.5402 42.1913
16163 1 9.95451 63.4362 43.4783
21972 2 10.8777 65.1519 42.2294
15892 1 15.4107 63.4362 43.4783
16161 1 12.6885 65.0639 43.5144
21738 2 13.603 63.5402 42.1913
15894 1 18.1447 65.0639 43.5144
21736 2 16.334 65.1519 42.2294
22143 2 21.7902 65.1519 42.2294
15543 1 20.867 63.4362 43.4783
21436 2 19.0593 63.5402 42.1913
16461 1 1.78411 68.2997 43.5771
22090 2 2.69521 66.759 42.2636
16343 1 4.50874 66.6846 43.5471
22092 2 5.42487 68.3627 42.2947
16341 1 7.24035 68.2997 43.5771
21951 2 8.15144 66.759 42.2636
16162 1 9.96498 66.6846 43.5471
21949 2 10.8811 68.3627 42.2947
15871 1 15.4212 66.6846 43.5471
16164 1 12.6966 68.2997 43.5771
21737 2 13.6077 66.759 42.2636
15869 1 18.1528 68.2997 43.5771
21739 2 16.3373 68.3627 42.2947
22138 2 21.7936 68.3627 42.2947
15542 1 20.8775 66.6846 43.5471
21421 2 19.0639 66.759 42.2636
22075 2 2.69815 69.9643 42.3234
16342 1 4.51509 69.9103 43.605
21950 2 8.15439 69.9643 42.3234
16135 1 9.97133 69.9103 43.605
15870 1 15.4276 69.9103 43.605
21714 2 13.6106 69.9643 42.3234
15527 1 20.8838 69.9103 43.605
21420 2 19.0669 69.9643 42.3234
16448 1 1.78934 71.5175 43.6315
22074 2 2.70091 73.1631 42.3756
22073 2 5.42765 71.5643 42.3502
16319 1 4.51953 73.1219 43.6567
16344 1 7.24558 71.5175 43.6315
21924 2 8.15715 73.1631 42.3756
21952 2 10.8839 71.5643 42.3502
16134 1 9.97577 73.1219 43.6567
16133 1 12.7018 71.5175 43.6315
15841 1 15.432 73.1219 43.6567
21713 2 13.6134 73.1631 42.3756
15872 1 18.1581 71.5175 43.6315
21712 2 16.3401 71.5643 42.3502
22139 2 21.7964 71.5643 42.3502
15526 1 20.8882 73.1219 43.6567
21397 2 19.0696 73.1631 42.3756
16449 1 1.79325 74.7241 43.681
22059 2 2.70367 76.3579 42.4234
22076 2 5.43041 74.7609 42.4
16318 1 4.52307 76.3248 43.7045
16317 1 7.24949 74.7241 43.681
21923 2 8.1599 76.3579 42.4234
21922 2 10.8867 74.7609 42.4
16100 1 9.97931 76.3248 43.7045
16136 1 12.7057 74.7241 43.681
15840 1 15.4356 76.3248 43.7045
21682 2 13.6161 76.3579 42.4234
15839 1 18.162 74.7241 43.681
21715 2 16.3429 74.7609 42.4
22134 2 21.7991 74.7609 42.4
15503 1 20.8918 76.3248 43.7045
21396 2 19.0724 76.3579 42.4234
16436 1 1.79654 77.9241 43.7272
22058 2 2.70634 79.5501 42.4679
16295 1 4.52617 79.5225 43.7492
22057 2 5.43314 77.9543 42.446
16320 1 7.25278 77.9241 43.7272
21896 2 8.16258 79.5501 42.4679
16099 1 9.9824 79.5225 43.7492
21925 2 10.8894 77.9543 42.446
15803 1 15.4386 79.5225 43.7492
16098 1 12.709 77.9241 43.7272
21681 2 13.6188 79.5501 42.4679
15842 1 18.1653 77.9241 43.7272
21680 2 16.3456 77.9543 42.446
22135 2 21.8019 77.9543 42.446
15502 1 20.8949 79.5225 43.7492
21365 2 19.0751 79.5501 42.4679
16437 1 1.79948 81.12 43.7706
22043 2 2.70888 82.7404 42.5097
16294 1 4.52895 82.7169 43.7914
22060 2 5.43575 81.1454 42.4891
16293 1 7.25571 81.12 43.7706
21895 2 8.16512 82.7404 42.5097
16064 1 9.98519 82.7169 43.7914
21894 2 10.892 81.1454 42.4891
15802 1 15.4414 82.7169 43.7914
16101 1 12.712 81.12 43.7706
21643 2 13.6214 82.7404 42.5097
15801 1 18.1682 81.12 43.7706
21683 2 16.3482 81.1454 42.4891
22130 2 21.8045 81.1454 42.4891
15471 1 20.8977 82.7169 43.7914
21364 2 19.0776 82.7404 42.5097
16424 1 1.80213 84.3133 43.8115
22042 2 2.71124 85.9295 42.5492
16271 1 4.53148 85.9093 43.8311
22041 2 5.4382 84.3351 42.5298
16296 1 7.25837 84.3133 43.8115
21868 2 8.16748 85.9295 42.5492
16063 1 9.98772 85.9093 43.8311
21897 2 10.8944 84.3351 42.5298
15758 1 15.444 85.9093 43.8311
16062 1 12.7146 84.3133 43.8115
21642 2 13.6237 85.9295 42.5492
15804 1 18.1708 84.3133 43.8115
21641 2 16.3507 84.3351 42.5298
22131 2 21.8069 84.3351 42.5298
15470 1 20.9002 85.9093 43.8311
21325 2 19.08 85.9295 42.5492
16425 1 1.80453 87.5049 43.85
22044 2 5.44047 87.5237 42.568
16269 1 7.26077 87.5049 43.85
21866 2 10.8967 87.5237 42.568
16065 1 12.717 87.5049 43.85
15756 1 18.1733 87.5049 43.85
21644 2 16.3529 87.5237 42.568
22126 2 21.8092 87.5237 42.568
22027 2 2.7134 89.1177 42.5862
16412 1 1.8067 90.6953 43.886
16270 1 4.53376 89.1002 43.8684
22025 2 5.44253 90.7117 42.6038
21867 2 8.16964 89.1177 42.5862
16272 1 7.26293 90.6953 43.886
16028 1 9.99 89.1002 43.8684
21869 2 10.8988 90.7117 42.6038
15757 1 15.4462 89.1002 43.8684
21603 2 13.6259 89.1177 42.5862
16026 1 12.7192 90.6953 43.886
15759 1 18.1754 90.6953 43.886
21601 2 16.355 90.7117 42.6038
15431 1 20.9025 89.1002 43.8684
21324 2 19.0821 89.1177 42.5862
22127 2 21.8112 90.7117 42.6038
22026 2 2.71536 92.3055 42.6207
16413 1 1.80862 93.8851 43.9193
16248 1 4.53581 92.2903 43.903
22028 2 5.44437 93.8992 42.6369
21840 2 8.1716 92.3055 42.6207
16246 1 7.26486 93.8851 43.9193
16027 1 9.99205 92.2903 43.903
21838 2 10.9006 93.8992 42.6369
15712 1 15.4483 92.2903 43.903
21602 2 13.6278 92.3055 42.6207
16029 1 12.7211 93.8851 43.9193
15710 1 18.1773 93.8851 43.9193
21604 2 16.3569 93.8992 42.6369
15430 1 20.9045 92.2903 43.903
21278 2 19.0841 92.3055 42.6207
22122 2 21.8131 93.8992 42.6369
16404 1 1.81032 97.0744 43.9499
22012 2 2.7171 95.4929 42.6525
16247 1 4.53762 95.4798 43.935
22010 2 5.44601 97.0865 42.6673
16249 1 7.26656 97.0744 43.9499
21839 2 8.17334 95.4929 42.6525
15996 1 9.99386 95.4798 43.935
21841 2 10.9023 97.0865 42.6673
15711 1 15.4501 95.4798 43.935
15994 1 12.7228 97.0744 43.9499
21564 2 13.6296 95.4929 42.6525
15713 1 18.179 97.0744 43.9499
21562 2 16.3585 97.0865 42.6673
22123 2 21.8147 97.0865 42.6673
15385 1 20.9063 95.4798 43.935
21277 2 19.0858 95.4929 42.6525
16405 1 1.81181 100.263 43.9774
22011 2 2.71863 98.6801 42.6814
16232 1 4.53921 98.6689 43.964
22013 2 5.44745 100.274 42.6948
16230 1 7.26804 100.263 43.9774
21816 2 8.17487 98.6801 42.6814
15995 1 9.99545 98.6689 43.964
21814 2 10.9037 100.274 42.6948
15672 1 15.4517 98.6689 43.964
15997 1 12.7243 100.263 43.9774
21563 2 13.6311 98.6801 42.6814
15670 1 18.1805 100.263 43.9774
21565 2 16.3599 100.274 42.6948
22121 2 21.8162 100.274 42.6948
15384 1 20.9079 98.6689 43.964
21231 2 19.0873 98.6801 42.6814
22102 2 0.791414 53.57 44.4907
16378 1 2.6297 53.5403 45.7613
22098 2 1.72545 51.889 47.0403
16377 1 5.34919 51.8988 45.7506
21963 2 4.46263 53.5314 47.0497
21979 2 6.24765 53.57 44.4907
16179 1 8.08594 53.5403 45.7613
21977 2 7.18169 51.889 47.0403
21750 2 11.7039 53.57 44.4907
16193 1 10.8054 51.8988 45.7506
21746 2 9.91886 53.5314 47.0497
15903 1 13.5422 53.5403 45.7613
21430 2 15.3751 53.5314 47.0497
21745 2 12.6379 51.889 47.0403
21442 2 17.1601 53.57 44.4907
15902 1 16.2617 51.8988 45.7506
21440 2 18.0942 51.889 47.0403
16482 1 21.7179 51.8988 45.7506
15549 1 18.9984 53.5403 45.7613
21064 2 20.8313 53.5314 47.0497
22099 2 1.74542 55.169 47.0673
22100 2 3.53944 55.2191 44.5033
16379 1 5.37094 55.1768 45.7794
21980 2 8.99568 55.2191 44.5033
21961 2 7.20166 55.169 47.0673
16177 1 10.8272 55.1768 45.7794
21748 2 14.4519 55.2191 44.5033
21747 2 12.6579 55.169 47.0673
15904 1 16.2834 55.1768 45.7794
21428 2 18.1141 55.169 47.0673
21443 2 19.9082 55.2191 44.5033
16470 1 21.7397 55.1768 45.7794
22101 2 0.831468 56.8644 44.5317
16362 1 2.65721 56.8095 45.8094
22083 2 1.76828 58.4366 47.1303
21962 2 4.48533 56.8034 47.0943
21967 2 6.28771 56.8644 44.5317
22103 2 3.57484 58.5086 44.5762
16360 1 5.40014 58.4412 45.8489
16178 1 8.11345 56.8095 45.8094
21965 2 9.03108 58.5086 44.5762
21964 2 7.22452 58.4366 47.1303
21749 2 11.7439 56.8644 44.5317
21730 2 9.94157 56.8034 47.0943
16180 1 10.8564 58.4412 45.8489
15889 1 13.5697 56.8095 45.8094
21429 2 15.3978 56.8034 47.0943
21751 2 14.4873 58.5086 44.5762
21728 2 12.6808 58.4366 47.1303
21434 2 17.2002 56.8644 44.5317
15887 1 16.3126 58.4412 45.8489
21431 2 18.137 58.4366 47.1303
15548 1 19.0259 56.8095 45.8094
21063 2 20.854 56.8034 47.0943
21432 2 19.9436 58.5086 44.5762
16471 1 21.7689 58.4412 45.8489
22087 2 0.860909 60.1532 44.629
16361 1 2.68317 60.0749 45.8981
22084 2 1.78589 61.7018 47.2171
21943 2 4.50606 60.0696 47.1721
22085 2 3.59777 61.7926 44.6804
16363 1 5.41826 61.7104 45.9513
21966 2 6.31715 60.1532 44.629
16159 1 8.13941 60.0749 45.8981
21968 2 9.05401 61.7926 44.6804
21941 2 7.24213 61.7018 47.2171
21734 2 11.7734 60.1532 44.629
21729 2 9.96229 60.0696 47.1721
16157 1 10.8745 61.7104 45.9513
15888 1 13.5957 60.0749 45.8981
21414 2 15.4185 60.0696 47.1721
21732 2 14.5102 61.7926 44.6804
21731 2 12.6984 61.7018 47.2171
21433 2 17.2296 60.1532 44.629
15890 1 16.3307 61.7104 45.9513
21412 2 18.1546 61.7018 47.2171
15541 1 19.0519 60.0749 45.8981
21062 2 20.8748 60.0696 47.1721
21435 2 19.9665 61.7926 44.6804
16458 1 21.787 61.7104 45.9513
22086 2 0.875179 63.4227 44.7264
16339 1 2.69399 63.3437 46.0004
22067 2 1.79565 64.9565 47.3034
22088 2 3.60693 65.0447 44.7676
16337 1 5.42508 64.9727 46.0429
21942 2 4.51983 63.3313 47.2616
21947 2 6.33142 63.4227 44.7264
21945 2 9.06317 65.0447 44.7676
16158 1 8.15023 63.3437 46.0004
21944 2 7.25188 64.9565 47.3034
21733 2 11.7877 63.4227 44.7264
16160 1 10.8813 64.9727 46.0429
21706 2 9.97607 63.3313 47.2616
21735 2 14.5194 65.0447 44.7676
15867 1 13.6065 63.3437 46.0004
21413 2 15.4323 63.3313 47.2616
21704 2 12.7081 64.9565 47.3034
21418 2 17.2439 63.4227 44.7264
15865 1 16.3376 64.9727 46.0429
21415 2 18.1644 64.9565 47.3034
21416 2 19.9756 65.0447 44.7676
16459 1 21.7938 64.9727 46.0429
15540 1 19.0627 63.3437 46.0004
21055 2 20.8885 63.3313 47.2616
22071 2 0.881354 66.6611 44.8048
16338 1 2.6998 66.5969 46.0806
22068 2 1.80045 68.1946 47.3782
22069 2 3.61138 68.2734 44.8386
16340 1 5.43038 68.2166 46.1149
21916 2 4.52652 66.5774 47.3422
21946 2 6.33759 66.6611 44.8048
21948 2 9.06762 68.2734 44.8386
16131 1 8.15604 66.5969 46.0806
21914 2 7.25669 68.1946 47.3782
21710 2 11.7938 66.6611 44.8048
16129 1 10.8866 68.2166 46.1149
21705 2 9.98276 66.5774 47.3422
21708 2 14.5239 68.2734 44.8386
15866 1 13.6123 66.5969 46.0806
21390 2 15.439 66.5774 47.3422
21707 2 12.7129 68.1946 47.3782
21417 2 17.2501 66.6611 44.8048
15868 1 16.3429 68.2166 46.1149
21388 2 18.1692 68.1946 47.3782
21419 2 19.9801 68.2734 44.8386
16446 1 21.7991 68.2166 46.1149
15525 1 19.0685 66.5969 46.0806
21054 2 20.8952 66.5774 47.3422
22070 2 0.884841 69.8824 44.8698
16315 1 2.70439 69.8323 46.1465
21915 2 4.53017 69.8085 47.4116
21920 2 6.34108 69.8824 44.8698
16130 1 8.16063 69.8323 46.1465
21709 2 11.7973 69.8824 44.8698
21674 2 9.98641 69.8085 47.4116
15837 1 13.6169 69.8323 46.1465
21389 2 15.4427 69.8085 47.4116
21394 2 17.2536 69.8824 44.8698
15524 1 19.0731 69.8323 46.1465
21039 2 20.8989 69.8085 47.4116
22051 2 1.80341 71.4197 47.4428
22055 2 0.887629 73.0936 44.9262
16314 1 2.70793 73.0538 46.2038
22072 2 3.61439 71.489 44.8988
16313 1 5.43437 71.4445 46.176
21888 2 4.53274 73.0287 47.4722
21918 2 9.07063 71.489 44.8988
21917 2 7.25965 71.4197 47.4428
21919 2 6.34387 73.0936 44.9262
16096 1 8.16417 73.0538 46.2038
16132 1 10.8906 71.4445 46.176
21678 2 11.8001 73.0936 44.9262
21673 2 9.98898 73.0287 47.4722
21711 2 14.5269 71.489 44.8988
21672 2 12.7159 71.4197 47.4428
15836 1 13.6204 73.0538 46.2038
21358 2 15.4452 73.0287 47.4722
15835 1 16.3468 71.4445 46.176
21391 2 18.1721 71.4197 47.4428
21393 2 17.2563 73.0936 44.9262
21392 2 19.9831 71.489 44.8988
16447 1 21.8031 71.4445 46.176
15501 1 19.0766 73.0538 46.2038
21038 2 20.9015 73.0287 47.4722
22052 2 1.80577 74.6357 47.5001
22054 2 0.890251 76.2981 44.977
16291 1 2.71093 76.2656 46.2555
22053 2 3.61707 74.6965 44.9521
16316 1 5.43759 74.6607 46.2302
21887 2 4.53499 76.2411 47.5266
21921 2 9.07331 74.6965 44.9521
21886 2 7.262 74.6357 47.5001
21892 2 6.34649 76.2981 44.977
16095 1 8.16717 76.2656 46.2555
16094 1 10.8938 74.6607 46.2302
21677 2 11.8027 76.2981 44.977
21635 2 9.99123 76.2411 47.5266
21676 2 14.5295 74.6965 44.9521
21675 2 12.7182 74.6357 47.5001
15799 1 13.6234 76.2656 46.2555
21357 2 15.4475 76.2411 47.5266
15838 1 16.3501 74.6607 46.2302
21356 2 18.1745 74.6357 47.5001
21362 2 17.259 76.2981 44.977
21395 2 19.9858 74.6965 44.9521
16434 1 21.8063 74.6607 46.2302
15500 1 19.0796 76.2656 46.2555
21015 2 20.9037 76.2411 47.5266
22039 2 0.892787 79.4982 45.0237
16290 1 2.71363 79.4709 46.3031
22056 2 3.61965 77.8986 45.0008
16289 1 5.44043 77.8689 46.2797
21891 2 6.34903 79.4982 45.0237
21890 2 9.07589 77.8986 45.0008
16060 1 8.16987 79.4709 46.3031
21639 2 11.8053 79.4982 45.0237
16097 1 10.8967 77.8689 46.2797
21679 2 14.5321 77.8986 45.0008
15798 1 13.6261 79.4709 46.3031
21361 2 17.2615 79.4982 45.0237
15797 1 16.3529 77.8689 46.2797
21360 2 19.9884 77.8986 45.0008
16435 1 21.8091 77.8689 46.2797
15469 1 19.0823 79.4709 46.3031
22038 2 0.895208 82.6951 45.0673
16267 1 2.71612 82.6718 46.3473
22037 2 3.62213 81.097 45.0459
16292 1 5.44302 81.0718 46.3256
21864 2 6.35145 82.6951 45.0673
21893 2 9.07837 81.097 45.0459
16059 1 8.17236 82.6718 46.3473
21638 2 11.8077 82.6951 45.0673
16058 1 10.8993 81.0718 46.3256
21637 2 14.5346 81.097 45.0459
15754 1 13.6286 82.6718 46.3473
21322 2 17.2639 82.6951 45.0673
15800 1 16.3555 81.0718 46.3256
21363 2 19.9908 81.097 45.0459
16422 1 21.8117 81.0718 46.3256
15468 1 19.0848 82.6718 46.3473
22023 2 0.897478 85.8898 45.1081
16266 1 2.71843 85.8697 46.3887
22040 2 3.62448 84.2927 45.088
16265 1 5.44542 84.271 46.3684
21862 2 9.08072 84.2927 45.088
21863 2 6.35372 85.8898 45.1081
16024 1 8.17467 85.8697 46.3887
21599 2 11.81 85.8898 45.1081
16061 1 10.9017 84.271 46.3684
21640 2 14.537 84.2927 45.088
15753 1 13.6309 85.8697 46.3887
21321 2 17.2662 85.8898 45.1081
15752 1 16.3579 84.271 46.3684
21320 2 19.9932 84.2927 45.088
16423 1 21.8141 84.271 46.3684
15429 1 19.0871 85.8697 46.3887
22021 2 3.62667 87.4866 45.1274
16268 1 5.44763 87.4678 46.4082
21865 2 9.08291 87.4866 45.1274
16022 1 10.9039 87.4678 46.4082
21597 2 14.5391 87.4866 45.1274
15755 1 16.3601 87.4678 46.4082
21323 2 19.9954 87.4866 45.1274
16410 1 21.8163 87.4678 46.4082
16244 1 2.72054 89.0655 46.4271
22022 2 0.899574 89.083 45.1461
22024 2 3.62867 90.6792 45.164
16242 1 5.44964 90.6629 46.4453
16023 1 8.17678 89.0655 46.4271
21836 2 6.35581 89.083 45.1461
21834 2 9.08491 90.6792 45.164
21598 2 11.8121 89.083 45.1461
16025 1 10.9059 90.6629 46.4453
15708 1 13.633 89.0655 46.4271
21600 2 14.5411 90.6792 45.164
21275 2 17.2683 89.083 45.1461
15706 1 16.3621 90.6629 46.4453
15428 1 19.0893 89.0655 46.4271
21273 2 19.9974 90.6792 45.164
16411 1 21.8184 90.6629 46.4453
22008 2 0.90148 92.2751 45.1813
16243 1 2.72246 92.2599 46.4627
22006 2 3.63048 93.8709 45.1978
16245 1 5.45146 93.8568 46.4794
21835 2 6.35772 92.2751 45.1813
21837 2 9.08672 93.8709 45.1978
15992 1 8.17869 92.2599 46.4627
21560 2 11.814 92.2751 45.1813
15990 1 10.9077 93.8568 46.4794
21558 2 14.543 93.8709 45.1978
15707 1 13.6349 92.2599 46.4627
21274 2 17.2702 92.2751 45.1813
15709 1 16.3639 93.8568 46.4794
21276 2 19.9992 93.8709 45.1978
15383 1 19.0912 92.2599 46.4627
16402 1 21.8202 93.8568 46.4794
22007 2 0.903193 95.4666 45.2136
16228 1 2.72417 95.4535 46.4953
22009 2 3.6321 97.0621 45.2286
16226 1 5.45308 97.05 46.5105
21810 2 9.08833 97.0621 45.2286
21812 2 6.35943 95.4666 45.2136
15991 1 8.18041 95.4535 46.4953
21559 2 11.8157 95.4666 45.2136
15993 1 10.9093 97.05 46.5105
21561 2 14.5446 97.0621 45.2286
15668 1 13.6367 95.4535 46.4953
21228 2 17.2719 95.4666 45.2136
15666 1 16.3656 97.05 46.5105
21226 2 20.0008 97.0621 45.2286
16403 1 21.8218 97.05 46.5105
15382 1 19.0929 95.4535 46.4953
22000 2 0.904711 98.6576 45.2429
16227 1 2.7257 98.6464 46.5248
21998 2 3.63352 100.253 45.2564
16229 1 5.45451 100.243 46.5384
21811 2 6.36095 98.6576 45.2429
21813 2 9.08976 100.253 45.2564
15968 1 8.18194 98.6464 46.5248
21528 2 11.8172 98.6576 45.2429
15966 1 10.9107 100.243 46.5384
21526 2 14.546 100.253 45.2564
15667 1 13.6382 98.6464 46.5248
21227 2 17.2734 98.6576 45.2429
15669 1 16.367 100.243 46.5384
21229 2 20.0022 100.253 45.2564
16401 1 21.8232 100.243 46.5384
15338 1 19.0944 98.6464 46.5248
16358 1 0.840053 53.504 48.3214
21959 2 2.66982 53.4994 49.609
16376 1 3.56326 51.869 48.3068
21958 2 5.3926 51.8661 49.5956
16174 1 9.0195 51.869 48.3068
16175 1 6.29629 53.504 48.3214
21726 2 8.12606 53.4994 49.609
15885 1 11.7525 53.504 48.3214
21744 2 10.8488 51.8661 49.5956
15901 1 14.4757 51.869 48.3068
21426 2 13.5823 53.4994 49.609
15546 1 17.2088 53.504 48.3214
21425 2 16.3051 51.8661 49.5956
22097 2 21.7613 51.8661 49.5956
15545 1 19.932 51.869 48.3068
21061 2 19.0385 53.4994 49.609
16356 1 3.57561 55.1355 48.3422
21960 2 5.40464 55.1298 49.6285
16176 1 9.03184 55.1355 48.3422
21724 2 10.8609 55.1298 49.6285
15883 1 14.4881 55.1355 48.3422
21427 2 16.3171 55.1298 49.6285
22081 2 21.7734 55.1298 49.6285
15547 1 19.9443 55.1355 48.3422
16357 1 0.856556 56.7643 48.3695
21939 2 2.68399 56.758 49.6542
16359 1 3.5945 58.392 48.4033
21937 2 5.41965 58.3852 49.6858
16155 1 6.31279 56.7643 48.3695
21725 2 8.14023 56.758 49.6542
16153 1 9.05074 58.392 48.4033
15884 1 11.769 56.7643 48.3695
21727 2 10.8759 58.3852 49.6858
21410 2 13.5965 56.758 49.6542
15886 1 14.507 58.392 48.4033
15538 1 17.2253 56.7643 48.3695
21408 2 16.3321 58.3852 49.6858
21060 2 19.0527 56.758 49.6542
22082 2 21.7884 58.3852 49.6858
15536 1 19.9632 58.392 48.4033
16335 1 0.875093 60.0195 48.4426
21938 2 2.69868 60.0118 49.7219
16333 1 3.61026 61.6473 48.4859
21940 2 5.43303 61.638 49.761
16154 1 6.33133 60.0195 48.4426
16156 1 9.06649 61.6473 48.4859
21702 2 8.15492 60.0118 49.7219
15863 1 11.7876 60.0195 48.4426
21700 2 10.8893 61.638 49.761
15861 1 14.5227 61.6473 48.4859
21409 2 13.6112 60.0118 49.7219
15537 1 17.2438 60.0195 48.4426
21411 2 16.3455 61.638 49.761
22065 2 21.8017 61.638 49.761
15539 1 19.979 61.6473 48.4859
21053 2 19.0674 60.0118 49.7219
16334 1 0.887015 63.2751 48.5306
21912 2 2.71004 63.2635 49.8014
16336 1 3.61832 64.9015 48.5735
21910 2 5.4421 64.8872 49.8415
16125 1 9.07455 64.9015 48.5735
16127 1 6.34325 63.2751 48.5306
21701 2 8.16628 63.2635 49.8014
15862 1 11.7995 63.2751 48.5306
21703 2 10.8983 64.8872 49.8415
15864 1 14.5308 64.9015 48.5735
21386 2 13.6225 63.2635 49.8014
15522 1 17.2557 63.2751 48.5306
21384 2 16.3546 64.8872 49.8415
22066 2 21.8108 64.8872 49.8415
15520 1 19.987 64.9015 48.5735
21052 2 19.0788 63.2635 49.8014
16311 1 0.892457 66.5253 48.6135
21911 2 2.71687 66.5086 49.8802
16309 1 3.62237 68.1462 48.6504
21913 2 5.44712 68.1274 49.9169
16126 1 6.3487 66.5253 48.6135
16128 1 9.07861 68.1462 48.6504
21670 2 8.17311 66.5086 49.8802
15833 1 11.8049 66.5253 48.6135
21668 2 10.9034 68.1274 49.9169
15831 1 14.5348 68.1462 48.6504
21385 2 13.6293 66.5086 49.8802
15521 1 17.2612 66.5253 48.6135
21387 2 16.3596 68.1274 49.9169
22049 2 21.8158 68.1274 49.9169
15523 1 19.9911 68.1462 48.6504
21037 2 19.0856 66.5086 49.8802
16310 1 0.895774 69.7641 48.6848
21884 2 2.72061 69.7437 49.9517
16092 1 6.35201 69.7641 48.6848
21669 2 8.17685 69.7437 49.9517
15832 1 11.8083 69.7641 48.6848
21354 2 13.6331 69.7437 49.9517
15498 1 17.2645 69.7641 48.6848
21036 2 19.0893 69.7437 49.9517
16287 1 0.898333 72.9916 48.7472
21883 2 2.72298 72.9694 50.0158
16312 1 3.62523 71.3792 48.7169
21882 2 5.45002 71.3576 49.9846
16090 1 9.08147 71.3792 48.7169
16091 1 6.35457 72.9916 48.7472
21631 2 8.17922 72.9694 50.0158
21671 2 10.9063 71.3576 49.9846
15795 1 11.8108 72.9916 48.7472
15834 1 14.5377 71.3792 48.7169
21353 2 13.6355 72.9694 50.0158
21352 2 16.3625 71.3576 49.9846
15497 1 17.267 72.9916 48.7472
22050 2 21.8187 71.3576 49.9846
15496 1 19.9939 71.3792 48.7169
21013 2 19.0917 72.9694 50.0158
16286 1 0.90057 76.2099 48.803
21856 2 2.72484 76.1875 50.0735
16285 1 3.6276 74.6018 48.7758
21885 2 5.45206 74.5793 50.0454
16093 1 9.08383 74.6018 48.7758
16056 1 6.35681 76.2099 48.803
21630 2 8.18107 76.1875 50.0735
21629 2 10.9083 74.5793 50.0454
15794 1 11.813 76.2099 48.803
15793 1 14.5401 74.6018 48.7758
21314 2 13.6373 76.1875 50.0735
21355 2 16.3645 74.5793 50.0454
15466 1 17.2693 76.2099 48.803
22033 2 21.8208 74.5793 50.0454
15499 1 19.9963 74.6018 48.7758
21012 2 19.0936 76.1875 50.0735
22035 2 1.80796 77.8451 47.5519
16263 1 0.902667 79.4213 48.8538
21855 2 2.72654 79.3998 50.1262
21860 2 4.53714 79.4479 47.5762
16288 1 3.62975 77.8164 48.8289
21854 2 5.45382 77.7943 50.1004
21889 2 7.2642 77.8451 47.5519
16054 1 9.08599 77.8164 48.8289
16055 1 6.3589 79.4213 48.8538
21591 2 8.18278 79.3998 50.1262
21634 2 9.99338 79.4479 47.5762
15750 1 11.8151 79.4213 48.8538
21632 2 10.9101 77.7943 50.1004
21318 2 15.4496 79.4479 47.5762
21633 2 12.7204 77.8451 47.5519
15796 1 14.5422 77.8164 48.8289
21313 2 13.639 79.3998 50.1262
21359 2 18.1767 77.8451 47.5519
15465 1 17.2714 79.4213 48.8538
21312 2 16.3663 77.7943 50.1004
21014 2 20.9059 79.4479 47.5762
22034 2 21.8225 77.7943 50.1004
15464 1 19.9985 77.8164 48.8289
20981 2 19.0953 79.3998 50.1262
22036 2 1.81008 81.0497 47.5996
16262 1 0.904673 82.6278 48.9006
21828 2 2.72819 82.6076 50.1745
22017 2 -0.000752193 81.0042 50.1508
21859 2 4.53923 82.6507 47.6221
16261 1 3.6318 81.0251 48.8777
21857 2 5.45549 81.0042 50.1508
21858 2 7.26632 81.0497 47.5996
16020 1 6.36091 82.6278 48.9006
16057 1 9.08804 81.0251 48.8777
21590 2 8.18443 82.6076 50.1745
21595 2 9.99547 82.6507 47.6221
15749 1 11.8171 82.6278 48.9006
21589 2 10.9117 81.0042 50.1508
21317 2 15.4517 82.6507 47.6221
21636 2 12.7226 81.0497 47.5996
15748 1 14.5443 81.0251 48.8777
21267 2 13.6407 82.6076 50.1745
21316 2 18.1788 81.0497 47.5996
15426 1 17.2734 82.6278 48.9006
21315 2 16.368 81.0042 50.1508
20983 2 20.9079 82.6507 47.6221
15467 1 20.0005 81.0251 48.8777
20980 2 19.0969 82.6076 50.1745
22019 2 1.81212 84.251 47.6437
16240 1 0.906586 85.8307 48.9439
21827 2 2.7298 85.8122 50.219
22018 2 0.000881133 84.2102 50.1972
21832 2 4.54122 85.8506 47.6645
16264 1 3.63376 84.2296 48.9227
21826 2 5.45712 84.2102 50.1972
21861 2 7.26836 84.251 47.6437
16018 1 9.09 84.2296 48.9227
16019 1 6.36282 85.8307 48.9439
21552 2 8.18604 85.8122 50.219
21594 2 9.99746 85.8506 47.6645
15704 1 11.8191 85.8307 48.9439
21592 2 10.9134 84.2102 50.1972
21271 2 15.4537 85.8506 47.6645
21593 2 12.7246 84.251 47.6437
15751 1 14.5462 84.2296 48.9227
21266 2 13.6423 85.8122 50.219
21319 2 18.1808 84.251 47.6437
15425 1 17.2753 85.8307 48.9439
21265 2 16.3696 84.2102 50.1972
20982 2 20.9099 85.8506 47.6645
15424 1 20.0025 84.2296 48.9227
20941 2 19.0985 85.8122 50.219
22020 2 1.81406 87.4498 47.6846
22002 2 0.00246805 87.4135 50.2398
16238 1 3.63562 87.4311 48.9643
21829 2 5.45871 87.4135 50.2398
21830 2 7.2703 87.4498 47.6846
16021 1 9.09186 87.4311 48.9643
21550 2 10.9149 87.4135 50.2398
21596 2 12.7265 87.4498 47.6846
15702 1 14.5481 87.4311 48.9643
21269 2 18.1828 87.4498 47.6846
21268 2 16.3712 87.4135 50.2398
15427 1 20.0043 87.4311 48.9643
16239 1 0.908388 89.031 48.9839
21804 2 2.73136 89.0143 50.2599
22004 2 1.81586 90.6468 47.7224
22003 2 0.0039868 90.6147 50.279
21831 2 4.5431 89.0485 47.7039
16241 1 3.63736 90.6305 49.0027
21802 2 5.46023 90.6147 50.279
15988 1 6.36463 89.031 48.9839
21551 2 8.18759 89.0143 50.2599
21833 2 7.2721 90.6468 47.7224
15986 1 9.0936 90.6305 49.0027
21556 2 9.99934 89.0485 47.7039
15703 1 11.8209 89.031 48.9839
21553 2 10.9165 90.6147 50.279
21270 2 15.4556 89.0485 47.7039
21220 2 13.6438 89.0143 50.2599
21554 2 12.7283 90.6468 47.7224
15705 1 14.5498 90.6305 49.0027
15380 1 17.2771 89.031 48.9839
21272 2 18.1846 90.6468 47.7224
21218 2 16.3727 90.6147 50.279
20943 2 20.9118 89.0485 47.7039
20940 2 19.1001 89.0143 50.2599
15378 1 20.0061 90.6305 49.0027
22005 2 1.81752 93.8426 47.757
21803 2 2.73283 92.2147 50.2973
16224 1 0.910062 92.2297 49.0207
21994 2 0.00541706 93.8144 50.3147
21808 2 4.54483 92.2449 47.7401
16222 1 3.63897 93.8285 49.0378
21805 2 5.46166 93.8144 50.3147
21806 2 7.27376 93.8426 47.757
21520 2 8.18907 92.2147 50.2973
15987 1 6.3663 92.2297 49.0207
15989 1 9.0952 93.8285 49.0378
21555 2 10.0011 92.2449 47.7401
15664 1 11.8225 92.2297 49.0207
21518 2 10.9179 93.8144 50.3147
21224 2 15.4573 92.2449 47.7401
21557 2 12.73 93.8426 47.757
21219 2 13.6453 92.2147 50.2973
15662 1 14.5514 93.8285 49.0378
21222 2 18.1862 93.8426 47.757
15379 1 17.2788 92.2297 49.0207
21221 2 16.3741 93.8144 50.3147
20942 2 20.9135 92.2449 47.7401
20897 2 19.1015 92.2147 50.2973
15381 1 20.0077 93.8285 49.0378
21996 2 1.81903 97.0377 47.7885
16223 1 0.911595 95.4271 49.0541
21807 2 4.54641 95.4402 47.7732
16225 1 3.64043 97.0255 49.0696
21809 2 7.27526 97.0377 47.7885
15962 1 9.09666 97.0255 49.0696
15964 1 6.36783 95.4271 49.0541
21524 2 10.0027 95.4402 47.7732
15663 1 11.8241 95.4271 49.0541
21223 2 15.4589 95.4402 47.7732
21522 2 12.7315 97.0377 47.7885
15665 1 14.5529 97.0255 49.0696
21225 2 18.1877 97.0377 47.7885
15335 1 17.2803 95.4271 49.0541
20899 2 20.9151 95.4402 47.7732
15333 1 20.0091 97.0255 49.0696
21997 2 1.82037 100.232 47.8168
16216 1 0.912982 98.6237 49.0843
21792 2 4.54784 98.635 47.8031
16214 1 3.64174 100.222 49.0981
21790 2 7.27661 100.232 47.8168
15963 1 6.36922 98.6237 49.0843
15965 1 9.09798 100.222 49.0981
21523 2 10.0041 98.635 47.8031
15632 1 11.8255 98.6237 49.0843
21184 2 15.4603 98.635 47.8031
21525 2 12.7328 100.232 47.8168
15630 1 14.5542 100.222 49.0981
21182 2 18.1891 100.232 47.8168
15334 1 17.2817 98.6237 49.0843
20898 2 20.9166 98.635 47.8031
15336 1 20.0105 100.222 49.0981
16354 1 1.76931 51.8514 50.8667
21935 2 0.872166 53.476 52.1697
16151 1 4.50083 53.4789 50.882
21957 2 3.59681 51.8502 52.1557
16173 1 7.22555 51.8514 50.8667
21721 2 9.05305 51.8502 52.1557
21722 2 6.3284 53.476 52.1697
15881 1 9.95707 53.4789 50.882
21406 2 11.7846 53.476 52.1697
15534 1 15.4133 53.4789 50.882
15880 1 12.6818 51.8514 50.8667
21424 2 14.5093 51.8502 52.1557
15544 1 18.138 51.8514 50.8667
21058 2 17.2409 53.476 52.1697
15184 1 20.8695 53.4789 50.882
21057 2 19.9655 51.8502 52.1557
16355 1 1.77756 55.1048 50.9027
21933 2 3.60472 55.1005 52.1889
16149 1 7.2338 55.1048 50.9027
21723 2 9.06095 55.1005 52.1889
15882 1 12.69 55.1048 50.9027
21404 2 14.5172 55.1005 52.1889
15532 1 18.1463 55.1048 50.9027
21059 2 19.9734 55.1005 52.1889
21934 2 0.881679 56.7239 52.2131
16331 1 1.79007 58.3532 50.9589
16150 1 4.51163 56.7294 50.9285
21936 2 3.61515 58.3465 52.2417
21698 2 6.33792 56.7239 52.2131
16152 1 7.2463 58.3532 50.9589
21696 2 9.07139 58.3465 52.2417
15859 1 9.96786 56.7294 50.9285
21405 2 11.7942 56.7239 52.2131
15533 1 15.4241 56.7294 50.9285
15857 1 12.7025 58.3532 50.9589
21407 2 14.5276 58.3465 52.2417
21050 2 17.2504 56.7239 52.2131
15535 1 18.1588 58.3532 50.9589
15183 1 20.8803 56.7294 50.9285
21048 2 19.9839 58.3465 52.2417
16332 1 1.80223 61.5999 51.031
21908 2 0.892324 59.9688 52.2741
16123 1 4.52462 59.9766 50.9934
21906 2 3.62534 61.5908 52.3091
16121 1 7.25847 61.5999 51.031
21697 2 6.34856 59.9688 52.2741
21699 2 9.08158 61.5908 52.3091
15858 1 9.98085 59.9766 50.9934
21382 2 11.8048 59.9688 52.2741
15518 1 15.4371 59.9766 50.9934
15860 1 12.7147 61.5999 51.031
21380 2 14.5378 61.5908 52.3091
15516 1 18.1709 61.5999 51.031
21049 2 17.261 59.9688 52.2741
15182 1 20.8933 59.9766 50.9934
21051 2 19.9941 61.5908 52.3091
16307 1 1.81034 64.8459 51.1106
21907 2 0.901505 63.2124 52.3459
16122 1 4.53499 63.2231 51.0706
21909 2 3.63318 64.8333 52.3834
16124 1 7.26658 64.8459 51.1106
21664 2 9.08942 64.8333 52.3834
21666 2 6.35774 63.2124 52.3459
15829 1 9.99123 63.2231 51.0706
21381 2 11.814 63.2124 52.3459
15517 1 15.4475 63.2231 51.0706
15827 1 12.7228 64.8459 51.1106
21383 2 14.5457 64.8333 52.3834
15519 1 18.1791 64.8459 51.1106
21034 2 17.2702 63.2124 52.3459
15175 1 20.9037 63.2231 51.0706
21032 2 20.0019 64.8333 52.3834
16308 1 1.81456 68.0877 51.1873
21880 2 0.907872 66.4531 52.4207
16088 1 4.54091 66.4676 51.1498
21878 2 3.63815 68.0715 52.4572
16086 1 7.27079 68.0877 51.1873
21665 2 6.36411 66.4531 52.4207
21667 2 9.09439 68.0715 52.4572
15828 1 9.99715 66.4676 51.1498
21350 2 11.8203 66.4531 52.4207
15494 1 15.4534 66.4676 51.1498
15830 1 12.727 68.0877 51.1873
21348 2 14.5506 68.0715 52.4572
15492 1 18.1833 68.0877 51.1873
21033 2 17.2766 66.4531 52.4207
15174 1 20.9096 66.4676 51.1498
21035 2 20.0069 68.0715 52.4572
21879 2 0.911666 69.6882 52.4924
16087 1 4.544 69.7059 51.223
21881 2 3.64105 71.3031 52.5262
21625 2 9.09729 71.3031 52.5262
21627 2 6.3679 69.6882 52.4924
15791 1 10.0002 69.7059 51.223
21349 2 11.8241 69.6882 52.4924
15493 1 15.4565 69.7059 51.223
21351 2 14.5535 71.3031 52.5262
21010 2 17.2804 69.6882 52.4924
15159 1 20.9127 69.7059 51.223
21008 2 20.0098 71.3031 52.5262
16283 1 1.81695 71.322 51.2568
21852 2 0.913933 72.9163 52.5585
16052 1 4.54598 72.936 51.2889
16089 1 7.27319 71.322 51.2568
21626 2 6.37017 72.9163 52.5585
15790 1 10.0022 72.936 51.2889
21310 2 11.8264 72.9163 52.5585
15789 1 12.7294 71.322 51.2568
15462 1 15.4585 72.936 51.2889
15495 1 18.1857 71.322 51.2568
21009 2 17.2826 72.9163 52.5585
15158 1 20.9147 72.936 51.2889
16284 1 1.81869 74.5481 51.3193
21851 2 0.915497 76.138 52.619
21850 2 3.64289 74.5279 52.5895
16051 1 4.54758 76.1584 51.3483
16050 1 7.27492 74.5481 51.3193
21628 2 9.09913 74.5279 52.5895
21587 2 6.37174 76.138 52.619
15746 1 10.0038 76.1584 51.3483
21309 2 11.828 76.138 52.619
15792 1 12.7312 74.5481 51.3193
21308 2 14.5554 74.5279 52.5895
15461 1 15.4601 76.1584 51.3483
15460 1 18.1874 74.5481 51.3193
20978 2 17.2842 76.138 52.619
21011 2 20.0116 74.5279 52.5895
15135 1 20.9163 76.1584 51.3483
16259 1 1.82021 77.7671 51.376
21824 2 0.916795 79.3542 52.6744
16016 1 4.54906 79.3743 51.4024
21853 2 3.64428 77.7467 52.6474
16053 1 7.27644 77.7671 51.376
21585 2 9.10052 77.7467 52.6474
21586 2 6.37303 79.3542 52.6744
15745 1 10.0053 79.3743 51.4024
21263 2 11.8293 79.3542 52.6744
15422 1 15.4615 79.3743 51.4024
15744 1 12.7327 77.7671 51.376
21311 2 14.5568 77.7467 52.6474
15463 1 18.1889 77.7671 51.376
20977 2 17.2855 79.3542 52.6744
15134 1 20.9178 79.3743 51.4024
20976 2 20.013 77.7467 52.6474
16260 1 1.82167 80.9804 51.4277
21823 2 0.918016 82.5661 52.7252
16015 1 4.55052 82.5853 51.4519
21822 2 3.64553 80.9606 52.7004
16014 1 7.27791 80.9804 51.4277
21548 2 6.37425 82.5661 52.7252
21588 2 9.10177 80.9606 52.7004
15700 1 10.0068 82.5853 51.4519
21262 2 11.8305 82.5661 52.7252
15421 1 15.463 82.5853 51.4519
15747 1 12.7342 80.9804 51.4277
21261 2 14.558 80.9606 52.7004
15420 1 18.1904 80.9804 51.4277
20938 2 17.2867 82.5661 52.7252
15103 1 20.9192 82.5853 51.4519
20979 2 20.0142 80.9606 52.7004
16236 1 1.82313 84.1893 51.4751
21800 2 0.919223 85.7746 52.7718
15984 1 4.55197 85.7925 51.4974
21825 2 3.64674 84.1707 52.749
16017 1 7.27937 84.1893 51.4751
21546 2 9.10298 84.1707 52.749
21547 2 6.37546 85.7746 52.7718
15699 1 10.0082 85.7925 51.4974
21216 2 11.8317 85.7746 52.7718
15376 1 15.4644 85.7925 51.4974
15698 1 12.7356 84.1893 51.4751
21264 2 14.5592 84.1707 52.749
15423 1 18.1918 84.1893 51.4751
20937 2 17.2879 85.7746 52.7718
15102 1 20.9207 85.7925 51.4974
20936 2 20.0155 84.1707 52.749
16237 1 1.82456 87.3951 51.5187
21799 2 0.920421 88.9806 52.8144
15983 1 4.55338 88.997 51.5391
21798 2 3.64794 87.3779 52.7936
15982 1 7.2808 87.3951 51.5187
21516 2 6.37666 88.9806 52.8144
21549 2 9.10418 87.3779 52.7936
15660 1 10.0096 88.997 51.5391
21215 2 11.8329 88.9806 52.8144
15375 1 15.4659 88.997 51.5391
15701 1 12.737 87.3951 51.5187
21214 2 14.5604 87.3779 52.7936
15374 1 18.1933 87.3951 51.5187
20894 2 17.2891 88.9806 52.8144
15067 1 20.9221 88.997 51.5391
20939 2 20.0167 87.3779 52.7936
16220 1 1.82595 90.5985 51.5585
21801 2 3.64913 90.5829 52.8342
15985 1 7.28219 90.5985 51.5585
21514 2 9.10537 90.5829 52.8342
15658 1 12.7384 90.5985 51.5585
21217 2 14.5616 90.5829 52.8342
15377 1 18.1947 90.5985 51.5585
20892 2 20.0178 90.5829 52.8342
21784 2 0.9216 92.1848 52.8531
16221 1 1.82728 93.8003 51.5948
15960 1 4.55475 92.1996 51.5771
21782 2 3.65029 93.7863 52.8711
21515 2 6.37784 92.1848 52.8531
15958 1 7.28352 93.8003 51.5948
21517 2 9.10653 93.7863 52.8711
15659 1 10.011 92.1996 51.5771
21176 2 11.8341 92.1848 52.8531
15331 1 15.4672 92.1996 51.5771
15661 1 12.7398 93.8003 51.5948
21174 2 14.5628 93.7863 52.8711
20893 2 17.2903 92.1848 52.8531
15329 1 18.196 93.8003 51.5948
15066 1 20.9235 92.1996 51.5771
20895 2 20.019 93.7863 52.8711
21788 2 2.73421 95.4139 50.3313
21995 2 0.00674313 97.0132 50.347
16212 1 1.82853 97.001 51.6275
21783 2 0.92274 95.3876 52.8882
21786 2 5.46298 97.0132 50.347
15959 1 4.55604 95.4008 51.6116
21785 2 3.65141 96.9887 52.9043
21519 2 8.19045 95.4139 50.3313
15961 1 7.28477 97.001 51.6275
21490 2 9.10765 96.9887 52.9043
21492 2 6.37898 95.3876 52.8882
21521 2 10.9192 97.0132 50.347
15628 1 10.0123 95.4008 51.6116
21175 2 11.8352 95.3876 52.8882
21180 2 13.6467 95.4139 50.3313
15330 1 15.4685 95.4008 51.6116
15626 1 12.741 97.001 51.6275
21177 2 14.5639 96.9887 52.9043
21178 2 16.3755 97.0132 50.347
15332 1 18.1972 97.001 51.6275
20851 2 17.2915 95.3876 52.8882
20896 2 19.1029 95.4139 50.3313
15031 1 20.9248 95.4008 51.6116
20849 2 20.0201 96.9887 52.9043
21787 2 2.73548 98.6123 50.3619
21993 2 0.00795335 100.211 50.3759
16213 1 1.82968 100.201 51.6567
21776 2 0.923823 98.5896 52.9195
21789 2 5.46419 100.211 50.3759
15944 1 4.55724 98.601 51.6425
21774 2 3.65246 100.19 52.9338
21496 2 8.19172 98.6123 50.3619
15942 1 7.28592 100.201 51.6567
21491 2 6.38006 98.5896 52.9195
21493 2 9.1087 100.19 52.9338
21494 2 10.9204 100.211 50.3759
15627 1 10.0135 98.601 51.6425
21144 2 11.8363 98.5896 52.9195
21179 2 13.648 98.6123 50.3619
15293 1 15.4697 98.601 51.6425
15629 1 12.7422 100.201 51.6567
21142 2 14.5649 100.19 52.9338
21181 2 16.3767 100.211 50.3759
15291 1 18.1984 100.201 51.6567
20850 2 17.2925 98.5896 52.9195
20854 2 19.1042 98.6123 50.3619
15030 1 20.926 98.601 51.6425
20852 2 20.0212 100.19 52.9338
16147 1 2.70113 53.4616 53.4441
21931 2 1.79688 51.8397 54.7182
16146 1 5.42666 51.8402 53.4297
21694 2 4.52744 53.4597 54.7315
15855 1 8.15736 53.4616 53.4441
21720 2 7.25311 51.8397 54.7182
15879 1 10.8829 51.8402 53.4297
21402 2 9.98368 53.4597 54.7315
15530 1 13.6136 53.4616 53.4441
21046 2 15.4399 53.4597 54.7315
21401 2 12.7094 51.8397 54.7182
15529 1 16.3391 51.8402 53.4297
21056 2 18.1656 51.8397 54.7182
16353 1 21.7954 51.8402 53.4297
15181 1 19.0698 53.4616 53.4441
20712 2 20.8962 53.4597 54.7315
21932 2 1.80248 55.0792 54.7496
16148 1 5.43275 55.0825 53.4635
21692 2 7.25872 55.0792 54.7496
15853 1 10.889 55.0825 53.4635
21403 2 12.715 55.0792 54.7496
15531 1 16.3452 55.0825 53.4635
21044 2 18.1712 55.0792 54.7496
16329 1 21.8015 55.0825 53.4635
16119 1 2.70885 56.7029 53.4874
21904 2 1.81015 58.317 54.7982
21693 2 4.53429 56.6982 54.772
16117 1 5.44166 58.3229 53.5153
15854 1 8.16509 56.7029 53.4874
21695 2 7.26639 58.317 54.7982
21378 2 9.99053 56.6982 54.772
15856 1 10.8979 58.3229 53.5153
15514 1 13.6213 56.7029 53.4874
21045 2 15.4468 56.6982 54.772
21376 2 12.7226 58.317 54.7982
15512 1 16.3541 58.3229 53.5153
21047 2 18.1789 58.317 54.7982
15180 1 19.0776 56.7029 53.4874
20711 2 20.903 56.6982 54.772
16330 1 21.8104 58.3229 53.5153
16118 1 2.71831 59.9428 53.5465
21905 2 1.81809 61.5541 54.8598
16120 1 5.45096 61.5625 53.5804
21662 2 4.54232 59.9356 54.8278
15825 1 8.17455 59.9428 53.5465
21660 2 7.27433 61.5541 54.8598
15823 1 10.9072 61.5625 53.5804
21377 2 9.99856 59.9356 54.8278
15513 1 13.6308 59.9428 53.5465
21030 2 15.4548 59.9356 54.8278
21379 2 12.7306 61.5541 54.8598
15515 1 16.3634 61.5625 53.5804
21028 2 18.1868 61.5541 54.8598
16305 1 21.8197 61.5625 53.5804
15173 1 19.087 59.9428 53.5465
20710 2 20.911 59.9356 54.8278
16084 1 2.72682 63.1823 53.6163
21876 2 1.82474 64.7905 54.9289
16082 1 5.4582 64.8019 53.6534
21661 2 4.54976 63.1724 54.8938
15824 1 8.18305 63.1823 53.6163
21663 2 7.28098 64.7905 54.9289
15826 1 10.9144 64.8019 53.6534
21346 2 10.006 63.1724 54.8938
15490 1 13.6393 63.1823 53.6163
21029 2 15.4622 63.1724 54.8938
21344 2 12.7372 64.7905 54.9289
15488 1 16.3707 64.8019 53.6534
21031 2 18.1935 64.7905 54.9289
16306 1 21.8269 64.8019 53.6534
15172 1 19.0955 63.1823 53.6163
20703 2 20.9185 63.1724 54.8938
16083 1 2.73262 66.421 53.6906
21877 2 1.82942 68.025 54.9999
16085 1 5.46261 68.0393 53.7274
21623 2 4.55545 66.4081 54.9645
15787 1 8.18885 66.421 53.6906
21621 2 7.28565 68.025 54.9999
15785 1 10.9189 68.0393 53.7274
21345 2 10.0117 66.4081 54.9645
15489 1 13.6451 66.421 53.6906
21006 2 15.4679 66.4081 54.9645
21347 2 12.7419 68.025 54.9999
15491 1 16.3751 68.0393 53.7274
21004 2 18.1981 68.025 54.9999
16281 1 21.8313 68.0393 53.7274
15157 1 19.1013 66.421 53.6906
20702 2 20.9242 66.4081 54.9645
16048 1 2.73587 69.6565 53.7631
21848 2 1.83231 71.2555 55.0688
16282 1 0.00878001 71.2724 53.7976
16046 1 5.46502 71.2724 53.7976
21622 2 4.55917 69.6408 55.0348
15786 1 8.19211 69.6565 53.7631
21624 2 7.28855 71.2555 55.0688
15788 1 10.9213 71.2724 53.7976
21306 2 10.0154 69.6408 55.0348
15458 1 13.6483 69.6565 53.7631
21005 2 15.4716 69.6408 55.0348
21304 2 12.7448 71.2555 55.0688
15456 1 16.3775 71.2724 53.7976
21007 2 18.201 71.2555 55.0688
15156 1 19.1046 69.6565 53.7631
20687 2 20.9279 69.6408 55.0348
16047 1 2.73769 72.8868 53.8308
21583 2 4.5614 72.8691 55.1018
15742 1 8.19393 72.8868 53.8308
21305 2 10.0176 72.8691 55.1018
15457 1 13.6502 72.8868 53.8308
20974 2 15.4739 72.8691 55.1018
15133 1 19.1064 72.8868 53.8308
20686 2 20.9301 72.8691 55.1018
21849 2 1.83405 74.4813 55.1336
16012 1 2.7389 76.1112 53.8929
16257 1 0.0102196 74.4997 53.8625
16049 1 5.46646 74.4997 53.8625
21582 2 4.5628 76.0924 55.1643
21581 2 7.29029 74.4813 55.1336
15741 1 8.19514 76.1112 53.8929
15740 1 10.9227 74.4997 53.8625
21259 2 10.019 76.0924 55.1643
21307 2 12.7465 74.4813 55.1336
15418 1 13.6514 76.1112 53.8929
20973 2 15.4753 76.0924 55.1643
15459 1 16.3789 74.4997 53.8625
20972 2 18.2028 74.4813 55.1336
15132 1 19.1076 76.1112 53.8929
20663 2 20.9315 76.0924 55.1643
16011 1 2.7399 79.3301 53.9497
21820 2 1.83521 77.7024 55.1937
16258 1 0.0112895 77.7213 53.9219
16010 1 5.46753 77.7213 53.9219
21544 2 4.5638 79.3112 55.2219
15696 1 8.19614 79.3301 53.9497
21584 2 7.29145 77.7024 55.1937
15743 1 10.9238 77.7213 53.9219
21258 2 10.02 79.3112 55.2219
15417 1 13.6524 79.3301 53.9497
20934 2 15.4763 79.3112 55.2219
21257 2 12.7477 77.7024 55.1937
15416 1 16.38 77.7213 53.9219
20975 2 18.2039 77.7024 55.1937
15101 1 19.1086 79.3301 53.9497
20662 2 20.9325 79.3112 55.2219
15980 1 2.74086 82.5446 54.0018
21821 2 1.83612 80.9191 55.249
16234 1 0.0122608 80.9379 53.9763
16013 1 5.4685 80.9379 53.9763
21543 2 4.56466 82.5262 55.2749
15695 1 8.1971 82.5446 54.0018
21542 2 7.29236 80.9191 55.249
15694 1 10.9247 80.9379 53.9763
21212 2 10.0209 82.5262 55.2749
15372 1 13.6533 82.5446 54.0018
20933 2 15.4771 82.5262 55.2749
21260 2 12.7486 80.9191 55.249
15419 1 16.381 80.9379 53.9763
20932 2 18.2048 80.9191 55.249
15100 1 19.1096 82.5446 54.0018
20632 2 20.9334 82.5262 55.2749
15979 1 2.74185 85.7554 54.0494
21796 2 1.83696 84.1325 55.2998
16235 1 0.0132359 84.1504 54.0261
15978 1 5.46947 84.1504 54.0261
21512 2 4.5655 85.738 55.3235
15656 1 8.19809 85.7554 54.0494
21545 2 7.2932 84.1325 55.2998
15697 1 10.9257 84.1504 54.0261
21211 2 10.0217 85.738 55.3235
15371 1 13.6543 85.7554 54.0494
20890 2 15.478 85.738 55.3235
21210 2 12.7494 84.1325 55.2998
15370 1 16.382 84.1504 54.0261
20935 2 18.2057 84.1325 55.2998
15065 1 19.1106 85.7554 54.0494
20631 2 20.9342 85.738 55.3235
15956 1 2.74287 88.9636 54.0929
21797 2 1.8378 87.343 55.3461
16218 1 0.0142395 87.3598 54.0716
15981 1 5.47048 87.3598 54.0716
21511 2 4.56635 88.9475 55.3677
15655 1 8.19911 88.9636 54.0929
21510 2 7.29404 87.343 55.3461
15654 1 10.9267 87.3598 54.0716
21172 2 10.0226 88.9475 55.3677
15327 1 13.6553 88.9636 54.0929
20889 2 15.4788 88.9475 55.3677
21213 2 12.7503 87.343 55.3461
15373 1 16.383 87.3598 54.0716
20888 2 18.2065 87.343 55.3461
15064 1 19.1116 88.9636 54.0929
20600 2 20.9351 88.9475 55.3677
21780 2 1.83867 90.5515 55.3883
16219 1 0.0152647 90.5669 54.1131
15954 1 5.4715 90.5669 54.1131
21513 2 7.29491 90.5515 55.3883
15657 1 10.9277 90.5669 54.1131
21170 2 12.7512 90.5515 55.3883
15325 1 16.384 90.5669 54.1131
20891 2 18.2074 90.5515 55.3883
15955 1 2.7439 92.1698 54.1323
21781 2 1.83956 93.7584 55.4264
16210 1 0.0162934 93.7723 54.1506
21488 2 4.56724 92.1551 55.4078
15957 1 5.47253 93.7723 54.1506
15624 1 8.20014 92.1698 54.1323
21486 2 7.2958 93.7584 55.4264
21171 2 10.0235 92.1551 55.4078
15622 1 10.9288 93.7723 54.1506
15326 1 13.6564 92.1698 54.1323
20847 2 15.4797 92.1551 55.4078
21173 2 12.752 93.7584 55.4264
15328 1 16.385 93.7723 54.1506
20845 2 18.2083 93.7584 55.4264
15029 1 19.1126 92.1698 54.1323
20599 2 20.936 92.1551 55.4078
15940 1 2.74492 95.3745 54.1679
16211 1 0.0173042 96.9765 54.1842
21772 2 1.84046 96.9642 55.4605
15938 1 5.47354 96.9765 54.1842
21487 2 4.56813 95.3614 55.4439
15623 1 8.20116 95.3745 54.1679
21489 2 7.2967 96.9642 55.4605
15625 1 10.9298 96.9765 54.1842
21140 2 10.0244 95.3614 55.4439
15289 1 13.6574 95.3745 54.1679
20846 2 15.4806 95.3614 55.4439
21138 2 12.7529 96.9642 55.4605
15287 1 16.386 96.9765 54.1842
20848 2 18.2092 96.9642 55.4605
15028 1 19.1136 95.3745 54.1679
20568 2 20.9368 95.3614 55.4439
15939 1 2.74592 98.5783 54.1996
16209 1 0.0182753 100.18 54.214
21773 2 1.84134 100.169 55.4907
15941 1 5.47451 100.18 54.214
21472 2 4.56902 98.5668 55.4761
15600 1 8.20215 98.5783 54.1996
21470 2 7.29758 100.169 55.4907
15598 1 10.9308 100.18 54.214
21139 2 10.0253 98.5668 55.4761
15288 1 13.6584 98.5783 54.1996
20811 2 15.4815 98.5668 55.4761
21141 2 12.7538 100.169 55.4907
15290 1 16.387 100.18 54.214
20809 2 18.2101 100.169 55.4907
14994 1 19.1146 98.5783 54.1996
20567 2 20.9377 98.5668 55.4761
16115 1 0.898617 53.4498 56.0071
21690 2 2.72418 53.4483 57.2938
21930 2 -0.00577956 51.833 57.2815
16111 1 1.82071 51.8287 58.5582
16145 1 3.62469 51.8332 55.994
21689 2 5.45046 51.833 57.2815
15817 1 4.55049 53.4414 58.5701
15850 1 9.08093 51.8332 55.994
15851 1 6.35486 53.4498 56.0071
21374 2 8.18042 53.4483 57.2938
15849 1 7.27695 51.8287 58.5582
15510 1 11.8111 53.4498 56.0071
21400 2 10.9067 51.833 57.2815
15506 1 10.0067 53.4414 58.5701
15528 1 14.5372 51.8332 55.994
21042 2 13.6367 53.4483 57.2938
15166 1 15.463 53.4414 58.5701
15505 1 12.7332 51.8287 58.5582
15178 1 17.2673 53.4498 56.0071
21041 2 16.3629 51.833 57.2815
15176 1 18.1894 51.8287 58.5582
15177 1 19.9934 51.8332 55.994
20709 2 19.0929 53.4483 57.2938
14896 1 20.9192 53.4414 58.5701
21902 2 -0.00152828 55.0635 57.3105
16112 1 1.82456 55.0542 58.5864
16113 1 3.62944 55.0663 56.0249
21691 2 5.45471 55.0635 57.3105
15852 1 9.08568 55.0663 56.0249
15815 1 7.28079 55.0542 58.5864
21372 2 10.9109 55.0635 57.3105
15508 1 14.5419 55.0663 56.0249
15507 1 12.737 55.0542 58.5864
21043 2 16.3672 55.0635 57.3105
15164 1 18.1933 55.0542 58.5864
15179 1 19.9982 55.0663 56.0249
16114 1 0.904553 56.6828 56.0468
21658 2 2.72943 56.6787 57.3311
16076 1 1.83001 58.2805 58.6301
21903 2 0.00441245 58.2939 57.3553
16116 1 3.63625 58.2993 56.0724
21656 2 5.46065 58.2939 57.3553
15816 1 4.55527 56.6672 58.6065
15821 1 6.36079 56.6828 56.0468
21373 2 8.18566 56.6787 57.3311
15819 1 9.09248 58.2993 56.0724
15818 1 7.28625 58.2805 58.6301
15509 1 11.817 56.6828 56.0468
21375 2 10.9169 58.2939 57.3553
15482 1 10.0115 56.6672 58.6065
21026 2 13.6419 56.6787 57.3311
15511 1 14.5487 58.2993 56.0724
15480 1 12.7425 58.2805 58.6301
15165 1 15.4677 56.6672 58.6065
15170 1 17.2733 56.6828 56.0468
15167 1 18.1987 58.2805 58.6301
21024 2 16.3731 58.2939 57.3553
20708 2 19.0981 56.6787 57.3311
15168 1 20.005 58.2993 56.0724
14895 1 20.924 56.6672 58.6065
16080 1 0.911828 59.9159 56.101
16077 1 1.83598 61.5077 58.6858
21657 2 2.73575 59.9092 57.3826
21874 2 0.0107931 61.5246 57.4123
16078 1 3.64356 61.5325 56.1323
15779 1 4.56113 59.894 58.6567
21659 2 5.46703 61.5246 57.4123
15820 1 6.36807 59.9159 56.101
15822 1 9.0998 61.5325 56.1323
15777 1 7.29222 61.5077 58.6858
21342 2 8.19199 59.9092 57.3826
15486 1 11.8243 59.9159 56.101
15481 1 10.0174 59.894 58.6567
21340 2 10.9233 61.5246 57.4123
15484 1 14.556 61.5325 56.1323
15150 1 15.4736 59.894 58.6567
15483 1 12.7485 61.5077 58.6858
21025 2 13.6482 59.9092 57.3826
15169 1 17.2805 59.9159 56.101
15148 1 18.2047 61.5077 58.6858
21027 2 16.3795 61.5246 57.4123
15171 1 20.0123 61.5325 56.1323
14894 1 20.9298 59.894 58.6567
20701 2 19.1045 59.9092 57.3826
16079 1 0.918778 63.1493 56.1655
16040 1 1.84135 64.7358 58.7494
21619 2 2.74189 63.14 57.444
21875 2 0.0164607 64.7554 57.4771
16081 1 3.64981 64.766 56.2
15778 1 4.56692 63.1217 58.7168
21617 2 5.4727 64.7554 57.4771
15781 1 9.10604 64.766 56.2
15783 1 6.37502 63.1493 56.1655
15780 1 7.29759 64.7358 58.7494
21341 2 8.19813 63.14 57.444
15485 1 11.8313 63.1493 56.1655
15450 1 10.0232 63.1217 58.7168
21343 2 10.9289 64.7554 57.4771
15487 1 14.5623 64.766 56.2
15149 1 15.4794 63.1217 58.7168
15448 1 12.7538 64.7358 58.7494
21002 2 13.6544 63.14 57.444
15154 1 17.2875 63.1493 56.1655
15151 1 18.2101 64.7358 58.7494
21000 2 16.3852 64.7554 57.4771
15152 1 20.0185 64.766 56.2
14887 1 20.9356 63.1217 58.7168
20700 2 19.1106 63.14 57.444
16044 1 0.924093 66.3826 56.2353
16041 1 1.84538 67.9641 58.8172
21618 2 2.74691 66.3707 57.511
21846 2 0.0207431 67.9856 57.5453
16042 1 3.65411 67.9989 56.2708
15734 1 4.57168 66.35 58.783
21620 2 5.47698 67.9856 57.5453
15782 1 6.38033 66.3826 56.2353
15784 1 9.11035 67.9989 56.2708
15732 1 7.30162 67.9641 58.8172
21302 2 8.20315 66.3707 57.511
15454 1 11.8366 66.3826 56.2353
15449 1 10.0279 66.35 58.783
21300 2 10.9332 67.9856 57.5453
15452 1 14.5666 67.9989 56.2708
15126 1 15.4842 66.35 58.783
15451 1 12.7579 67.9641 58.8172
21001 2 13.6594 66.3707 57.511
15153 1 17.2928 66.3826 56.2353
15124 1 18.2141 67.9641 58.8172
21003 2 16.3895 67.9856 57.5453
15155 1 20.0228 67.9989 56.2708
14886 1 20.9404 66.35 58.783
20685 2 19.1156 66.3707 57.511
16043 1 0.927437 69.6145 56.3059
16004 1 1.84795 71.1915 58.8855
21579 2 2.75044 69.6001 57.5795
21847 2 0.0235711 71.2139 57.6133
16045 1 3.65663 71.2294 56.3404
15733 1 4.57496 69.578 58.8515
21577 2 5.47981 71.2139 57.6133
15736 1 9.11287 71.2294 56.3404
15738 1 6.38368 69.6145 56.3059
15735 1 7.30419 71.1915 58.8855
21301 2 8.20668 69.6001 57.5795
15453 1 11.8399 69.6145 56.3059
15410 1 10.0312 69.578 58.8515
21303 2 10.936 71.2139 57.6133
15455 1 14.5691 71.2294 56.3404
15125 1 15.4874 69.578 58.8515
15408 1 12.7604 71.1915 58.8855
20970 2 13.6629 69.6001 57.5795
15130 1 17.2962 69.6145 56.3059
15127 1 18.2167 71.1915 58.8855
20968 2 16.3923 71.2139 57.6133
15128 1 20.0253 71.2294 56.3404
14871 1 20.9437 69.578 58.8515
20684 2 19.1192 69.6001 57.5795
16008 1 0.929304 72.8433 56.3739
21578 2 2.75266 72.8269 57.6464
15688 1 4.5769 72.8045 58.919
15737 1 6.38554 72.8433 56.3739
21255 2 8.2089 72.8269 57.6464
15414 1 11.8418 72.8433 56.3739
15409 1 10.0331 72.8045 58.919
15094 1 15.4894 72.8045 58.919
20969 2 13.6651 72.8269 57.6464
15129 1 17.298 72.8433 56.3739
14870 1 20.9456 72.8045 58.919
20661 2 19.1214 72.8269 57.6464
16005 1 1.84939 74.4169 58.9518
21818 2 0.0252828 74.4392 57.6787
16007 1 0.930356 76.0681 56.4377
21540 2 2.75398 76.0506 57.71
16006 1 3.65802 74.4562 56.4064
21580 2 5.48152 74.4392 57.6787
15739 1 9.11426 74.4562 56.4064
15686 1 7.30563 74.4169 58.9518
15692 1 6.38659 76.0681 56.4377
21254 2 8.21022 76.0506 57.71
21253 2 10.9378 74.4392 57.6787
15413 1 11.8428 76.0681 56.4377
15412 1 14.5705 74.4562 56.4064
15411 1 12.7619 74.4169 58.9518
20930 2 13.6665 76.0506 57.71
15092 1 18.2181 74.4169 58.9518
20971 2 16.394 74.4392 57.6787
15098 1 17.2991 76.0681 56.4377
15131 1 20.0267 74.4562 56.4064
20660 2 19.1227 76.0506 57.71
15976 1 0.931051 79.2888 56.4967
21539 2 2.7548 79.2708 57.7694
21819 2 0.0263113 77.6611 57.7402
16009 1 3.65885 77.6789 56.4678
21538 2 5.48255 77.6611 57.7402
15690 1 9.11509 77.6789 56.4678
15691 1 6.38729 79.2888 56.4967
21208 2 8.21104 79.2708 57.7694
15368 1 11.8435 79.2888 56.4967
21256 2 10.9388 77.6611 57.7402
15415 1 14.5713 77.6789 56.4678
20929 2 13.6673 79.2708 57.7694
15097 1 17.2998 79.2888 56.4967
20928 2 16.395 77.6611 57.7402
15096 1 20.0276 77.6789 56.4678
20630 2 19.1235 79.2708 57.7694
15975 1 0.931641 82.5057 56.551
21508 2 2.7554 82.488 57.8242
21794 2 0.0269974 80.8797 57.7974
15974 1 3.65947 80.8976 56.5244
21541 2 5.48324 80.8797 57.7974
15652 1 6.38788 82.5057 56.551
15693 1 9.11571 80.8976 56.5244
21207 2 8.21164 82.488 57.8242
15367 1 11.8441 82.5057 56.551
21206 2 10.9395 80.8797 57.7974
15366 1 14.5719 80.8976 56.5244
20886 2 13.6679 82.488 57.8242
15062 1 17.3004 82.5057 56.551
20931 2 16.3957 80.8797 57.7974
15099 1 20.0282 80.8976 56.5244
20629 2 19.1241 82.488 57.8242
15952 1 0.932242 85.7194 56.6006
21507 2 2.75595 85.7025 57.8745
21795 2 0.0275562 84.0955 57.8499
15977 1 3.66006 84.1129 56.5763
21506 2 5.48379 84.0955 57.8499
15650 1 9.11629 84.1129 56.5763
15651 1 6.38848 85.7194 56.6006
21168 2 8.21219 85.7025 57.8745
15323 1 11.8447 85.7194 56.6006
21209 2 10.94 84.0955 57.8499
15369 1 14.5725 84.1129 56.5763
20885 2 13.6684 85.7025 57.8745
15061 1 17.301 85.7194 56.6006
20884 2 16.3963 84.0955 57.8499
15060 1 20.0288 84.1129 56.5763
20598 2 19.1247 85.7025 57.8745
15951 1 0.932898 88.9308 56.6457
21484 2 2.75651 88.915 57.9203
21778 2 0.0281054 87.309 57.8979
15950 1 3.66068 87.3254 56.6237
21509 2 5.48434 87.309 57.8979
15620 1 6.38914 88.9308 56.6457
15653 1 9.11692 87.3254 56.6237
21167 2 8.21275 88.915 57.9203
15322 1 11.8454 88.9308 56.6457
21166 2 10.9406 87.309 57.8979
15321 1 14.5732 87.3254 56.6237
20843 2 13.669 88.915 57.9203
15026 1 17.3016 88.9308 56.6457
20887 2 16.3968 87.309 57.8979
15063 1 20.0294 87.3254 56.6237
20597 2 19.1252 88.915 57.9203
21779 2 0.0286987 90.5205 57.9415
15953 1 3.66137 90.5357 56.6666
21482 2 5.48494 90.5205 57.9415
15618 1 9.11761 90.5357 56.6666
21169 2 10.9412 90.5205 57.9415
15324 1 14.5738 90.5357 56.6666
20841 2 16.3974 90.5205 57.9415
15024 1 20.0301 90.5357 56.6666
15936 1 0.933617 92.1402 56.6865
21483 2 2.75714 92.1258 57.9616
21770 2 0.0293507 93.7307 57.9807
15934 1 3.66212 93.7444 56.7053
21485 2 5.48559 93.7307 57.9807
15619 1 6.38986 92.1402 56.6865
21136 2 8.21338 92.1258 57.9616
15621 1 9.11835 93.7444 56.7053
15285 1 11.8461 92.1402 56.6865
21134 2 10.9418 93.7307 57.9807
20842 2 13.6696 92.1258 57.9616
15283 1 14.5746 93.7444 56.7053
15025 1 17.3023 92.1402 56.6865
20844 2 16.3981 93.7307 57.9807
20566 2 19.1259 92.1258 57.9616
15027 1 20.0308 93.7444 56.7053
15935 1 0.934385 95.3484 56.7231
21468 2 2.75782 95.3354 57.9987
21771 2 0.0300528 96.9398 58.0157
15937 1 3.6629 96.952 56.7399
21466 2 5.48629 96.9398 58.0157
15594 1 9.11914 96.952 56.7399
15596 1 6.39062 95.3484 56.7231
21135 2 8.21405 95.3354 57.9987
15284 1 11.8469 95.3484 56.7231
21137 2 10.9425 96.9398 58.0157
15286 1 14.5754 96.952 56.7399
20807 2 13.6703 95.3354 57.9987
14991 1 17.3031 95.3484 56.7231
20805 2 16.3988 96.9398 58.0157
14989 1 20.0316 96.952 56.7399
20565 2 19.1265 95.3354 57.9987
15928 1 0.935179 98.5555 56.7556
21467 2 2.75854 98.5441 58.0316
21769 2 0.030783 100.148 58.0465
15926 1 3.6637 100.159 56.7704
21469 2 5.48702 100.148 58.0465
15595 1 6.39142 98.5555 56.7556
15597 1 9.11993 100.159 56.7704
21112 2 8.21477 98.5441 58.0316
15255 1 11.8477 98.5555 56.7556
21110 2 10.9433 100.148 58.0465
15253 1 14.5762 100.159 56.7704
20806 2 13.671 98.5441 58.0316
14990 1 17.3039 98.5555 56.7556
20808 2 16.3995 100.148 58.0465
14992 1 20.0324 100.159 56.7704
20535 2 19.1273 98.5441 58.0316
21654 2 0.919312 53.4399 59.8559
15813 1 2.74483 53.435 61.1328
16110 1 0.0153216 51.8257 61.1218
21688 2 3.64596 51.8285 59.8446
15812 1 5.47156 51.8257 61.1218
21369 2 9.10219 51.8285 59.8446
21370 2 6.37555 53.4399 59.8559
15478 1 8.20106 53.435 61.1328
21022 2 11.8318 53.4399 59.8559
15504 1 10.9278 51.8257 61.1218
21040 2 14.5584 51.8285 59.8446
15162 1 13.6573 53.435 61.1328
20706 2 17.288 53.4399 59.8559
15161 1 16.384 51.8257 61.1218
20705 2 20.0147 51.8285 59.8446
14893 1 19.1135 53.435 61.1328
16074 1 0.01852 55.0446 61.1477
21652 2 3.64936 55.0515 59.8713
15814 1 5.47476 55.0446 61.1477
21371 2 9.1056 55.0515 59.8713
15476 1 10.931 55.0446 61.1477
21020 2 14.5618 55.0515 59.8713
15163 1 16.3872 55.0446 61.1477
20707 2 20.0181 55.0515 59.8713
21653 2 0.923525 56.6633 59.8904
15775 1 2.74879 56.6545 61.1664
16075 1 0.0230527 58.2648 61.1884
21655 2 3.65417 58.2752 59.9129
15773 1 5.47929 58.2648 61.1884
21338 2 6.37976 56.6633 59.8904
15477 1 8.20503 56.6545 61.1664
21336 2 9.11041 58.2752 59.9129
21021 2 11.836 56.6633 59.8904
15479 1 10.9355 58.2648 61.1884
15146 1 13.6613 56.6545 61.1664
21023 2 14.5666 58.2752 59.9129
20698 2 17.2922 56.6633 59.8904
15144 1 16.3918 58.2648 61.1884
14892 1 19.1175 56.6545 61.1664
20696 2 20.0229 58.2752 59.9129
21615 2 0.928695 59.8875 59.9383
15774 1 2.75368 59.8754 61.2132
16038 1 0.028072 61.4864 61.2406
21613 2 3.65946 61.4999 59.9661
15776 1 5.48431 61.4864 61.2406
21337 2 6.38493 59.8875 59.9383
21339 2 9.1157 61.4999 59.9661
15446 1 8.20991 59.8754 61.2132
20998 2 11.8412 59.8875 59.9383
15444 1 10.9405 61.4864 61.2406
20996 2 14.5719 61.4999 59.9661
15145 1 13.6662 59.8754 61.2132
20697 2 17.2974 59.8875 59.9383
15147 1 16.3968 61.4864 61.2406
20699 2 20.0282 61.4999 59.9661
14885 1 19.1224 59.8754 61.2132
21614 2 0.933881 63.1126 59.996
15730 1 2.75861 63.0977 61.27
16039 1 0.0327365 64.7093 61.301
21616 2 3.66435 64.7254 60.0274
15728 1 5.48897 64.7093 61.301
21296 2 9.12059 64.7254 60.0274
21298 2 6.39012 63.1126 59.996
15445 1 8.21485 63.0977 61.27
20997 2 11.8464 63.1126 59.996
15447 1 10.9452 64.7093 61.301
20999 2 14.5768 64.7254 60.0274
15122 1 13.6711 63.0977 61.27
20682 2 17.3026 63.1126 59.996
15120 1 16.4015 64.7093 61.301
20680 2 20.0331 64.7254 60.0274
14884 1 19.1273 63.0977 61.27
21575 2 0.938321 66.3384 60.0599
15729 1 2.76285 66.3212 61.3332
16002 1 0.0364448 67.9332 61.3662
21573 2 3.66824 67.9513 60.093
15731 1 5.49268 67.9332 61.3662
21297 2 6.39456 66.3384 60.0599
21299 2 9.12448 67.9513 60.093
15406 1 8.21909 66.3212 61.3332
20966 2 11.8508 66.3384 60.0599
15404 1 10.9489 67.9332 61.3662
20964 2 14.5807 67.9513 60.093
15121 1 13.6753 66.3212 61.3332
20681 2 17.307 66.3384 60.0599
15123 1 16.4052 67.9332 61.3662
20683 2 20.037 67.9513 60.093
14869 1 19.1316 66.3212 61.3332
21574 2 0.941627 69.5641 60.1264
15684 1 2.76598 69.5453 61.3996
16003 1 0.038983 71.1573 61.4331
21576 2 3.67096 71.1766 60.1598
15682 1 5.49522 71.1573 61.4331
21249 2 9.1272 71.1766 60.1598
21251 2 6.39787 69.5641 60.1264
15405 1 8.22222 69.5453 61.3996
20965 2 11.8541 69.5641 60.1264
15407 1 10.9515 71.1573 61.4331
20967 2 14.5834 71.1766 60.1598
15090 1 13.6785 69.5453 61.3996
20658 2 17.3103 69.5641 60.1264
15088 1 16.4077 71.1573 61.4331
20656 2 20.0397 71.1766 60.1598
14868 1 19.1347 69.5453 61.3996
21536 2 0.943804 72.7888 60.1928
15683 1 2.76797 72.7691 61.4663
21250 2 6.40004 72.7888 60.1928
15360 1 8.2242 72.7691 61.4663
20926 2 11.8563 72.7888 60.1928
15089 1 13.6804 72.7691 61.4663
20657 2 17.3125 72.7888 60.1928
14846 1 19.1367 72.7691 61.4663
15970 1 0.040487 74.3806 61.499
21535 2 0.945105 76.0117 60.2568
15644 1 2.76906 75.9919 61.531
15687 1 4.57795 76.0286 58.9836
21534 2 3.67266 74.4005 60.2252
15685 1 5.49673 74.3806 61.499
21252 2 9.1289 74.4005 60.2252
21204 2 6.40134 76.0117 60.2568
15359 1 8.2253 75.9919 61.531
15364 1 10.0342 76.0286 58.9836
15358 1 10.953 74.3806 61.499
20925 2 11.8576 76.0117 60.2568
15093 1 15.4904 76.0286 58.9836
20924 2 14.5851 74.4005 60.2252
15054 1 13.6815 75.9919 61.531
15091 1 16.4092 74.3806 61.499
20627 2 17.3138 76.0117 60.2568
14848 1 20.9467 76.0286 58.9836
20659 2 20.0414 74.4005 60.2252
14845 1 19.1378 75.9919 61.531
15972 1 1.85014 77.6396 59.0144
21504 2 0.945846 79.2325 60.3173
15643 1 2.76959 79.2131 61.5924
15971 1 0.0412621 77.6027 61.5622
15648 1 4.5785 79.2499 59.0441
21537 2 3.67365 77.6224 60.2875
15642 1 5.4975 77.6027 61.5622
15689 1 7.30638 77.6396 59.0144
21202 2 9.12988 77.6224 60.2875
21203 2 6.40208 79.2325 60.3173
15315 1 8.22583 79.2131 61.5924
15363 1 10.0347 79.2499 59.0441
20882 2 11.8583 79.2325 60.3173
15361 1 10.9537 77.6027 61.5622
15058 1 15.491 79.2499 59.0441
15362 1 12.7626 77.6396 59.0144
20927 2 14.5861 77.6224 60.2875
15053 1 13.6821 79.2131 61.5924
15095 1 18.2189 77.6396 59.0144
20626 2 17.3146 79.2325 60.3173
15052 1 16.41 77.6027 61.5622
14847 1 20.9472 79.2499 59.0441
20625 2 20.0424 77.6224 60.2875
14822 1 19.1383 79.2131 61.5924
15973 1 1.85057 80.8595 59.0727
21503 2 0.946294 82.4512 60.3735
15612 1 2.76983 82.4327 61.6495
15946 1 0.0416167 80.8231 61.6215
15647 1 4.57885 82.4684 59.1
21502 2 3.67421 80.8421 60.346
15645 1 5.49786 80.8231 61.6215
15646 1 7.3068 80.8595 59.0727
21164 2 6.40253 82.4512 60.3735
21205 2 9.13045 80.8421 60.346
15314 1 8.22607 82.4327 61.6495
15319 1 10.0351 82.4684 59.1
20881 2 11.8588 82.4512 60.3735
15313 1 10.9541 80.8231 61.6215
15057 1 15.4913 82.4684 59.1
15365 1 12.763 80.8595 59.0727
20880 2 14.5867 80.8421 60.346
15018 1 13.6823 82.4327 61.6495
15056 1 18.2193 80.8595 59.0727
20595 2 17.315 82.4512 60.3735
15055 1 16.4103 80.8231 61.6215
14824 1 20.9476 82.4684 59.1
20628 2 20.0429 80.8421 60.346
14821 1 19.1385 82.4327 61.6495
15948 1 1.85089 84.0768 59.1263
21480 2 0.946639 85.6679 60.4252
15611 1 2.76999 85.6505 61.702
15947 1 0.0417923 84.0418 61.6764
15616 1 4.57917 85.6845 59.1513
21505 2 3.67459 84.0598 60.3999
15610 1 5.49803 84.0418 61.6764
15649 1 7.30712 84.0768 59.1263
21162 2 9.13083 84.0598 60.3999
21163 2 6.40288 85.6679 60.4252
15277 1 8.22622 85.6505 61.702
15318 1 10.0354 85.6845 59.1513
20839 2 11.8591 85.6679 60.4252
15316 1 10.9543 84.0418 61.6764
15317 1 12.7634 84.0768 59.1263
15022 1 15.4916 85.6845 59.1513
20883 2 14.5871 84.0598 60.3999
15017 1 13.6825 85.6505 61.702
15059 1 18.2196 84.0768 59.1263
20594 2 17.3154 85.6679 60.4252
15016 1 16.4105 84.0418 61.6764
14823 1 20.9479 85.6845 59.1513
20593 2 20.0433 84.0598 60.3999
14798 1 19.1387 85.6505 61.702
15949 1 1.85123 87.2918 59.1752
21479 2 0.946997 88.883 60.4723
15588 1 2.77018 88.867 61.7498
15930 1 0.0419528 87.2589 61.7265
15615 1 4.57954 88.8986 59.1979
21478 2 3.67493 87.2756 60.4493
15613 1 5.49819 87.2589 61.7265
15614 1 7.30746 87.2918 59.1752
21132 2 6.40324 88.883 60.4723
21165 2 9.13117 87.2756 60.4493
15276 1 8.22642 88.867 61.7498
15281 1 10.0358 88.8986 59.1979
20838 2 11.8595 88.883 60.4723
15275 1 10.9544 87.2589 61.7265
15021 1 15.492 88.8986 59.1979
15320 1 12.7637 87.2918 59.1752
20837 2 14.5874 87.2756 60.4493
14983 1 13.6827 88.867 61.7498
15020 1 18.2199 87.2918 59.1752
20563 2 17.3157 88.883 60.4723
15019 1 16.4107 87.2589 61.7265
14800 1 20.9483 88.8986 59.1979
20596 2 20.0436 87.2756 60.4493
14797 1 19.1389 88.867 61.7498
15932 1 1.85164 90.505 59.2195
15931 1 0.04219 90.4747 61.7719
21481 2 3.67532 90.49 60.494
15586 1 5.49843 90.4747 61.7719
15617 1 7.30788 90.505 59.2195
21130 2 9.13156 90.49 60.494
15278 1 10.9547 90.4747 61.7719
15279 1 12.7641 90.505 59.2195
20840 2 14.5878 90.49 60.494
15023 1 18.2204 90.505 59.2195
14981 1 16.4109 90.4747 61.7719
20561 2 20.044 90.49 60.494
21464 2 0.947424 92.0967 60.5147
15933 1 1.85215 93.7168 59.2592
15592 1 4.58001 92.1111 59.2399
21462 2 3.67579 93.7032 60.5342
21131 2 6.40366 92.0967 60.5147
15590 1 7.30839 93.7168 59.2592
21133 2 9.13203 93.7032 60.5342
15280 1 10.0362 92.1111 59.2399
20803 2 11.8599 92.0967 60.5147
14987 1 15.4925 92.1111 59.2399
15282 1 12.7646 93.7168 59.2592
20801 2 14.5883 93.7032 60.5342
20562 2 17.3161 92.0967 60.5147
14985 1 18.2209 93.7168 59.2592
14799 1 20.9487 92.1111 59.2399
20564 2 20.0445 93.7032 60.5342
15924 1 1.85275 96.9277 59.2947
21463 2 0.947937 95.3095 60.5527
15591 1 4.58056 95.3224 59.2775
21465 2 3.67634 96.9156 60.57
15593 1 7.30899 96.9277 59.2947
21106 2 9.13258 96.9156 60.57
21108 2 6.40418 95.3095 60.5527
15251 1 10.0368 95.3224 59.2775
20802 2 11.8604 95.3095 60.5527
14986 1 15.493 95.3224 59.2775
15249 1 12.7652 96.9277 59.2947
20804 2 14.5888 96.9156 60.57
14988 1 18.2215 96.9277 59.2947
20532 2 17.3167 95.3095 60.5527
14776 1 20.9493 95.3224 59.2775
20530 2 20.0451 96.9156 60.57
15925 1 1.8534 100.138 59.3259
21456 2 0.948525 98.5215 60.5863
15576 1 4.58119 98.5328 59.3108
21454 2 3.67696 100.127 60.6015
15574 1 7.30964 100.138 59.3259
21107 2 6.40476 98.5215 60.5863
21109 2 9.1332 100.127 60.6015
15250 1 10.0374 98.5328 59.3108
20775 2 11.861 98.5215 60.5863
14959 1 15.4937 98.5328 59.3108
15252 1 12.7659 100.138 59.3259
20773 2 14.5894 100.127 60.6015
14957 1 18.2221 100.138 59.3259
20531 2 17.3172 98.5215 60.5863
14775 1 20.9499 98.5328 59.3108
20533 2 20.0457 100.127 60.6015
21650 2 1.84012 51.8253 62.407
15771 1 0.938145 53.4298 63.6951
21334 2 4.56947 53.4334 62.4175
15811 1 3.66509 51.8235 63.6849
21368 2 7.29636 51.8253 62.407
15473 1 9.12132 51.8235 63.6849
15474 1 6.39438 53.4298 63.6951
21018 2 10.0257 53.4334 62.4175
15142 1 11.8506 53.4298 63.6951
20694 2 15.4819 53.4334 62.4175
21017 2 12.7526 51.8253 62.407
15160 1 14.5776 51.8235 63.6849
20704 2 18.2088 51.8253 62.407
14890 1 17.3069 53.4298 63.6951
20456 2 20.9382 53.4334 62.4175
14889 1 20.0338 51.8235 63.6849
21651 2 1.84296 55.0417 62.4318
15769 1 3.6678 55.0364 63.7092
21332 2 7.2992 55.0417 62.4318
15475 1 9.12404 55.0364 63.7092
21019 2 12.7554 55.0417 62.4318
15140 1 14.5803 55.0364 63.7092
20692 2 18.2117 55.0417 62.4318
14891 1 20.0365 55.0364 63.7092
15770 1 0.941509 56.6434 63.7267
21611 2 1.847 58.2591 62.4707
21333 2 4.57299 56.6502 62.4496
15772 1 3.67166 58.2508 63.7473
15442 1 6.39775 56.6434 63.7267
21335 2 7.30324 58.2591 62.4707
15440 1 9.1279 58.2508 63.7473
20994 2 10.0292 56.6502 62.4496
15141 1 11.854 56.6434 63.7267
20693 2 15.4855 56.6502 62.4496
20992 2 12.7595 58.2591 62.4707
15143 1 14.5841 58.2508 63.7473
14882 1 17.3102 56.6434 63.7267
20695 2 18.2157 58.2591 62.4707
20455 2 20.9417 56.6502 62.4496
14880 1 20.0404 58.2508 63.7473
21612 2 1.85151 61.4781 62.5209
15726 1 0.945682 59.8586 63.7709
21294 2 4.57736 59.8684 62.4946
15724 1 3.67597 61.4669 63.7968
21292 2 7.30775 61.4781 62.5209
15441 1 6.40192 59.8586 63.7709
15443 1 9.13221 61.4669 63.7968
20993 2 10.0336 59.8684 62.4946
15118 1 11.8582 59.8586 63.7709
20678 2 15.4898 59.8684 62.4946
20995 2 12.764 61.4781 62.5209
15116 1 14.5884 61.4669 63.7968
20676 2 18.2202 61.4781 62.5209
14881 1 17.3144 59.8586 63.7709
20454 2 20.9461 59.8684 62.4946
14883 1 20.0447 61.4669 63.7968
21571 2 1.85579 64.6985 62.5794
15725 1 0.949969 63.0757 63.8249
21293 2 4.58184 63.0881 62.5493
15727 1 3.68008 64.6849 63.8546
21295 2 7.31203 64.6985 62.5794
15400 1 9.13632 64.6849 63.8546
15402 1 6.40621 63.0757 63.8249
20962 2 10.0381 63.0881 62.5493
15117 1 11.8624 63.0757 63.8249
20677 2 15.4943 63.0881 62.5493
20960 2 12.7683 64.6985 62.5794
15119 1 14.5926 64.6849 63.8546
20679 2 18.2245 64.6985 62.5794
14866 1 17.3187 63.0757 63.8249
20447 2 20.9506 63.0881 62.5493
14864 1 20.0488 64.6849 63.8546
21572 2 1.85934 67.9201 62.6427
15680 1 0.953768 66.2946 63.8857
21247 2 4.5858 66.3092 62.6106
15678 1 3.68348 67.9045 63.9176
21245 2 7.31558 67.9201 62.6427
15401 1 6.41001 66.2946 63.8857
15403 1 9.13971 67.9045 63.9176
20961 2 10.042 66.3092 62.6106
15086 1 11.8662 66.2946 63.8857
20654 2 15.4983 66.3092 62.6106
20963 2 12.7718 67.9201 62.6427
15084 1 14.596 67.9045 63.9176
20652 2 18.2281 67.9201 62.6427
14865 1 17.3225 66.2946 63.8857
20446 2 20.9545 66.3092 62.6106
14867 1 20.0522 67.9045 63.9176
21532 2 1.86194 71.1422 62.7081
15679 1 0.956706 69.5148 63.9502
21246 2 4.58888 69.5311 62.6753
15681 1 3.68594 71.1252 63.983
21248 2 7.31818 71.1422 62.7081
15354 1 9.14217 71.1252 63.983
15356 1 6.41294 69.5148 63.9502
20922 2 10.0451 69.5311 62.6753
15085 1 11.8692 69.5148 63.9502
20653 2 15.5014 69.5311 62.6753
20920 2 12.7744 71.1422 62.7081
15087 1 14.5984 71.1252 63.983
20655 2 18.2307 71.1422 62.7081
14843 1 17.3254 69.5148 63.9502
20431 2 20.9576 69.5311 62.6753
14841 1 20.0547 71.1252 63.983
15640 1 0.9587 72.7358 64.0158
21200 2 4.59101 72.7533 62.7408
15355 1 6.41494 72.7358 64.0158
20921 2 10.0473 72.7533 62.7408
15050 1 11.8712 72.7358 64.0158
20623 2 15.5035 72.7533 62.7408
14842 1 17.3274 72.7358 64.0158
20430 2 20.9597 72.7533 62.7408
21533 2 1.86364 74.3643 62.7731
15639 1 0.959878 75.957 64.0803
15638 1 3.6875 74.3464 64.0483
21199 2 4.59233 75.975 62.8048
21198 2 7.31988 74.3643 62.7731
15357 1 9.14374 74.3464 64.0483
15311 1 6.41612 75.957 64.0803
20878 2 10.0486 75.975 62.8048
15049 1 11.8724 75.957 64.0803
20923 2 12.7761 74.3643 62.7731
15048 1 14.6 74.3464 64.0483
20622 2 15.5048 75.975 62.8048
20621 2 18.2324 74.3643 62.7731
14819 1 17.3286 75.957 64.0803
14844 1 20.0562 74.3464 64.0483
20411 2 20.961 75.975 62.8048
21500 2 1.86463 77.5856 62.8358
15608 1 0.960463 79.1778 64.1421
21160 2 4.59306 79.1958 62.8659
15641 1 3.68835 77.5674 64.1116
21201 2 7.32087 77.5856 62.8358
15309 1 9.14459 77.5674 64.1116
15310 1 6.4167 79.1778 64.1421
20877 2 10.0493 79.1958 62.8659
15014 1 11.8729 79.1778 64.1421
20591 2 15.5055 79.1958 62.8659
20876 2 12.7771 77.5856 62.8358
15051 1 14.6008 77.5674 64.1116
20624 2 18.2333 77.5856 62.8358
14818 1 17.3292 79.1778 64.1421
20410 2 20.9618 79.1958 62.8659
14817 1 20.0571 77.5674 64.1116
21501 2 1.86517 80.8058 62.895
15607 1 0.960695 82.3979 64.1999
21159 2 4.59345 82.4155 62.9231
15606 1 3.68873 80.7879 64.1715
21158 2 7.3214 80.8058 62.895
15273 1 6.41693 82.3979 64.1999
15312 1 9.14497 80.7879 64.1715
20835 2 10.0497 82.4155 62.9231
15013 1 11.8732 82.3979 64.1999
20590 2 15.5059 82.4155 62.9231
20879 2 12.7776 80.8058 62.895
15012 1 14.6012 80.7879 64.1715
20589 2 18.2339 80.8058 62.895
14795 1 17.3294 82.3979 64.1999
20391 2 20.9622 82.4155 62.9231
14820 1 20.0574 80.7879 64.1715
21476 2 1.86546 84.0249 62.95
15584 1 0.960793 85.6173 64.2533
21128 2 4.59369 85.634 62.9758
15609 1 3.68887 84.0077 64.2272
21161 2 7.3217 84.0249 62.95
15271 1 9.14511 84.0077 64.2272
15272 1 6.41703 85.6173 64.2533
20834 2 10.0499 85.634 62.9758
14979 1 11.8733 85.6173 64.2533
20559 2 15.5062 85.634 62.9758
20833 2 12.7779 84.0249 62.95
15015 1 14.6013 84.0077 64.2272
20592 2 18.2342 84.0249 62.95
14794 1 17.3295 85.6173 64.2533
20390 2 20.9624 85.634 62.9758
14793 1 20.0576 84.0077 64.2272
21477 2 1.86569 87.2428 63.0004
15583 1 0.960908 88.8358 64.3019
21127 2 4.59393 88.8514 63.0238
15582 1 3.68896 87.2267 64.2782
21126 2 7.32192 87.2428 63.0004
15243 1 6.41715 88.8358 64.3019
15274 1 9.1452 87.2267 64.2782
20799 2 10.0502 88.8514 63.0238
14978 1 11.8734 88.8358 64.3019
20558 2 15.5064 88.8514 63.0238
20836 2 12.7782 87.2428 63.0004
14977 1 14.6014 87.2267 64.2782
20557 2 18.2344 87.2428 63.0004
14771 1 17.3296 88.8358 64.3019
20371 2 20.9626 88.8514 63.0238
14796 1 20.0577 87.2267 64.2782
21460 2 1.86595 90.4598 63.0461
15585 1 3.68912 90.4449 64.3244
21129 2 7.32219 90.4598 63.0461
15241 1 9.14536 90.4449 64.3244
20797 2 12.7784 90.4598 63.0461
14980 1 14.6016 90.4449 64.3244
20560 2 18.2347 90.4598 63.0461
14769 1 20.0578 90.4449 64.3244
15587 1 2.77047 92.0822 61.7928
15922 1 0.0425409 93.6895 61.8126
15568 1 0.961122 92.0537 64.3457
21461 2 1.86632 93.6759 63.0871
15589 1 5.49878 93.6895 61.8126
21104 2 4.59424 92.0679 63.0672
15566 1 3.6894 93.6624 64.3659
15247 1 8.22671 92.0822 61.7928
15242 1 6.41736 92.0537 64.3457
21102 2 7.32256 93.6759 63.0871
15244 1 9.14564 93.6624 64.3659
15245 1 10.955 93.6895 61.8126
20798 2 10.0505 92.0679 63.0672
14951 1 11.8736 92.0537 64.3457
14982 1 13.6829 92.0822 61.7928
20528 2 15.5067 92.0679 63.0672
20800 2 12.7788 93.6759 63.0871
14949 1 14.6019 93.6624 64.3659
14984 1 16.4113 93.6895 61.8126
14770 1 17.3298 92.0537 64.3457
20526 2 18.235 93.6759 63.0871
14774 1 19.1392 92.0822 61.7928
20370 2 20.963 92.0679 63.0672
14772 1 20.0581 93.6624 64.3659
15572 1 2.77088 95.2966 61.8313
15923 1 0.0430051 96.9034 61.8488
21452 2 1.86678 96.8914 63.1235
15567 1 0.961467 95.271 64.3848
15570 1 5.49924 96.9034 61.8488
21103 2 4.59466 95.2837 63.1059
15569 1 3.68981 96.8794 64.4026
15246 1 8.22712 95.2966 61.8313
21105 2 7.32302 96.8914 63.1235
15219 1 9.14604 96.8794 64.4026
15221 1 6.41771 95.271 64.3848
15248 1 10.9555 96.9034 61.8488
20771 2 10.0509 95.2837 63.1059
14950 1 11.8739 95.271 64.3848
14955 1 13.6834 95.2966 61.8313
20527 2 15.5071 95.2837 63.1059
20769 2 12.7793 96.8914 63.1235
14952 1 14.6023 96.8794 64.4026
14953 1 16.4117 96.9034 61.8488
20529 2 18.2355 96.8914 63.1235
14748 1 17.3302 95.271 64.3848
14773 1 19.1396 95.2966 61.8313
20351 2 20.9634 95.2837 63.1059
14746 1 20.0585 96.8794 64.4026
15571 1 2.77139 98.5102 61.8652
15921 1 0.0435587 100.117 61.8805
21453 2 1.86734 100.106 63.1555
15560 1 0.961934 98.4877 64.4193
15573 1 5.4998 100.117 61.8805
21088 2 4.59517 98.4989 63.1401
15558 1 3.69032 100.096 64.4348
15225 1 8.22763 98.5102 61.8652
21086 2 7.32357 100.106 63.1555
15220 1 6.41817 98.4877 64.4193
15222 1 9.14656 100.096 64.4348
15223 1 10.956 100.117 61.8805
20770 2 10.0514 98.4989 63.1401
14931 1 11.8744 98.4877 64.4193
14954 1 13.6839 98.5102 61.8652
20504 2 15.5076 98.4989 63.1401
20772 2 12.7798 100.106 63.1555
14929 1 14.6028 100.096 64.4348
14956 1 16.4123 100.117 61.8805
20502 2 18.2361 100.106 63.1555
14747 1 17.3306 98.4877 64.4193
14751 1 19.1401 98.5102 61.8652
20350 2 20.9639 98.4989 63.1401
14749 1 20.059 100.096 64.4348
21330 2 2.76238 53.4275 64.9782
21649 2 0.0331986 51.8227 64.9683
15767 1 1.85757 51.8217 66.2487
21329 2 5.48944 51.8227 64.9683
15438 1 4.58671 53.425 66.2584
20990 2 8.21862 53.4275 64.9782
15472 1 7.31381 51.8217 66.2487
21016 2 10.9457 51.8227 64.9683
15138 1 10.043 53.425 66.2584
20690 2 13.6749 53.4275 64.9782
14878 1 15.4992 53.425 66.2584
15137 1 12.77 51.8217 66.2487
20689 2 16.4019 51.8227 64.9683
14888 1 18.2263 51.8217 66.2487
20453 2 19.1311 53.4275 64.9782
14704 1 20.9554 53.425 66.2584
21609 2 0.0356558 55.0326 64.9916
15768 1 1.85992 55.0287 66.2716
21331 2 5.49189 55.0326 64.9916
15436 1 7.31616 55.0287 66.2716
20988 2 10.9481 55.0326 64.9916
15139 1 12.7724 55.0287 66.2716
20691 2 16.4044 55.0326 64.9916
14876 1 18.2286 55.0287 66.2716
21290 2 2.76543 56.6381 65.0085
21610 2 0.0391546 58.2441 65.0284
15722 1 1.86326 58.2373 66.308
21288 2 5.49539 58.2441 65.0284
15437 1 4.58962 56.6328 66.2883
20989 2 8.22167 56.6381 65.0085
15439 1 7.3195 58.2373 66.308
20991 2 10.9516 58.2441 65.0284
15114 1 10.0459 56.6328 66.2883
20674 2 13.6779 56.6381 65.0085
14877 1 15.5021 56.6328 66.2883
15112 1 12.7757 58.2373 66.308
20672 2 16.4079 58.2441 65.0284
14879 1 18.232 58.2373 66.308
20452 2 19.1341 56.6381 65.0085
14703 1 20.9583 56.6328 66.2883
21289 2 2.76923 59.8505 65.0511
21569 2 0.0431105 61.4574 65.0763
15723 1 1.86704 61.4482 66.3553
21291 2 5.49935 61.4574 65.0763
15398 1 4.59325 59.8425 66.3304
20958 2 8.22547 59.8505 65.0511
15396 1 7.32328 61.4482 66.3553
20956 2 10.9556 61.4574 65.0763
15113 1 10.0495 59.8425 66.3304
20673 2 13.6817 59.8505 65.0511
14862 1 15.5057 59.8425 66.3304
15115 1 12.7795 61.4482 66.3553
20675 2 16.4118 61.4574 65.0763
14860 1 18.2358 61.4482 66.3553
20445 2 19.1379 59.8505 65.0511
14702 1 20.962 59.8425 66.3304
21243 2 2.77319 63.0649 65.1035
21570 2 0.0469431 64.6729 65.1324
15676 1 1.8707 64.6613 66.411
21241 2 5.50318 64.6729 65.1324
15397 1 4.59704 63.0544 66.3823
20957 2 8.22943 63.0649 65.1035
15399 1 7.32694 64.6613 66.411
20959 2 10.9594 64.6729 65.1324
15082 1 10.0533 63.0544 66.3823
20650 2 13.6857 63.0649 65.1035
14861 1 15.5095 63.0544 66.3823
15080 1 12.7832 64.6613 66.411
20648 2 16.4157 64.6729 65.1324
14863 1 18.2394 64.6613 66.411
20444 2 19.1419 63.0649 65.1035
14695 1 20.9658 63.0544 66.3823
21242 2 2.77679 66.2813 65.1626
21530 2 0.050211 67.8902 65.1938
15677 1 1.87383 67.8768 66.4721
21244 2 5.50645 67.8902 65.1938
15352 1 4.60047 66.2688 66.4411
20918 2 8.23302 66.2813 65.1626
15350 1 7.33007 67.8768 66.4721
20916 2 10.9627 67.8902 65.1938
15081 1 10.0567 66.2688 66.4411
20649 2 13.6893 66.2813 65.1626
14839 1 15.5129 66.2688 66.4411
15083 1 12.7863 67.8768 66.4721
20651 2 16.4189 67.8902 65.1938
14837 1 18.2425 67.8768 66.4721
20429 2 19.1455 66.2813 65.1626
14694 1 20.9692 66.2688 66.4411
21196 2 2.77967 69.4995 65.2257
21531 2 0.0526985 71.1092 65.2579
15636 1 1.87619 71.0942 66.5361
21194 2 5.50894 71.1092 65.2579
15351 1 4.60323 69.4853 66.5039
20917 2 8.23591 69.4995 65.2257
15353 1 7.33243 71.0942 66.5361
20919 2 10.9652 71.1092 65.2579
15046 1 10.0595 69.4853 66.5039
20619 2 13.6922 69.4995 65.2257
14838 1 15.5157 69.4853 66.5039
15044 1 12.7887 71.0942 66.5361
20617 2 16.4214 71.1092 65.2579
14840 1 18.2449 71.0942 66.5361
20428 2 19.1484 69.4995 65.2257
14683 1 20.9719 69.4853 66.5039
21195 2 2.78176 72.7191 65.2902
15307 1 4.60521 72.7036 66.5685
20874 2 8.238 72.7191 65.2902
15045 1 10.0614 72.7036 66.5685
20618 2 13.6942 72.7191 65.2902
14815 1 15.5177 72.7036 66.5685
20409 2 19.1505 72.7191 65.2902
14682 1 20.9739 72.7036 66.5685
21498 2 0.0544084 74.3292 65.3222
15637 1 1.8778 74.3132 66.6007
21156 2 2.78312 75.9394 65.3539
21197 2 5.51065 74.3292 65.3222
15306 1 4.60647 75.9231 66.6325
15305 1 7.33404 74.3132 66.6007
20873 2 8.23936 75.9394 65.3539
20872 2 10.9669 74.3292 65.3222
15010 1 10.0627 75.9231 66.6325
15047 1 12.7903 74.3132 66.6007
20587 2 13.6956 75.9394 65.3539
14814 1 15.519 75.9231 66.6325
20620 2 16.4231 74.3292 65.3222
14813 1 18.2465 74.3132 66.6007
20408 2 19.1518 75.9394 65.3539
14671 1 20.9752 75.9231 66.6325
21155 2 2.78391 79.1599 65.4152
21499 2 0.0554568 77.5497 65.3849
15604 1 1.87876 77.5331 66.6637
21154 2 5.5117 77.5497 65.3849
15269 1 4.60716 79.1433 66.6942
20831 2 8.24014 79.1599 65.4152
15308 1 7.335 77.5331 66.6637
20875 2 10.9679 77.5497 65.3849
15009 1 10.0634 79.1433 66.6942
20586 2 13.6964 79.1599 65.4152
14791 1 15.5196 79.1433 66.6942
15008 1 12.7912 77.5331 66.6637
20585 2 16.4242 77.5497 65.3849
14816 1 18.2475 77.5331 66.6637
20389 2 19.1526 79.1599 65.4152
14670 1 20.9759 79.1433 66.6942
21124 2 2.78431 82.3803 65.4728
21474 2 0.0560222 80.7702 65.4445
15605 1 1.87923 80.7536 66.7238
21157 2 5.51226 80.7702 65.4445
15268 1 4.60746 82.3639 66.7523
20830 2 8.24055 82.3803 65.4728
15267 1 7.33546 80.7536 66.7238
20829 2 10.9685 80.7702 65.4445
14975 1 10.0637 82.3639 66.7523
20555 2 13.6968 82.3803 65.4728
14790 1 15.5199 82.3639 66.7523
15011 1 12.7917 80.7536 66.7238
20588 2 16.4247 80.7702 65.4445
14789 1 18.2479 80.7536 66.7238
20388 2 19.153 82.3803 65.4728
14659 1 20.9762 82.3639 66.7523
21123 2 2.78454 85.6005 65.5262
21475 2 0.0563153 83.9905 65.5001
15580 1 1.87943 83.9743 66.7798
21122 2 5.51255 83.9905 65.5001
15239 1 4.60761 85.5846 66.8062
20795 2 8.24078 85.6005 65.5262
15270 1 7.33566 83.9743 66.7798
20832 2 10.9688 83.9905 65.5001
14974 1 10.0638 85.5846 66.8062
20554 2 13.697 85.6005 65.5262
14767 1 15.5201 85.5846 66.8062
14973 1 12.7919 83.9743 66.7798
20553 2 16.425 83.9905 65.5001
14792 1 18.2481 83.9743 66.7798
20369 2 19.1533 85.6005 65.5262
14658 1 20.9763 85.5846 66.8062
21100 2 2.78475 88.8201 65.575
21458 2 0.0565194 87.2103 65.5512
15581 1 1.87955 87.1949 66.8313
21125 2 5.51276 87.2103 65.5512
15238 1 4.60775 88.8052 66.8553
20794 2 8.24099 88.8201 65.575
15237 1 7.33579 87.1949 66.8313
20793 2 10.969 87.2103 65.5512
14947 1 10.064 88.8052 66.8553
20524 2 13.6972 88.8201 65.575
14766 1 15.5202 88.8052 66.8553
14976 1 12.792 87.1949 66.8313
20556 2 16.4252 87.2103 65.5512
14765 1 18.2483 87.1949 66.8313
20368 2 19.1535 88.8201 65.575
14647 1 20.9765 88.8052 66.8553
21459 2 0.0567571 90.4298 65.5975
15564 1 1.87973 90.4154 66.8781
21098 2 5.513 90.4298 65.5975
15240 1 7.33597 90.4154 66.8781
20796 2 10.9692 90.4298 65.5975
14945 1 12.7922 90.4154 66.8781
20522 2 16.4255 90.4298 65.5975
14768 1 18.2484 90.4154 66.8781
21099 2 2.78503 92.0393 65.6189
21450 2 0.0570924 93.6488 65.6391
15565 1 1.88003 93.6357 66.92
15217 1 4.60798 92.0256 66.8996
21101 2 5.51333 93.6488 65.6391
20767 2 8.24127 92.0393 65.6189
15215 1 7.33627 93.6357 66.92
14946 1 10.0642 92.0256 66.8996
20765 2 10.9696 93.6488 65.6391
20523 2 13.6975 92.0393 65.6189
14744 1 15.5205 92.0256 66.8996
14948 1 12.7925 93.6357 66.92
20525 2 16.4258 93.6488 65.6391
14742 1 18.2487 93.6357 66.92
20349 2 19.1537 92.0393 65.6189
14646 1 20.9767 92.0256 66.8996
21084 2 2.78542 95.2581 65.6582
21451 2 0.0575423 96.8673 65.676
15556 1 1.88047 96.8557 66.9571
15216 1 4.60835 95.2457 66.9391
21082 2 5.51378 96.8673 65.676
20766 2 8.24166 95.2581 65.6582
15218 1 7.33671 96.8557 66.9571
14927 1 10.0646 95.2457 66.9391
20768 2 10.97 96.8673 65.676
14743 1 15.5208 95.2457 66.9391
20500 2 13.6979 95.2581 65.6582
14925 1 12.7929 96.8557 66.9571
20498 2 16.4263 96.8673 65.676
14745 1 18.2492 96.8557 66.9571
14635 1 20.9771 95.2457 66.9391
20348 2 19.1541 95.2581 65.6582
21083 2 2.78593 98.4764 65.6928
21449 2 0.0580905 100.085 65.7084
15557 1 1.88102 100.075 66.9897
21085 2 5.51433 100.085 65.7084
15203 1 4.60885 98.4656 66.974
20747 2 8.24216 98.4764 65.6928
15201 1 7.33726 100.075 66.9897
20745 2 10.9706 100.085 65.7084
14926 1 10.0651 98.4656 66.974
20499 2 13.6984 98.4764 65.6928
14728 1 15.5213 98.4656 66.974
14928 1 12.7935 100.075 66.9897
20501 2 16.4268 100.085 65.7084
14726 1 18.2497 100.075 66.9897
20330 2 19.1546 98.4764 65.6928
14634 1 20.9776 98.4656 66.974
15766 1 0.0485631 51.8201 68.8169
21286 2 0.954293 53.4214 67.5371
21282 2 1.87216 51.8156 70.0825
15433 1 5.5048 51.8201 68.8169
21328 2 3.68145 51.8199 67.5277
20985 2 9.13769 51.8199 67.5277
20986 2 6.41053 53.4214 67.5371
20984 2 7.3284 51.8156 70.0825
15136 1 10.961 51.8201 68.8169
20670 2 11.8668 53.4214 67.5371
20688 2 14.5939 51.8199 67.5277
20665 2 12.7846 51.8156 70.0825
14873 1 16.4173 51.8201 68.8169
20450 2 17.323 53.4214 67.5371
20448 2 18.2409 51.8156 70.0825
20449 2 20.0502 51.8199 67.5277
15434 1 2.77758 53.4203 68.8261
15720 1 0.0506355 55.021 68.8388
21283 2 1.87425 55.0119 70.1038
20950 2 4.60119 53.4135 70.0915
15435 1 5.50687 55.021 68.8388
21284 2 3.68366 55.0233 67.5499
15110 1 8.23382 53.4203 68.8261
20987 2 9.1399 55.0233 67.5499
20948 2 7.33048 55.0119 70.1038
20666 2 10.0574 53.4135 70.0915
15108 1 10.9631 55.021 68.8388
14874 1 13.6901 53.4203 68.8261
20438 2 15.5137 53.4135 70.0915
20668 2 14.5961 55.0233 67.5499
20667 2 12.7867 55.0119 70.1038
14875 1 16.4194 55.021 68.8388
20436 2 18.243 55.0119 70.1038
14701 1 19.1463 53.4203 68.8261
20296 2 20.9699 53.4135 70.0915
20451 2 20.0524 55.0233 67.5499
15394 1 2.78015 56.6221 68.8548
21285 2 0.957026 56.6257 67.566
15721 1 0.0535803 58.2239 68.8737
21235 2 1.87721 58.2106 70.1378
15392 1 5.50982 58.2239 68.8737
21287 2 3.6868 58.2286 67.5851
20949 2 4.60376 56.6109 70.1193
15109 1 8.23638 56.6221 68.8548
20954 2 6.41326 56.6257 67.566
20952 2 9.14304 58.2286 67.5851
20951 2 7.33345 58.2106 70.1378
20669 2 11.8695 56.6257 67.566
15111 1 10.9661 58.2239 68.8737
20642 2 10.06 56.6109 70.1193
14858 1 13.6926 56.6221 68.8548
20671 2 14.5993 58.2286 67.5851
20437 2 15.5162 56.6109 70.1193
20640 2 12.7897 58.2106 70.1378
20442 2 17.3257 56.6257 67.566
14856 1 16.4223 58.2239 68.8737
20439 2 18.2459 58.2106 70.1378
14700 1 19.1489 56.6221 68.8548
20440 2 20.0555 58.2286 67.5851
20295 2 20.9725 56.6109 70.1193
15393 1 2.78335 59.8262 68.8953
15674 1 0.0569325 61.4293 68.9193
21239 2 0.960454 59.8321 67.6069
21236 2 1.8806 61.4125 70.1824
15395 1 5.51317 61.4293 68.9193
21237 2 3.69039 61.4363 67.6311
20910 2 4.607 59.8111 70.1589
15078 1 8.23959 59.8262 68.8953
20953 2 6.41669 59.8321 67.6069
20955 2 9.14663 61.4363 67.6311
20908 2 7.33683 61.4125 70.1824
15076 1 10.9694 61.4293 68.9193
20646 2 11.8729 59.8321 67.6069
20641 2 10.0632 59.8111 70.1589
14857 1 13.6958 59.8262 68.8953
20644 2 14.6029 61.4363 67.6311
20643 2 12.7931 61.4125 70.1824
20422 2 15.5195 59.8111 70.1589
14859 1 16.4256 61.4293 68.9193
20441 2 17.3292 59.8321 67.6069
20420 2 18.2493 61.4125 70.1824
14693 1 19.1521 59.8262 68.8953
20443 2 20.0591 61.4363 67.6311
20294 2 20.9757 59.8111 70.1589
15348 1 2.78673 63.0332 68.9454
15675 1 0.0602289 64.6378 68.9733
21238 2 0.964064 63.0412 67.6574
21188 2 1.88395 64.618 70.2352
15346 1 5.51647 64.6378 68.9733
21240 2 3.69391 64.6468 67.6854
20909 2 4.61042 63.0147 70.2079
15077 1 8.24297 63.0332 68.9454
20912 2 9.15015 64.6468 67.6854
20914 2 6.4203 63.0412 67.6574
20911 2 7.34019 64.618 70.2352
15079 1 10.9727 64.6378 68.9733
20645 2 11.8765 63.0412 67.6574
20611 2 10.0667 63.0147 70.2079
14835 1 13.6992 63.0332 68.9454
20647 2 14.6064 64.6468 67.6854
20421 2 15.5229 63.0147 70.2079
20609 2 12.7964 64.618 70.2352
14833 1 16.4289 64.6378 68.9733
20426 2 17.3328 63.0412 67.6574
20423 2 18.2527 64.618 70.2352
14692 1 19.1554 63.0332 68.9454
20424 2 20.0626 64.6468 67.6854
20288 2 20.9791 63.0147 70.2079
15347 1 2.78986 66.2431 69.0025
15634 1 0.063111 67.8492 69.0328
21192 2 0.967399 66.2531 67.7148
21189 2 1.88692 67.8273 70.2937
15349 1 5.51935 67.8492 69.0328
21190 2 3.69698 67.86 67.7452
20866 2 4.61362 66.2221 70.2639
15042 1 8.2461 66.2431 69.0025
20913 2 6.42364 66.2531 67.7148
20915 2 9.15322 67.86 67.7452
20864 2 7.34316 67.8273 70.2937
15040 1 10.9756 67.8492 69.0328
20615 2 11.8799 66.2531 67.7148
20610 2 10.0699 66.2221 70.2639
14834 1 13.7023 66.2431 69.0025
20613 2 14.6095 67.86 67.7452
20402 2 15.5261 66.2221 70.2639
20612 2 12.7994 67.8273 70.2937
14836 1 16.4318 67.8492 69.0328
20425 2 17.3361 66.2531 67.7148
20400 2 18.2556 67.8273 70.2937
14681 1 19.1586 66.2431 69.0025
20427 2 20.0657 67.86 67.7452
20287 2 20.9823 66.2221 70.2639
15303 1 2.79245 69.4561 69.0638
15635 1 0.0653601 71.0636 69.0953
21191 2 0.970149 69.4677 67.7764
21148 2 1.8893 71.0402 70.3554
15301 1 5.5216 71.0636 69.0953
21193 2 3.69938 71.0759 67.808
20865 2 4.61631 69.4333 70.3243
15041 1 8.24868 69.4561 69.0638
20868 2 9.15562 71.0759 67.808
20870 2 6.42639 69.4677 67.7764
20867 2 7.34554 71.0402 70.3554
15043 1 10.9778 71.0636 69.0953
20614 2 11.8826 69.4677 67.7764
20579 2 10.0726 69.4333 70.3243
14811 1 13.7049 69.4561 69.0638
20616 2 14.6119 71.0759 67.808
20401 2 15.5288 69.4333 70.3243
20577 2 12.8018 71.0402 70.3554
14809 1 16.4341 71.0636 69.0953
20406 2 17.3389 69.4677 67.7764
20403 2 18.258 71.0402 70.3554
14680 1 19.1612 69.4561 69.0638
20404 2 20.0681 71.0759 67.808
20280 2 20.985 69.4333 70.3243
15302 1 2.79439 72.6718 69.1271
21152 2 0.97222 72.6847 67.8399
20823 2 4.61837 72.6481 70.3867
15006 1 8.25063 72.6718 69.1271
20869 2 6.42846 72.6847 67.8399
20583 2 11.8847 72.6847 67.8399
20578 2 10.0746 72.6481 70.3867
14810 1 13.7069 72.6718 69.1271
20382 2 15.5308 72.6481 70.3867
20405 2 17.3409 72.6847 67.8399
14669 1 19.1631 72.6718 69.1271
20279 2 20.9871 72.6481 70.3867
15602 1 0.0670061 74.2806 69.159
15265 1 2.79574 75.8898 69.1906
21151 2 0.973672 75.9037 67.9031
15304 1 5.52324 74.2806 69.159
21150 2 3.70114 74.294 67.8716
20871 2 9.15738 74.294 67.8716
15005 1 8.25198 75.8898 69.1906
20827 2 6.42991 75.9037 67.9031
15004 1 10.9795 74.2806 69.159
20582 2 11.8861 75.9037 67.9031
20581 2 14.6136 74.294 67.8716
14787 1 13.7082 75.8898 69.1906
14812 1 16.4357 74.2806 69.159
20386 2 17.3424 75.9037 67.9031
20407 2 20.0699 74.294 67.8716
14668 1 19.1645 75.8898 69.1906
15264 1 2.79653 79.1096 69.252
15603 1 0.0680813 77.4995 69.2217
21120 2 0.974547 79.1239 67.9642
15263 1 5.52432 77.4995 69.2217
21153 2 3.70229 77.5137 67.934
14971 1 8.25277 79.1096 69.252
20825 2 9.15853 77.5137 67.934
20826 2 6.43079 79.1239 67.9642
15007 1 10.9806 77.4995 69.2217
20551 2 11.887 79.1239 67.9642
14786 1 13.709 79.1096 69.252
20584 2 14.6148 77.5137 67.934
14785 1 16.4368 77.4995 69.2217
20385 2 17.3433 79.1239 67.9642
14657 1 19.1652 79.1096 69.252
20384 2 20.071 77.5137 67.934
15235 1 2.79695 82.3307 69.3101
15578 1 0.0686542 80.72 69.2815
21119 2 0.975025 82.3452 68.022
15266 1 5.52489 80.72 69.2815
21118 2 3.70294 80.7345 67.9936
14970 1 8.25319 82.3307 69.3101
20791 2 6.43126 82.3452 68.022
20828 2 9.15918 80.7345 67.9936
14969 1 10.9811 80.72 69.2815
20550 2 11.8875 82.3452 68.022
14763 1 13.7094 82.3307 69.3101
20549 2 14.6154 80.7345 67.9936
14788 1 16.4374 80.72 69.2815
20366 2 17.3437 82.3452 68.022
14656 1 19.1657 82.3307 69.3101
20387 2 20.0717 80.7345 67.9936
15234 1 2.79721 85.5527 69.364
15579 1 0.0689676 83.9416 69.3376
21096 2 0.975316 85.5669 68.0757
15233 1 5.52521 83.9416 69.3376
21121 2 3.7033 83.956 68.0494
14943 1 8.25344 85.5527 69.364
20789 2 9.15954 83.956 68.0494
20790 2 6.43155 85.5669 68.0757
14972 1 10.9814 83.9416 69.3376
20520 2 11.8878 85.5669 68.0757
14762 1 13.7097 85.5527 69.364
20552 2 14.6158 83.956 68.0494
14761 1 16.4377 83.9416 69.3376
20365 2 17.344 85.5669 68.0757
14645 1 19.1659 85.5527 69.364
20364 2 20.072 83.956 68.0494
15213 1 2.79746 88.7754 69.4133
15562 1 0.0692044 87.164 69.3892
21095 2 0.975577 88.7888 68.1248
15236 1 5.52544 87.164 69.3892
21094 2 3.70356 87.1779 68.1008
14942 1 8.2537 88.7754 69.4133
20763 2 6.43182 88.7888 68.1248
20792 2 9.1598 87.1779 68.1008
14941 1 10.9817 87.164 69.3892
20519 2 11.8881 88.7888 68.1248
14740 1 13.7099 88.7754 69.4133
20518 2 14.616 87.1779 68.1008
14764 1 16.4379 87.164 69.3892
20346 2 17.3443 88.7888 68.1248
14644 1 19.1662 88.7754 69.4133
20367 2 20.0723 87.1779 68.1008
15212 1 2.79781 91.9983 69.4579
15563 1 0.0694963 90.3868 69.4362
21080 2 0.97591 92.0108 68.1691
15211 1 5.52573 90.3868 69.4362
21097 2 3.70385 90.3998 68.1476
14923 1 8.25404 91.9983 69.4579
20761 2 9.16009 90.3998 68.1476
20762 2 6.43215 92.0108 68.1691
14944 1 10.982 90.3868 69.4362
20496 2 11.8884 92.0108 68.1691
14739 1 13.7103 91.9983 69.4579
20521 2 14.6163 90.3998 68.1476
14738 1 16.4382 90.3868 69.4362
20345 2 17.3446 92.0108 68.1691
14633 1 19.1665 91.9983 69.4579
20344 2 20.0726 90.3998 68.1476
15554 1 0.0699111 93.6098 69.4783
15214 1 5.52615 93.6098 69.4783
21078 2 3.70424 93.6217 68.1895
20764 2 9.16048 93.6217 68.1895
14921 1 10.9824 93.6098 69.4783
20494 2 14.6167 93.6217 68.1895
14741 1 16.4386 93.6098 69.4783
20347 2 20.073 93.6217 68.1895
15199 1 2.79829 95.2213 69.4976
21079 2 0.976356 95.2325 68.2087
15555 1 0.0704613 96.8327 69.5157
15197 1 5.5267 96.8327 69.5157
21081 2 3.70474 96.8433 68.2268
14922 1 8.25453 95.2213 69.4976
20743 2 6.43259 95.2325 68.2087
20741 2 9.16098 96.8433 68.2268
20495 2 11.8888 95.2325 68.2087
14924 1 10.9829 96.8327 69.5157
14724 1 13.7108 95.2213 69.4976
20497 2 14.6172 96.8433 68.2268
20327 2 17.3451 95.2325 68.2087
14722 1 16.4392 96.8327 69.5157
14632 1 19.167 95.2213 69.4976
20325 2 20.0735 96.8433 68.2268
15198 1 2.7989 98.4442 69.5327
15553 1 0.071122 100.056 69.5485
21072 2 0.976914 98.454 68.2437
15200 1 5.52736 100.056 69.5485
21070 2 3.70535 100.065 68.2594
14911 1 8.25514 98.4442 69.5327
20742 2 6.43315 98.454 68.2437
20744 2 9.16158 100.065 68.2594
14909 1 10.9836 100.056 69.5485
20480 2 11.8894 98.454 68.2437
14723 1 13.7114 98.4442 69.5327
20478 2 14.6178 100.065 68.2594
14725 1 16.4398 100.056 69.5485
20326 2 17.3456 98.454 68.2437
14622 1 19.1676 98.4442 69.5327
20328 2 20.0741 100.065 68.2594
21281 2 0.0607468 51.8096 72.6238
15432 1 3.69187 51.8169 71.4015
20945 2 5.51699 51.8096 72.6238
15105 1 9.1481 51.8169 71.4015
20664 2 10.9732 51.8096 72.6238
14872 1 14.6043 51.8169 71.4015
20433 2 16.4295 51.8096 72.6238
14697 1 20.0606 51.8169 71.4015
15390 1 0.964531 53.4139 71.4104
20946 2 2.78977 53.4036 72.6325
21233 2 0.0628151 54.9982 72.6445
15388 1 3.69366 55.0114 71.4227
20947 2 5.51905 54.9982 72.6445
15106 1 6.42077 53.4139 71.4104
20638 2 8.24601 53.4036 72.6325
15107 1 9.1499 55.0114 71.4227
14854 1 11.877 53.4139 71.4104
20636 2 10.9753 54.9982 72.6445
20434 2 13.7022 53.4036 72.6325
14852 1 14.6061 55.0114 71.4227
14698 1 17.3332 53.4139 71.4104
20435 2 16.4315 54.9982 72.6445
20293 2 19.1585 53.4036 72.6325
14699 1 20.0624 55.0114 71.4227
15389 1 0.966743 56.6094 71.4381
20906 2 2.79231 56.5936 72.6596
21234 2 0.0657322 58.1898 72.6775
15391 1 3.6962 58.2083 71.4564
20904 2 5.52197 58.1898 72.6775
15074 1 6.42298 56.6094 71.4381
15072 1 9.15244 58.2083 71.4564
20637 2 8.24855 56.5936 72.6596
14853 1 11.8792 56.6094 71.4381
20639 2 10.9782 58.1898 72.6775
14855 1 14.6087 58.2083 71.4564
20418 2 13.7048 56.5936 72.6596
14690 1 17.3355 56.6094 71.4381
20416 2 16.4344 58.1898 72.6775
14688 1 20.0649 58.2083 71.4564
20292 2 19.161 56.5936 72.6596
15344 1 0.969505 59.8079 71.4773
20905 2 2.79549 59.7871 72.6981
21186 2 0.0690484 61.3855 72.721
15342 1 3.69909 61.4084 71.5006
20907 2 5.52529 61.3855 72.721
15073 1 6.42574 59.8079 71.4773
15075 1 9.15532 61.4084 71.5006
20607 2 8.25173 59.7871 72.6981
14831 1 11.882 59.8079 71.4773
20605 2 10.9815 61.3855 72.721
14829 1 14.6116 61.4084 71.5006
20417 2 13.708 59.7871 72.6981
14689 1 17.3382 59.8079 71.4773
20419 2 16.4378 61.3855 72.721
14691 1 20.0678 61.4084 71.5006
20286 2 19.1642 59.7871 72.6981
15343 1 0.972415 63.0098 71.5259
20862 2 2.79883 62.9852 72.7459
21187 2 0.0723187 64.586 72.7726
15345 1 3.70193 64.6123 71.553
20860 2 5.52856 64.586 72.7726
15036 1 9.15817 64.6123 71.553
15038 1 6.42865 63.0098 71.5259
20606 2 8.25507 62.9852 72.7459
14830 1 11.8849 63.0098 71.5259
20608 2 10.9848 64.586 72.7726
14832 1 14.6144 64.6123 71.553
20398 2 13.7113 62.9852 72.7459
14678 1 17.3411 63.0098 71.5259
20396 2 16.441 64.586 72.7726
14676 1 20.0706 64.6123 71.553
20285 2 19.1675 62.9852 72.7459
15299 1 0.975116 66.2157 71.5814
20861 2 2.80195 66.1881 72.8007
21146 2 0.075206 67.7916 72.83
15297 1 3.70443 67.82 71.611
20863 2 5.53144 67.7916 72.83
15037 1 6.43135 66.2157 71.5814
15039 1 9.16067 67.82 71.611
20575 2 8.25818 66.1881 72.8007
14807 1 11.8876 66.2157 71.5814
20573 2 10.9877 67.7916 72.83
14805 1 14.6169 67.82 71.611
20397 2 13.7144 66.1881 72.8007
14677 1 17.3438 66.2157 71.5814
20399 2 16.4439 67.7916 72.83
14679 1 20.0731 67.82 71.611
20278 2 19.1707 66.1881 72.8007
15298 1 0.977392 69.4253 71.6413
20819 2 2.80457 69.3962 72.86
21147 2 0.0775377 71.0021 72.8906
15300 1 3.70648 71.0315 71.6721
20817 2 5.53378 71.0021 72.8906
15000 1 9.16271 71.0315 71.6721
15002 1 6.43363 69.4253 71.6413
20574 2 8.26081 69.3962 72.86
14806 1 11.8899 69.4253 71.6413
20576 2 10.99 71.0021 72.8906
14808 1 14.619 71.0315 71.6721
20378 2 13.717 69.3962 72.86
14666 1 17.3461 69.4253 71.6413
20376 2 16.4463 71.0021 72.8906
14664 1 20.0752 71.0315 71.6721
20277 2 19.1733 69.3962 72.86
15261 1 0.979186 72.6386 71.703
20818 2 2.80655 72.6089 72.9214
15001 1 6.43542 72.6386 71.703
20543 2 8.26278 72.6089 72.9214
14783 1 11.8917 72.6386 71.703
20377 2 13.719 72.6089 72.9214
14665 1 17.3479 72.6386 71.703
20270 2 19.1753 72.6089 72.9214
21149 2 1.89116 74.2567 70.4181
21114 2 0.0794241 74.2168 72.9521
15260 1 0.980292 75.8552 71.7667
20783 2 2.80831 75.826 72.9827
20822 2 4.61999 75.8659 70.4492
15259 1 3.70792 74.2465 71.7351
20820 2 5.53566 74.2168 72.9521
20821 2 7.3474 74.2567 70.4181
15003 1 9.16416 74.2465 71.7351
14967 1 6.43653 75.8552 71.7667
20542 2 8.26455 75.826 72.9827
20547 2 10.0762 75.8659 70.4492
20541 2 10.9919 74.2168 72.9521
14782 1 11.8928 75.8552 71.7667
20580 2 12.8036 74.2567 70.4181
20381 2 15.5325 75.8659 70.4492
14781 1 14.6204 74.2465 71.7351
20358 2 13.7208 75.826 72.9827
20380 2 18.2599 74.2567 70.4181
20379 2 16.4481 74.2168 72.9521
14654 1 17.349 75.8552 71.7667
20272 2 20.9887 75.8659 70.4492
14667 1 20.0766 74.2465 71.7351
20269 2 19.177 75.826 72.9827
21116 2 1.89243 77.4758 70.4799
15231 1 0.981001 79.075 71.8277
20782 2 2.80933 79.0469 73.0425
21115 2 0.0807544 77.436 73.0129
20787 2 4.62098 79.0862 70.5099
15262 1 3.70881 77.4648 71.7975
20781 2 5.53699 77.436 73.0129
20824 2 7.34867 77.4758 70.4799
14965 1 9.16505 77.4648 71.7975
14966 1 6.43724 79.075 71.8277
20512 2 8.26557 79.0469 73.0425
20546 2 10.0772 79.0862 70.5099
14759 1 11.8935 79.075 71.8277
20544 2 10.9932 77.436 73.0129
20362 2 15.5335 79.0862 70.5099
20545 2 12.8049 77.4758 70.4799
14784 1 14.6213 77.4648 71.7975
20357 2 13.7218 79.0469 73.0425
20383 2 18.2611 77.4758 70.4799
14653 1 17.3497 79.075 71.8277
20356 2 16.4495 77.436 73.0129
20271 2 20.9897 79.0862 70.5099
14652 1 20.0775 77.4648 71.7975
20262 2 19.178 79.0469 73.0425
21117 2 1.8932 80.6972 70.5392
15230 1 0.981415 82.2969 71.8854
20755 2 2.80998 82.2707 73.0996
21090 2 0.08157 80.6585 73.0715
20786 2 4.62158 82.3085 70.5676
15229 1 3.70935 80.6857 71.857
20784 2 5.53781 80.6585 73.0715
20785 2 7.34943 80.6972 70.5392
14939 1 6.43765 82.2969 71.8854
14968 1 9.16559 80.6857 71.857
20511 2 8.26621 82.2707 73.0996
20516 2 10.0778 82.3085 70.5676
14758 1 11.8939 82.2969 71.8854
20510 2 10.994 80.6585 73.0715
20361 2 15.5341 82.3085 70.5676
20548 2 12.8057 80.6972 70.5392
14757 1 14.6218 80.6857 71.857
20338 2 13.7225 82.2707 73.0996
20360 2 18.2619 80.6972 70.5392
14642 1 17.3501 82.2969 71.8854
20359 2 16.4503 80.6585 73.0715
20264 2 20.9903 82.3085 70.5676
14655 1 20.0781 80.6857 71.857
20261 2 19.1787 82.2707 73.0996
21092 2 1.89367 83.9202 70.5949
15209 1 0.981723 85.5205 71.9392
20754 2 2.81045 85.4965 73.153
21091 2 0.0821014 83.8834 73.1268
20759 2 4.62198 85.5322 70.6212
15232 1 3.70969 83.9086 71.9128
20753 2 5.53834 83.8834 73.1268
20788 2 7.34991 83.9202 70.5949
14937 1 9.16593 83.9086 71.9128
14938 1 6.43796 85.5205 71.9392
20488 2 8.26669 85.4965 73.153
20515 2 10.0782 85.5322 70.6212
14736 1 11.8942 85.5205 71.9392
20513 2 10.9946 83.8834 73.1268
20342 2 15.5345 85.5322 70.6212
20514 2 12.8061 83.9202 70.5949
14760 1 14.6222 83.9086 71.9128
20337 2 13.7229 85.4965 73.153
20363 2 18.2624 83.9202 70.5949
14641 1 17.3504 85.5205 71.9392
20336 2 16.4508 83.8834 73.1268
20263 2 20.9907 85.5322 70.6212
14640 1 20.0784 83.9086 71.9128
20254 2 19.1792 85.4965 73.153
21093 2 1.89404 87.1443 70.6464
21074 2 0.0825591 87.1099 73.1781
20735 2 2.81093 88.7236 73.2021
15208 1 0.982083 88.7452 71.9885
20758 2 4.62235 88.7566 70.6704
20756 2 5.5388 87.1099 73.1781
15207 1 3.71001 87.1328 71.9644
20757 2 7.35028 87.1443 70.6464
20487 2 8.26716 88.7236 73.2021
14919 1 6.43832 88.7452 71.9885
14940 1 9.16625 87.1328 71.9644
20492 2 10.0786 88.7566 70.6704
20486 2 10.995 87.1099 73.1781
14735 1 11.8946 88.7452 71.9885
20341 2 15.5348 88.7566 70.6704
20517 2 12.8065 87.1443 70.6464
20319 2 13.7234 88.7236 73.2021
14734 1 14.6225 87.1328 71.9644
20340 2 18.2628 87.1443 70.6464
20339 2 16.4513 87.1099 73.1781
14630 1 17.3508 88.7452 71.9885
20256 2 20.9911 88.7566 70.6704
20253 2 19.1796 88.7236 73.2021
14643 1 20.0787 87.1328 71.9644
21076 2 1.89444 90.3689 70.6933
15195 1 0.982584 91.9706 72.0331
15210 1 3.71043 90.3578 72.0114
20739 2 4.6228 91.9814 70.715
20760 2 7.35068 90.3689 70.6933
14917 1 9.16667 90.3578 72.0114
14918 1 6.43882 91.9706 72.0331
14720 1 11.8951 91.9706 72.0331
20491 2 10.079 91.9814 70.715
20490 2 12.8069 90.3689 70.6933
14737 1 14.6229 90.3578 72.0114
20323 2 15.5353 91.9814 70.715
20343 2 18.2632 90.3689 70.6933
14629 1 17.3513 91.9706 72.0331
14628 1 20.0791 90.3578 72.0114
20255 2 20.9915 91.9814 70.715
21077 2 1.89494 93.5938 70.7354
15193 1 3.71102 93.5834 72.0536
14920 1 9.16725 93.5834 72.0536
20737 2 7.35118 93.5938 70.7354
14718 1 14.6235 93.5834 72.0536
20493 2 12.8074 93.5938 70.7354
20321 2 18.2637 93.5938 70.7354
14631 1 20.0797 93.5834 72.0536
15194 1 0.983247 95.1963 72.073
21068 2 1.89556 96.8186 70.7729
20738 2 4.62336 95.2062 70.7547
15196 1 3.71175 96.8093 72.0912
14907 1 6.43949 95.1963 72.073
14905 1 9.16799 96.8093 72.0912
20740 2 7.3518 96.8186 70.7729
14719 1 11.8957 95.1963 72.073
20476 2 10.0796 95.2062 70.7547
20322 2 15.5358 95.2062 70.7547
14721 1 14.6242 96.8093 72.0912
20474 2 12.808 96.8186 70.7729
14619 1 17.352 95.1963 72.073
20324 2 18.2643 96.8186 70.7729
20248 2 20.9921 95.2062 70.7547
14617 1 20.0805 96.8093 72.0912
15189 1 0.984044 98.4223 72.1082
21069 2 1.89628 100.043 70.8057
15187 1 3.7126 100.035 72.1241
20727 2 4.62403 98.431 70.7899
14906 1 6.44028 98.4223 72.1082
14908 1 9.16883 100.035 72.1241
20725 2 7.35252 100.043 70.8057
14712 1 11.8965 98.4223 72.1082
20475 2 10.0803 98.431 70.7899
14710 1 14.6251 100.035 72.1241
20311 2 15.5365 98.431 70.7899
20477 2 12.8088 100.043 70.8057
14618 1 17.3528 98.4223 72.1082
20309 2 18.265 100.043 70.8057
14620 1 20.0813 100.035 72.1241
20247 2 20.9927 98.431 70.7899
15386 1 1.84893 51.8171 74.0603
20944 2 3.69 51.8067 75.1143
15104 1 7.30516 51.8171 74.0603
20633 2 9.14623 51.8067 75.1143
14849 1 12.7614 51.8171 74.0603
20432 2 14.6025 51.8067 75.1143
14696 1 18.2176 51.8171 74.0603
20289 2 20.0587 51.8067 75.1143
20902 2 0.962435 53.3976 75.1226
15387 1 1.8486 55.0065 74.0812
15070 1 4.57692 53.4115 74.0691
20900 2 3.69126 54.9891 75.1341
20634 2 6.41867 53.3976 75.1226
15068 1 7.30483 55.0065 74.0812
20635 2 9.14749 54.9891 75.1341
14850 1 10.0332 53.4115 74.0691
20414 2 11.8749 53.3976 75.1226
14686 1 15.4894 53.4115 74.0691
14851 1 12.7611 55.0065 74.0812
20412 2 14.6037 54.9891 75.1341
20290 2 17.3312 53.3976 75.1226
14684 1 18.2173 55.0065 74.0812
14608 1 20.9456 53.4115 74.0691
20291 2 20.06 54.9891 75.1341
20901 2 0.96395 56.5817 75.1486
15340 1 1.84796 58.199 74.1146
15069 1 4.57643 56.6023 74.0965
20903 2 3.69296 58.1754 75.1658
20603 2 6.42019 56.5817 75.1486
15071 1 7.3042 58.199 74.1146
20601 2 9.1492 58.1754 75.1658
14827 1 10.0327 56.6023 74.0965
20413 2 11.8764 56.5817 75.1486
14685 1 15.4889 56.6023 74.0965
14825 1 12.7604 58.199 74.1146
20415 2 14.6054 58.1754 75.1658
20283 2 17.3327 56.5817 75.1486
14687 1 18.2167 58.199 74.1146
14607 1 20.9451 56.6023 74.0965
20281 2 20.0617 58.1754 75.1658
15341 1 1.84705 61.3955 74.1585
20858 2 0.965764 59.7703 75.1856
15034 1 4.57566 59.7967 74.1354
20856 2 3.6948 61.3667 75.2077
15032 1 7.30329 61.3955 74.1585
20602 2 6.422 59.7703 75.1856
20604 2 9.15104 61.3667 75.2077
14826 1 10.0319 59.7967 74.1354
20394 2 11.8782 59.7703 75.1856
14674 1 15.4881 59.7967 74.1354
14828 1 12.7595 61.3955 74.1585
20392 2 14.6073 61.3667 75.2077
14672 1 18.2158 61.3955 74.1585
20282 2 17.3345 59.7703 75.1856
14606 1 20.9444 59.7967 74.1354
20284 2 20.0635 61.3667 75.2077
15295 1 1.84588 64.5965 74.2105
20857 2 0.967567 62.9645 75.2319
15033 1 4.57462 62.9954 74.1836
20859 2 3.69649 64.5638 75.2577
15035 1 7.30212 64.5965 74.2105
20569 2 9.15273 64.5638 75.2577
20571 2 6.42381 62.9645 75.2319
14803 1 10.0309 62.9954 74.1836
20393 2 11.88 62.9645 75.2319
14673 1 15.4871 62.9954 74.1836
14801 1 12.7584 64.5965 74.2105
20395 2 14.609 64.5638 75.2577
14675 1 18.2146 64.5965 74.2105
20275 2 17.3363 62.9645 75.2319
14605 1 20.9433 62.9954 74.1836
20273 2 20.0652 64.5638 75.2577
15296 1 1.84447 67.802 74.2682
20815 2 0.969093 66.1646 75.285
14998 1 4.57332 66.1987 74.2388
20813 2 3.69782 67.7669 75.3134
14996 1 7.30071 67.802 74.2682
20570 2 6.42533 66.1646 75.285
20572 2 9.15405 67.7669 75.3134
14802 1 10.0296 66.1987 74.2388
20374 2 11.8816 66.1646 75.285
14662 1 15.4858 66.1987 74.2388
14804 1 12.7569 67.802 74.2682
20372 2 14.6103 67.7669 75.3134
14660 1 18.2132 67.802 74.2682
20274 2 17.3378 66.1646 75.285
14604 1 20.942 66.1987 74.2388
20276 2 20.0665 67.7669 75.3134
15257 1 1.84295 71.0118 74.3291
20814 2 0.970208 69.3707 75.3427
14997 1 4.57182 69.4064 74.2984
20816 2 3.69879 70.9759 75.3726
14999 1 7.29918 71.0118 74.3291
20537 2 9.15502 70.9759 75.3726
20539 2 6.42645 69.3707 75.3427
14779 1 10.0281 69.4064 74.2984
20373 2 11.8827 69.3707 75.3427
14661 1 15.4843 69.4064 74.2984
14777 1 12.7554 71.0118 74.3291
20375 2 14.6113 70.9759 75.3726
14663 1 18.2117 71.0118 74.3291
20267 2 17.3389 69.3707 75.3427
14603 1 20.9405 69.4064 74.2984
20265 2 20.0675 70.9759 75.3726
20779 2 0.971007 72.5824 75.4028
14963 1 4.57039 72.6179 74.3598
20777 2 3.69945 74.1901 75.432
20538 2 6.42725 72.5824 75.4028
20540 2 9.15569 74.1901 75.432
14778 1 10.0266 72.6179 74.3598
20354 2 11.8835 72.5824 75.4028
14650 1 15.4829 72.6179 74.3598
20352 2 14.6119 74.1901 75.432
20266 2 17.3397 72.5824 75.4028
14602 1 20.9391 72.6179 74.3598
20268 2 20.0682 74.1901 75.432
15258 1 1.84127 74.2251 74.3906
20778 2 0.971505 75.7991 75.4614
14962 1 4.56846 75.8336 74.4211
14961 1 7.29751 74.2251 74.3906
20508 2 6.42774 75.7991 75.4614
14755 1 10.0247 75.8336 74.4211
20353 2 11.884 75.7991 75.4614
14780 1 12.7537 74.2251 74.3906
14649 1 15.4809 75.8336 74.4211
14648 1 18.21 74.2251 74.3906
20259 2 17.3402 75.7991 75.4614
14601 1 20.9372 75.8336 74.4211
15227 1 1.83954 77.443 74.4512
20751 2 0.971675 79.0201 75.5196
14935 1 4.56689 79.0531 74.4809
20780 2 3.69974 77.4091 75.4907
14964 1 7.29578 77.443 74.4512
20506 2 9.15597 77.4091 75.4907
20507 2 6.42791 79.0201 75.5196
14754 1 10.0231 79.0531 74.4809
20334 2 11.8842 79.0201 75.5196
14638 1 15.4794 79.0531 74.4809
14753 1 12.752 77.443 74.4512
20355 2 14.6122 77.4091 75.4907
14651 1 18.2083 77.443 74.4512
20258 2 17.3404 79.0201 75.5196
14600 1 20.9356 79.0531 74.4809
20257 2 20.0685 77.4091 75.4907
15228 1 1.83809 80.6639 74.5098
20750 2 0.971669 82.2445 75.5757
14934 1 4.56561 82.2751 74.5379
20749 2 3.69979 80.6319 75.548
14933 1 7.29432 80.6639 74.5098
20484 2 6.42791 82.2445 75.5757
20509 2 9.15603 80.6319 75.548
14732 1 10.0218 82.2751 74.5379
20333 2 11.8841 82.2445 75.5757
14637 1 15.4781 82.2751 74.5379
14756 1 12.7506 80.6639 74.5098
20332 2 14.6123 80.6319 75.548
14636 1 18.2068 80.6639 74.5098
20251 2 17.3404 82.2445 75.5757
14599 1 20.9343 82.2751 74.5379
20260 2 20.0685 80.6319 75.548
15205 1 1.83701 83.8869 74.5651
20731 2 0.971741 85.4713 75.6284
14915 1 4.56477 85.499 74.5912
20752 2 3.6998 83.8576 75.6025
14936 1 7.29325 83.8869 74.5651
20482 2 9.15604 83.8576 75.6025
20483 2 6.42798 85.4713 75.6284
14731 1 10.021 85.499 74.5912
20315 2 11.8842 85.4713 75.6284
14626 1 15.4773 85.499 74.5912
14730 1 12.7495 83.8869 74.5651
20335 2 14.6123 83.8576 75.6025
14639 1 18.2057 83.8869 74.5651
20250 2 17.3405 85.4713 75.6284
14598 1 20.9335 85.499 74.5912
20249 2 20.0685 83.8576 75.6025
20730 2 0.972052 88.6997 75.677
15206 1 1.83644 87.1114 74.6163
20729 2 3.69998 87.0853 75.6532
14914 1 4.56448 88.7241 74.6402
20485 2 9.15622 87.0853 75.6532
20468 2 6.42829 88.6997 75.677
14913 1 7.29268 87.1114 74.6163
20314 2 11.8845 88.6997 75.677
14716 1 10.0207 88.7241 74.6402
20313 2 14.6125 87.0853 75.6532
14733 1 12.7489 87.1114 74.6163
14625 1 15.477 88.7241 74.6402
20243 2 17.3408 88.6997 75.677
14624 1 18.2052 87.1114 74.6163
20252 2 20.0687 87.0853 75.6532
14597 1 20.9332 88.7241 74.6402
21075 2 0.0830834 90.3375 73.2249
20734 2 2.81151 91.9514 73.2466
20719 2 0.972657 91.9291 75.7213
15191 1 1.83641 90.3371 74.663
20733 2 5.53932 90.3375 73.2249
20732 2 3.70044 90.3143 75.6997
14903 1 4.5647 91.9504 74.6846
20472 2 8.26775 91.9514 73.2466
20467 2 6.4289 91.9291 75.7213
20466 2 9.15668 90.3143 75.6997
14916 1 7.29265 90.3371 74.663
20489 2 10.9956 90.3375 73.2249
20303 2 11.8851 91.9291 75.7213
14715 1 10.0209 91.9504 74.6846
20318 2 13.724 91.9514 73.2466
20316 2 14.6129 90.3143 75.6997
14714 1 12.7489 90.3371 74.663
14615 1 15.4772 91.9504 74.6846
20317 2 16.4518 90.3375 73.2249
20242 2 17.3414 91.9291 75.7213
14627 1 18.2051 90.3371 74.663
20246 2 19.1802 91.9514 73.2466
20241 2 20.0692 90.3143 75.6997
14596 1 20.9334 91.9504 74.6846
21066 2 0.083737 93.5655 73.2671
15192 1 1.83686 93.5638 74.7051
20736 2 5.53998 93.5655 73.2671
20717 2 3.70118 93.5441 75.7417
20469 2 9.15742 93.5441 75.7417
14901 1 7.2931 93.5638 74.7051
20470 2 10.9962 93.5655 73.2671
20301 2 14.6137 93.5441 75.7417
14717 1 12.7493 93.5638 74.7051
20320 2 16.4525 93.5655 73.2671
14613 1 18.2056 93.5638 74.7051
20244 2 20.0699 93.5441 75.7417
20723 2 2.81223 95.1795 73.2864
21067 2 0.0845204 96.7936 73.3046
20718 2 0.973526 95.1591 75.7609
15185 1 1.8377 96.7913 74.7425
20721 2 5.54076 96.7936 73.3046
14902 1 4.56536 95.1775 74.7244
20720 2 3.70216 96.7743 75.7791
20471 2 8.26847 95.1795 73.2864
20460 2 6.42976 95.1591 75.7609
20458 2 9.15839 96.7743 75.7791
14904 1 7.29393 96.7913 74.7425
20473 2 10.997 96.7936 73.3046
20302 2 11.886 95.1591 75.7609
14708 1 10.0216 95.1775 74.7244
20307 2 13.7247 95.1795 73.2864
14614 1 15.4778 95.1775 74.7244
20304 2 14.6146 96.7743 75.7791
14706 1 12.7502 96.7913 74.7425
20305 2 16.4532 96.7936 73.3046
20236 2 17.3422 95.1591 75.7609
14616 1 18.2064 96.7913 74.7425
20245 2 19.1809 95.1795 73.2864
14595 1 20.9341 95.1775 74.7244
20234 2 20.0709 96.7743 75.7791
20722 2 2.81307 98.4076 73.3216
21065 2 0.0853962 100.022 73.3375
20715 2 0.974582 98.3894 75.796
15186 1 1.83876 100.019 74.7754
20724 2 5.54163 100.022 73.3375
20713 2 3.70327 100.005 75.8119
14899 1 4.56633 98.4052 74.7595
20464 2 8.26931 98.4076 73.3216
20461 2 9.15951 100.005 75.8119
20459 2 6.43082 98.3894 75.796
14897 1 7.295 100.019 74.7754
14707 1 10.0226 98.4052 74.7595
20462 2 10.9979 100.022 73.3375
20299 2 11.8871 98.3894 75.796
20306 2 13.7255 98.4076 73.3216
14611 1 15.4788 98.4052 74.7595
14709 1 12.7512 100.019 74.7754
20297 2 14.6157 100.005 75.8119
20308 2 16.4541 100.022 73.3375
20235 2 17.3433 98.3894 75.796
14609 1 18.2075 100.019 74.7754
20237 2 20.072 100.005 75.8119
14594 1 20.935 98.4052 74.7595
20239 2 19.1818 98.4076 73.3216
12527 2 2.71193 102.191 -3.4684
6110 1 4.51791 102.178 -2.40498
12430 2 8.16817 102.191 -3.4684
5983 1 9.97415 102.178 -2.40498
5758 1 15.4304 102.178 -2.40498
12239 2 13.6244 102.191 -3.4684
5440 1 20.8866 102.178 -2.40498
11952 2 19.0806 102.191 -3.4684
12523 2 2.71026 105.325 -3.44126
6144 1 1.78852 103.745 -2.3908
12528 2 5.43918 103.758 -3.45433
6109 1 4.51549 105.313 -2.37764
12429 2 8.16649 105.325 -3.44126
6108 1 7.24476 103.745 -2.3908
12428 2 10.8954 103.758 -3.45433
5979 1 9.97173 105.313 -2.37764
5757 1 15.428 105.313 -2.37764
5984 1 12.701 103.745 -2.3908
12235 2 13.6227 105.325 -3.44126
5756 1 18.1572 103.745 -2.3908
12240 2 16.3517 103.758 -3.45433
12542 2 21.8079 103.758 -3.45433
5439 1 20.8842 105.313 -2.37764
11951 2 19.079 105.325 -3.44126
12522 2 2.70886 108.458 -3.41815
6140 1 1.78634 106.88 -2.36549
12521 2 5.43764 106.891 -3.4292
6102 1 4.51353 108.448 -2.35435
12422 2 8.1651 108.458 -3.41815
6111 1 7.24257 106.88 -2.36549
12431 2 10.8939 106.891 -3.4292
5978 1 9.96976 108.448 -2.35435
5750 1 15.426 108.448 -2.35435
5977 1 12.6988 106.88 -2.36549
12234 2 13.6213 108.458 -3.41815
5759 1 18.1551 106.88 -2.36549
12233 2 16.3501 106.891 -3.4292
12543 2 21.8064 106.891 -3.4292
5438 1 20.8822 108.448 -2.35435
11946 2 19.0776 108.458 -3.41815
12512 2 2.70778 111.59 -3.39914
6141 1 1.78461 110.015 -2.34425
12524 2 5.4364 110.024 -3.40813
6101 1 4.51209 111.582 -2.33523
12421 2 8.16402 111.59 -3.39914
6100 1 7.24084 110.015 -2.34425
12420 2 10.8926 110.024 -3.40813
5967 1 9.96832 111.582 -2.33523
5749 1 15.4246 111.582 -2.33523
5980 1 12.6971 110.015 -2.34425
12223 2 13.6203 111.59 -3.39914
5748 1 18.1533 110.015 -2.34425
12236 2 16.3489 110.024 -3.40813
12540 2 21.8051 110.024 -3.40813
5431 1 20.8808 111.582 -2.33523
11945 2 19.0765 111.59 -3.39914
12511 2 2.70701 114.722 -3.38426
6136 1 1.78347 113.148 -2.32729
12510 2 5.43548 113.156 -3.39118
6087 1 4.51119 114.715 -2.32037
6103 1 7.23971 113.148 -2.32729
12406 2 8.16324 114.722 -3.38426
12423 2 10.8917 113.156 -3.39118
5966 1 9.96743 114.715 -2.32037
5734 1 15.4237 114.715 -2.32037
5965 1 12.6959 113.148 -2.32729
12222 2 13.6195 114.722 -3.38426
5751 1 18.1522 113.148 -2.32729
12221 2 16.348 113.156 -3.39118
12541 2 21.8042 113.156 -3.39118
5430 1 20.8799 114.715 -2.32037
11932 2 19.0757 114.722 -3.38426
12500 2 2.7065 117.853 -3.3735
6137 1 1.78275 116.282 -2.31448
12513 2 5.43484 116.288 -3.37836
6086 1 4.51062 117.848 -2.30962
6085 1 7.23899 116.282 -2.31448
12405 2 8.16274 117.853 -3.3735
5947 1 9.96686 117.848 -2.30962
12404 2 10.8911 116.288 -3.37836
5733 1 15.4231 117.848 -2.30962
5968 1 12.6952 116.282 -2.31448
12203 2 13.619 117.853 -3.3735
5732 1 18.1515 116.282 -2.31448
12224 2 16.3473 116.288 -3.37836
12538 2 21.8036 116.288 -3.37836
5415 1 20.8793 117.848 -2.30962
11931 2 19.0752 117.853 -3.3735
12499 2 2.70624 120.985 -3.36688
6132 1 1.78232 119.415 -2.30579
12498 2 5.43446 119.419 -3.36967
6071 1 4.51033 120.982 -2.303
6088 1 7.23856 119.415 -2.30579
12383 2 8.16248 120.985 -3.36688
5946 1 9.96656 120.982 -2.303
12407 2 10.8907 119.419 -3.36967
5710 1 15.4228 120.982 -2.303
5945 1 12.6948 119.415 -2.30579
12202 2 13.6187 120.985 -3.36688
5735 1 18.151 119.415 -2.30579
12201 2 16.3469 119.419 -3.36967
12539 2 21.8032 119.419 -3.36967
5414 1 20.879 120.982 -2.303
11910 2 19.075 120.985 -3.36688
6133 1 1.78216 122.548 -2.30124
12488 2 2.70624 124.116 -3.3644
12501 2 5.43433 122.551 -3.36512
6070 1 4.5103 124.115 -2.30052
6069 1 7.2384 122.548 -2.30124
12382 2 8.16248 124.116 -3.3644
12381 2 10.8906 122.551 -3.36512
5920 1 9.96653 124.115 -2.30052
5948 1 12.6946 122.548 -2.30124
5709 1 15.4228 124.115 -2.30052
12175 2 13.6187 124.116 -3.3644
5708 1 18.1509 122.548 -2.30124
12204 2 16.3468 122.551 -3.36512
12536 2 21.803 122.551 -3.36512
5391 1 20.879 124.115 -2.30052
11909 2 19.075 124.116 -3.3644
6128 1 1.78226 125.681 -2.30084
12487 2 2.7065 127.248 -3.36607
12486 2 5.43446 125.682 -3.36472
6055 1 4.51054 127.248 -2.3022
6072 1 7.2385 125.681 -2.30084
12359 2 8.16273 127.248 -3.36607
12384 2 10.8907 125.682 -3.36472
5919 1 9.96678 127.248 -2.3022
5918 1 12.6947 125.681 -2.30084
5678 1 15.423 127.248 -2.3022
12174 2 13.619 127.248 -3.36607
5711 1 18.151 125.681 -2.30084
12173 2 16.3469 125.682 -3.36472
12537 2 21.8032 125.682 -3.36472
5390 1 20.8793 127.248 -2.3022
11880 2 19.0752 127.248 -3.36607
6129 1 1.78264 128.814 -2.30459
12489 2 5.43484 128.813 -3.36847
6053 1 7.23888 128.814 -2.30459
12357 2 10.8911 128.813 -3.36847
5921 1 12.6951 128.814 -2.30459
5676 1 18.1514 128.814 -2.30459
12176 2 16.3473 128.813 -3.36847
12534 2 21.8036 128.813 -3.36847
12476 2 2.707 130.379 -3.37191
6124 1 1.78329 131.947 -2.31251
12474 2 5.43547 131.945 -3.37639
6054 1 4.51105 130.381 -2.30803
6056 1 7.23953 131.947 -2.31251
12358 2 8.16324 130.379 -3.37191
5892 1 9.96729 130.381 -2.30803
12360 2 10.8917 131.945 -3.37639
5677 1 15.4235 130.381 -2.30803
5890 1 12.6958 131.947 -2.31251
12140 2 13.6195 130.379 -3.37191
5679 1 18.152 131.947 -2.31251
12138 2 16.3479 131.945 -3.37639
12535 2 21.8042 131.945 -3.37639
5359 1 20.8798 130.381 -2.30803
11879 2 19.0757 130.379 -3.37191
12475 2 2.70776 133.51 -3.38191
6125 1 1.78421 135.081 -2.3246
12477 2 5.43636 135.076 -3.38848
6039 1 4.51183 133.514 -2.31804
6037 1 7.24045 135.081 -2.3246
12335 2 8.164 133.51 -3.38191
5891 1 9.96807 133.514 -2.31804
12333 2 10.8926 135.076 -3.38848
5639 1 15.4243 133.514 -2.31804
5893 1 12.6967 135.081 -2.3246
12139 2 13.6202 133.51 -3.38191
5637 1 18.1529 135.081 -2.3246
12141 2 16.3488 135.076 -3.38848
12532 2 21.8051 135.076 -3.38848
5358 1 20.8805 133.514 -2.31804
11842 2 19.0765 133.51 -3.38191
12464 2 2.70877 136.642 -3.39609
6120 1 1.78541 138.214 -2.34086
12462 2 5.43749 138.208 -3.40475
6038 1 4.51289 136.647 -2.33221
6040 1 7.24165 138.214 -2.34086
12334 2 8.16501 136.642 -3.39609
5864 1 9.96913 136.647 -2.33221
12336 2 10.8937 138.208 -3.40475
5638 1 15.4254 136.647 -2.33221
5862 1 12.6979 138.214 -2.34086
12104 2 13.6213 136.642 -3.39609
5640 1 18.1541 138.214 -2.34086
12102 2 16.35 138.208 -3.40475
12533 2 21.8062 138.208 -3.40475
5319 1 20.8816 136.647 -2.33221
11841 2 19.0775 136.642 -3.39609
12463 2 2.71004 139.774 -3.41444
6121 1 1.78696 141.347 -2.36126
12465 2 5.4389 141.34 -3.42518
6023 1 4.51425 139.781 -2.35055
6021 1 7.2432 141.347 -2.36126
12311 2 8.16628 139.774 -3.41444
5863 1 9.97049 139.781 -2.35055
12309 2 10.8951 141.34 -3.42518
5599 1 15.4267 139.781 -2.35055
5865 1 12.6994 141.347 -2.36126
12103 2 13.6225 139.774 -3.41444
5597 1 18.1557 141.347 -2.36126
12105 2 16.3514 141.34 -3.42518
12530 2 21.8076 141.34 -3.42518
5318 1 20.883 139.781 -2.35055
11797 2 19.0788 139.774 -3.41444
12452 2 2.71161 142.906 -3.43696
6116 1 1.78914 144.482 -2.38599
12450 2 5.44063 144.472 -3.44978
6022 1 4.51607 142.914 -2.37307
6024 1 7.24537 144.482 -2.38599
12310 2 8.16784 142.906 -3.43696
5836 1 9.97231 142.914 -2.37307
12312 2 10.8969 144.472 -3.44978
5598 1 15.4285 142.914 -2.37307
5834 1 12.7016 144.482 -2.38599
12068 2 13.6241 142.906 -3.43696
5600 1 18.1579 144.482 -2.38599
12066 2 16.3531 144.472 -3.44978
12531 2 21.8093 144.472 -3.44978
5272 1 20.8848 142.914 -2.37307
11796 2 19.0803 142.906 -3.43696
12451 2 2.71349 146.038 -3.46363
6117 1 1.79194 147.617 -2.41492
12453 2 5.44266 147.605 -3.47849
6008 1 4.51859 146.049 -2.39995
6006 1 7.24818 147.617 -2.41492
12288 2 8.16973 146.038 -3.46363
5835 1 9.97483 146.049 -2.39995
12286 2 10.8989 147.605 -3.47849
5560 1 15.4311 146.049 -2.39995
5837 1 12.7044 147.617 -2.41492
12067 2 13.626 146.038 -3.46363
5558 1 18.1607 147.617 -2.41492
12069 2 16.3551 147.605 -3.47849
12529 2 21.8114 147.605 -3.47849
5271 1 20.8873 146.049 -2.39995
11751 2 19.0822 146.038 -3.46363
12441 2 2.71566 149.172 -3.49435
2047 1 1.79527 150.752 -2.44789
6007 1 4.52166 149.184 -2.43091
8174 2 5.44497 150.739 -3.51118
12287 2 8.1719 149.172 -3.49435
2016 1 7.25151 150.752 -2.44789
5809 1 9.9779 149.184 -2.43091
8080 2 10.9012 150.739 -3.51118
5559 1 15.4341 149.184 -2.43091
12033 2 13.6281 149.172 -3.49435
1886 1 12.7077 150.752 -2.44789
1664 1 18.164 150.752 -2.44789
7886 2 16.3574 150.739 -3.51118
5224 1 20.8904 149.184 -2.43091
11750 2 19.0844 149.172 -3.49435
8192 2 21.8137 150.739 -3.51118
12519 2 0.899924 102.172 -0.961589
6106 1 2.71544 102.16 0.261214
12414 2 4.53565 102.152 1.59304
12426 2 6.35616 102.172 -0.961589
5975 1 8.17168 102.16 0.261214
12231 2 11.8124 102.172 -0.961589
12227 2 9.99189 102.152 1.59304
5754 1 13.6279 102.16 0.261214
11939 2 15.4481 102.152 1.59304
11949 2 17.2686 102.172 -0.961589
5437 1 19.0842 102.16 0.261214
11584 2 20.9044 102.152 1.59304
12518 2 0.898606 105.309 -0.934183
12516 2 1.80678 103.721 1.60733
6098 1 2.71391 105.298 0.288704
12517 2 3.62736 103.74 -0.947378
6107 1 5.44276 103.729 0.275469
12413 2 4.5342 105.291 1.6206
12427 2 9.0836 103.74 -0.947378
12418 2 6.35484 105.309 -0.934183
5974 1 8.17015 105.298 0.288704
12412 2 7.26302 103.721 1.60733
12230 2 11.8111 105.309 -0.934183
5973 1 10.899 103.729 0.275469
12215 2 9.99044 105.291 1.6206
12229 2 14.5398 103.74 -0.947378
5746 1 13.6264 105.298 0.288704
11938 2 15.4467 105.291 1.6206
12228 2 12.7193 103.721 1.60733
11943 2 17.2673 105.309 -0.934183
5755 1 16.3552 103.729 0.275469
11937 2 18.1755 103.721 1.60733
11950 2 19.9961 103.74 -0.947378
6138 1 21.8115 103.729 0.275469
5436 1 19.0826 105.298 0.288704
11583 2 20.9029 105.291 1.6206
12508 2 0.897491 108.444 -0.910864
12504 2 1.80545 106.86 1.63284
6097 1 2.71263 108.435 0.312089
12520 2 3.62614 106.876 -0.922009
6096 1 5.44136 106.867 0.300914
12398 2 4.53299 108.43 1.64404
12417 2 6.35373 108.444 -0.910864
12416 2 9.08238 106.876 -0.922009
5963 1 8.16887 108.435 0.312089
12415 2 7.26169 106.86 1.63284
12219 2 11.81 108.444 -0.910864
5976 1 10.8976 106.867 0.300914
12214 2 9.98923 108.43 1.64404
12232 2 14.5386 106.876 -0.922009
5745 1 13.6251 108.435 0.312089
11925 2 15.4455 108.43 1.64404
12213 2 12.7179 106.86 1.63284
11942 2 17.2662 108.444 -0.910864
5744 1 16.3538 106.867 0.300914
11940 2 18.1742 106.86 1.63284
11941 2 19.9949 106.876 -0.922009
6139 1 21.8101 106.867 0.300914
5429 1 19.0813 108.435 0.312089
11582 2 20.9017 108.43 1.64404
12507 2 0.896583 111.58 -0.891703
12505 2 1.80435 109.999 1.65419
6083 1 2.71161 111.572 0.331292
12506 2 3.62513 110.012 -0.900759
6099 1 5.44021 110.004 0.322219
12397 2 4.53201 111.568 1.66329
12419 2 9.08137 110.012 -0.900759
12402 2 6.35282 111.58 -0.891703
5962 1 8.16785 111.572 0.331292
12396 2 7.26059 109.999 1.65419
12218 2 11.8091 111.58 -0.891703
5961 1 10.8964 110.004 0.322219
12195 2 9.98825 111.568 1.66329
12217 2 14.5376 110.012 -0.900759
5730 1 13.6241 111.572 0.331292
11924 2 15.4445 111.568 1.66329
12216 2 12.7168 109.999 1.65419
11929 2 17.2653 111.58 -0.891703
5747 1 16.3527 110.004 0.322219
11923 2 18.1731 109.999 1.65419
6134 1 21.8089 110.004 0.322219
11944 2 19.9938 110.012 -0.900759
5428 1 19.0803 111.572 0.331292
11575 2 20.9007 111.568 1.66329
12496 2 0.895885 114.715 -0.876734
12492 2 1.80349 113.137 1.67134
6082 1 2.71086 114.709 0.346279
12509 2 3.62432 113.147 -0.883698
6081 1 5.43932 113.141 0.339309
12400 2 9.08056 113.147 -0.883698
12401 2 6.35212 114.715 -0.876734
5943 1 8.16709 114.709 0.346279
12399 2 7.25973 113.137 1.67134
12199 2 11.8084 114.715 -0.876734
5964 1 10.8956 113.141 0.339309
12220 2 14.5368 113.147 -0.883698
5729 1 13.6233 114.709 0.346279
12193 2 12.716 113.137 1.67134
11928 2 17.2646 114.715 -0.876734
5728 1 16.3518 113.141 0.339309
11926 2 18.1722 113.137 1.67134
6135 1 21.808 113.141 0.339309
11927 2 19.993 113.147 -0.883698
5413 1 19.0796 114.709 0.346279
12495 2 0.895422 117.849 -0.865921
6067 1 2.71036 117.845 0.357101
12494 2 3.62374 116.282 -0.870809
6084 1 5.43869 116.277 0.352209
12379 2 6.35166 117.849 -0.865921
12403 2 9.07998 116.282 -0.870809
5942 1 8.16659 117.845 0.357101
12198 2 11.8079 117.849 -0.865921
5941 1 10.8949 116.277 0.352209
12197 2 14.5362 116.282 -0.870809
5706 1 13.6228 117.845 0.357101
11907 2 17.2641 117.849 -0.865921
5731 1 16.3512 116.277 0.352209
11930 2 19.9925 116.282 -0.870809
6130 1 21.8074 116.277 0.352209
5412 1 19.0791 117.845 0.357101
12484 2 0.895201 120.984 -0.859262
6066 1 2.71011 120.982 0.363766
12497 2 3.6234 119.417 -0.862072
6065 1 5.43832 119.414 0.360954
12377 2 9.07964 119.417 -0.862072
12378 2 6.35144 120.984 -0.859262
5916 1 8.16635 120.982 0.363766
12171 2 11.8077 120.984 -0.859262
5944 1 10.8946 119.414 0.360954
12200 2 14.5359 119.417 -0.862072
5705 1 13.6226 120.982 0.363766
11906 2 17.2639 120.984 -0.859262
5704 1 16.3508 119.414 0.360954
11905 2 19.9921 119.417 -0.862072
6131 1 21.807 119.414 0.360954
5389 1 19.0788 120.982 0.363766
12483 2 0.895224 124.118 -0.856764
6051 1 2.71012 124.118 0.366267
12482 2 3.6233 122.551 -0.857492
6068 1 5.4382 122.55 0.365537
12380 2 9.07954 122.551 -0.857492
12355 2 6.35146 124.118 -0.856764
5915 1 8.16636 124.118 0.366267
5914 1 10.8944 122.55 0.365537
12170 2 11.8077 124.118 -0.856764
12169 2 14.5358 122.551 -0.857492
5674 1 13.6226 124.118 0.366267
5707 1 16.3507 122.55 0.365537
11877 2 17.2639 124.118 -0.856764
11908 2 19.992 122.551 -0.857492
6126 1 21.8069 122.55 0.365537
5388 1 19.0788 124.118 0.366267
12472 2 0.895492 127.253 -0.858437
6050 1 2.71038 127.254 0.364595
12485 2 3.62345 125.686 -0.857078
6049 1 5.43833 125.686 0.365953
12353 2 9.07968 125.686 -0.857078
12354 2 6.35173 127.253 -0.858437
5888 1 8.16662 127.254 0.364595
5917 1 10.8946 125.686 0.365953
12136 2 11.808 127.253 -0.858437
12172 2 14.5359 125.686 -0.857078
5673 1 13.6229 127.254 0.364595
5672 1 16.3508 125.686 0.365953
11876 2 17.2642 127.253 -0.858437
11875 2 19.9922 125.686 -0.857078
6127 1 21.8071 125.686 0.365953
5357 1 19.0791 127.254 0.364595
12470 2 3.62384 128.82 -0.86084
6052 1 5.43872 128.822 0.362192
12356 2 9.08007 128.82 -0.86084
5886 1 10.895 128.822 0.362192
12134 2 14.5363 128.82 -0.86084
5675 1 16.3512 128.822 0.362192
11878 2 19.9926 128.82 -0.86084
6122 1 21.8074 128.822 0.362192
12471 2 0.896003 130.387 -0.864289
6035 1 2.71089 130.39 0.358741
12473 2 3.62447 131.955 -0.868786
6033 1 5.43936 131.958 0.354243
12329 2 9.08071 131.955 -0.868786
12331 2 6.35224 130.387 -0.864289
5887 1 8.16713 130.39 0.358741
12135 2 11.8085 130.387 -0.864289
5889 1 10.8956 131.958 0.354243
12137 2 14.5369 131.955 -0.868786
5635 1 13.6234 130.39 0.358741
11839 2 17.2647 130.387 -0.864289
5633 1 16.3518 131.958 0.354243
11837 2 19.9932 131.955 -0.868786
6123 1 21.8081 131.958 0.354243
5356 1 19.0796 130.39 0.358741
12460 2 0.896756 133.522 -0.874331
6034 1 2.71166 133.526 0.348696
12458 2 3.62534 135.089 -0.880926
6036 1 5.44026 135.095 0.342099
12330 2 6.35299 133.522 -0.874331
12332 2 9.08158 135.089 -0.880926
5860 1 8.1679 133.526 0.348696
12100 2 11.8092 133.522 -0.874331
5858 1 10.8965 135.095 0.342099
12098 2 14.5378 135.089 -0.880926
5634 1 13.6241 133.526 0.348696
11838 2 17.2655 133.522 -0.874331
5636 1 16.3527 135.095 0.342099
11840 2 19.9941 135.089 -0.880926
6118 1 21.809 135.095 0.342099
5317 1 19.0804 133.526 0.348696
12459 2 0.897748 136.656 -0.888569
6019 1 2.71268 136.663 0.334451
12461 2 3.62645 138.224 -0.897263
6017 1 5.4414 138.231 0.325752
12305 2 9.08269 138.224 -0.897263
12307 2 6.35399 136.656 -0.888569
5859 1 8.16891 136.663 0.334451
12099 2 11.8102 136.656 -0.888569
5861 1 10.8976 138.231 0.325752
12101 2 14.5389 138.224 -0.897263
5595 1 13.6252 136.663 0.334451
11794 2 17.2665 136.656 -0.888569
5593 1 16.3539 138.231 0.325752
11792 2 19.9952 138.224 -0.897263
6119 1 21.8101 138.231 0.325752
5316 1 19.0814 136.663 0.334451
12448 2 0.89897 139.791 -0.907008
6018 1 2.71395 139.799 0.315999
12446 2 3.62778 141.359 -0.91781
6020 1 5.44279 141.367 0.305185
12306 2 6.35521 139.791 -0.907008
12308 2 9.08402 141.359 -0.91781
5832 1 8.17019 139.799 0.315999
12064 2 11.8114 139.791 -0.907008
5830 1 10.899 141.367 0.305185
12062 2 14.5403 141.359 -0.91781
5594 1 13.6264 139.799 0.315999
11793 2 17.2677 139.791 -0.907008
5596 1 16.3553 141.367 0.305185
11795 2 19.9965 141.359 -0.91781
6114 1 21.8115 141.367 0.305185
5270 1 19.0827 139.799 0.315999
12447 2 0.900396 142.926 -0.929677
6004 1 2.71547 142.936 0.293297
12449 2 3.62929 144.494 -0.942609
6002 1 5.44444 144.504 0.280335
12282 2 9.08553 144.494 -0.942609
12284 2 6.35663 142.926 -0.929677
5831 1 8.17171 142.936 0.293297
12063 2 11.8129 142.926 -0.929677
5833 1 10.9007 144.504 0.280335
12065 2 14.5418 144.494 -0.942609
5556 1 13.6279 142.936 0.293297
11748 2 17.2691 142.926 -0.929677
5554 1 16.3569 144.504 0.280335
11746 2 19.998 144.494 -0.942609
6115 1 21.8132 144.504 0.280335
5269 1 19.0842 142.936 0.293297
12440 2 0.901986 146.062 -0.95659
6003 1 2.71723 146.073 0.266314
12438 2 3.63096 147.63 -0.971603
6005 1 5.44632 147.642 0.251254
12283 2 6.35822 146.062 -0.95659
12285 2 9.0872 147.63 -0.971603
5808 1 8.17347 146.073 0.266314
12032 2 11.8145 146.062 -0.95659
5806 1 10.9026 147.642 0.251254
12030 2 14.5434 147.63 -0.971603
5555 1 13.6297 146.073 0.266314
11747 2 17.2707 146.062 -0.95659
5557 1 16.3588 147.642 0.251254
11749 2 19.9997 147.63 -0.971603
6113 1 21.815 147.642 0.251254
5223 1 19.0859 146.073 0.266314
12439 2 0.903732 149.198 -0.987633
5993 1 2.71923 149.211 0.235171
8173 2 3.63277 150.766 -1.00466
2009 1 5.44842 150.78 0.21808
12265 2 6.35997 149.198 -0.987633
5807 1 8.17546 149.211 0.235171
8073 2 9.08901 150.766 -1.00466
12031 2 11.8162 149.198 -0.987633
1885 1 10.9047 150.78 0.21808
5521 1 13.6317 149.211 0.235171
7885 2 14.5453 150.766 -1.00466
11705 2 17.2724 149.198 -0.987633
1657 1 16.3609 150.78 0.21808
5222 1 19.0879 149.211 0.235171
7596 2 20.0015 150.766 -1.00466
2046 1 21.8171 150.78 0.21808
6094 1 0.896804 102.14 2.85948
12410 2 2.71519 102.132 4.1605
5971 1 6.35304 102.14 2.85948
12211 2 8.17143 102.132 4.1605
5742 1 11.8093 102.14 2.85948
11935 2 13.6277 102.132 4.1605
5434 1 17.2655 102.14 2.85948
11581 2 19.0839 102.132 4.1605
6093 1 0.895256 105.281 2.88713
12394 2 2.71364 105.274 4.18814
6092 1 3.62412 103.711 2.87382
12411 2 5.44251 103.703 4.17483
5959 1 6.35149 105.281 2.88713
5972 1 9.08035 103.711 2.87382
12210 2 8.16988 105.274 4.18814
5741 1 11.8077 105.281 2.88713
12209 2 10.8987 103.703 4.17483
5740 1 14.5366 103.711 2.87382
11921 2 13.6261 105.274 4.18814
5426 1 17.264 105.281 2.88713
11936 2 16.355 103.703 4.17483
12502 2 21.8112 103.703 4.17483
5435 1 19.9928 103.711 2.87382
11580 2 19.0824 105.274 4.18814
6079 1 0.893965 108.422 2.91062
12393 2 2.71235 108.416 4.21162
6095 1 3.6227 106.852 2.8994
12392 2 5.44108 106.845 4.2004
5957 1 9.07894 106.852 2.8994
5958 1 6.3502 108.422 2.91062
12191 2 8.16859 108.416 4.21162
5726 1 11.8064 108.422 2.91062
12212 2 10.8973 106.845 4.2004
5743 1 14.5352 106.852 2.8994
11920 2 13.6248 108.416 4.21162
5425 1 17.2627 108.422 2.91062
11919 2 16.3536 106.845 4.2004
12503 2 21.8098 106.845 4.2004
5424 1 19.9914 106.852 2.8994
11573 2 19.0811 108.416 4.21162
6078 1 0.892931 111.562 2.92991
12371 2 2.71132 111.558 4.23092
6077 1 3.62153 109.992 2.92079
12395 2 5.43992 109.987 4.2218
5939 1 6.34917 111.562 2.92991
5960 1 9.07777 109.992 2.92079
12190 2 8.16755 111.558 4.23092
5725 1 11.8054 111.562 2.92991
12189 2 10.8962 109.987 4.2218
5724 1 14.534 109.992 2.92079
11899 2 13.6238 111.558 4.23092
5410 1 17.2616 111.562 2.92991
11922 2 16.3524 109.987 4.2218
12490 2 21.8086 109.987 4.2218
5427 1 19.9903 109.992 2.92079
11572 2 19.08 111.558 4.23092
6063 1 0.892156 114.702 2.94499
12370 2 2.71054 114.699 4.24601
12375 2 4.53127 114.706 1.67834
6080 1 3.62063 113.132 2.93798
12369 2 5.43901 113.129 4.23899
5937 1 9.07687 113.132 2.93798
5938 1 6.34839 114.702 2.94499
12163 2 8.16678 114.699 4.24601
12194 2 9.98751 114.706 1.67834
5702 1 11.8046 114.702 2.94499
12192 2 10.8953 113.129 4.23899
11903 2 15.4437 114.706 1.67834
5727 1 14.5331 113.132 2.93798
11898 2 13.623 114.699 4.24601
5409 1 17.2609 114.702 2.94499
11897 2 16.3515 113.129 4.23899
11574 2 20.9 114.706 1.67834
12491 2 21.8077 113.129 4.23899
5408 1 19.9893 113.132 2.93798
11557 2 19.0793 114.699 4.24601
12493 2 1.80288 116.275 1.68429
6062 1 0.891641 117.841 2.95587
12347 2 2.71003 117.841 4.2569
12374 2 4.53078 117.844 1.6892
6061 1 3.61998 116.272 2.95095
12372 2 5.43837 116.27 4.25198
12373 2 7.25911 116.275 1.68429
5912 1 6.34788 117.841 2.95587
5940 1 9.07622 116.272 2.95095
12162 2 8.16626 117.841 4.2569
12167 2 9.98702 117.844 1.6892
5701 1 11.8041 117.841 2.95587
12161 2 10.8946 116.27 4.25198
11902 2 15.4433 117.844 1.6892
12196 2 12.7154 116.275 1.68429
5700 1 14.5325 116.272 2.95095
11869 2 13.6225 117.841 4.2569
11901 2 18.1716 116.275 1.68429
5386 1 17.2604 117.841 2.95587
11900 2 16.3508 116.27 4.25198
11559 2 20.8995 117.844 1.6892
12478 2 21.8071 116.27 4.25198
5411 1 19.9887 116.272 2.95095
11556 2 19.0787 117.841 4.2569
12480 2 1.80251 119.413 1.69307
6047 1 0.891386 120.981 2.96257
12346 2 2.70977 120.982 4.26361
12351 2 4.53054 120.982 1.69589
6064 1 3.6196 119.411 2.95974
12345 2 5.43799 119.411 4.26078
12376 2 7.25875 119.413 1.69307
5910 1 9.07584 119.411 2.95974
5911 1 6.34762 120.981 2.96257
12128 2 8.16601 120.982 4.26361
12166 2 9.98678 120.982 1.69589
5670 1 11.8039 120.981 2.96257
12164 2 10.8942 119.411 4.26078
11873 2 15.443 120.982 1.69589
12165 2 12.715 119.413 1.69307
5703 1 14.5321 119.411 2.95974
11868 2 13.6222 120.982 4.26361
11904 2 18.1712 119.413 1.69307
5385 1 17.2601 120.981 2.96257
11867 2 16.3505 119.411 4.26078
11558 2 20.8993 120.982 1.69589
12479 2 21.8067 119.411 4.26078
5384 1 19.9883 119.411 2.95974
11533 2 19.0785 120.982 4.26361
12481 2 1.8024 122.551 1.69767
12323 2 2.70978 124.123 4.26614
6046 1 0.89139 124.121 2.96509
12350 2 4.53056 124.12 1.6984
6045 1 3.61948 122.551 2.96435
12348 2 5.43786 122.552 4.2654
12349 2 7.25864 122.551 1.69767
5913 1 9.07571 122.551 2.96435
12127 2 8.16601 124.123 4.26614
5884 1 6.34763 124.121 2.96509
12132 2 9.9868 124.12 1.6984
12126 2 10.8941 122.552 4.2654
5669 1 11.8039 124.121 2.96509
12168 2 12.7149 122.551 1.69767
11872 2 15.443 124.12 1.6984
5668 1 14.532 122.551 2.96435
11831 2 13.6223 124.123 4.26614
11871 2 18.1711 122.551 1.69767
11870 2 16.3503 122.552 4.2654
5354 1 17.2601 124.121 2.96509
11535 2 20.8993 124.12 1.6984
12466 2 21.8066 122.552 4.2654
5387 1 19.9882 122.551 2.96435
11532 2 19.0785 124.123 4.26614
12468 2 1.80254 125.689 1.69809
6031 1 0.891652 127.26 2.96343
12322 2 2.71004 127.264 4.26448
6048 1 3.61961 125.69 2.96478
12321 2 5.43799 125.693 4.26583
12327 2 4.53082 127.258 1.69673
12352 2 7.25878 125.689 1.69809
5882 1 9.07585 125.69 2.96478
5883 1 6.34789 127.26 2.96343
12092 2 8.16628 127.264 4.26448
12129 2 10.8942 125.693 4.26583
12131 2 9.98706 127.258 1.69673
5631 1 11.8041 127.26 2.96343
12130 2 12.715 125.689 1.69809
5671 1 14.5321 125.69 2.96478
11835 2 15.4433 127.258 1.69673
11830 2 13.6225 127.264 4.26448
11874 2 18.1713 125.689 1.69809
11829 2 16.3505 125.693 4.26583
5353 1 17.2604 127.26 2.96343
12467 2 21.8067 125.693 4.26583
5352 1 19.9883 125.69 2.96478
11534 2 20.8995 127.258 1.69673
11501 2 19.0788 127.264 4.26448
12469 2 1.80293 128.827 1.69433
6029 1 3.62 128.83 2.96102
12324 2 5.43838 128.834 4.26207
12325 2 7.25917 128.827 1.69433
5885 1 9.07624 128.83 2.96102
12090 2 10.8946 128.834 4.26207
12133 2 12.7154 128.827 1.69433
5629 1 14.5325 128.83 2.96102
11833 2 18.1716 128.827 1.69433
11832 2 16.3509 128.834 4.26207
12454 2 21.8071 128.834 4.26207
5355 1 19.9887 128.83 2.96102
12456 2 1.80358 131.965 1.68637
6030 1 0.892172 130.399 2.95757
12299 2 2.71056 130.405 4.25862
12326 2 4.53134 130.396 1.69087
6032 1 3.62065 131.969 2.95306
12297 2 5.43903 131.975 4.25411
12328 2 7.25981 131.965 1.68637
5854 1 9.07689 131.969 2.95306
5856 1 6.34841 130.399 2.95757
12091 2 8.1668 130.405 4.25862
12096 2 9.98758 130.396 1.69087
5630 1 11.8046 130.399 2.95757
12093 2 10.8953 131.975 4.25411
11834 2 15.4438 130.396 1.69087
12094 2 12.7161 131.965 1.68637
5632 1 14.5331 131.969 2.95306
11786 2 13.623 130.405 4.25862
11836 2 18.1723 131.965 1.68637
5314 1 17.2609 130.399 2.95757
11784 2 16.3515 131.975 4.25411
11503 2 20.9001 130.396 1.69087
12455 2 21.8077 131.975 4.25411
5312 1 19.9894 131.969 2.95306
11500 2 19.0793 130.405 4.25862
12457 2 1.80447 135.102 1.67419
6015 1 0.892951 133.539 2.9475
12298 2 2.71134 133.546 4.24855
12303 2 4.53211 133.534 1.68081
6013 1 3.62156 135.109 2.94088
12300 2 5.43994 135.117 4.24192
12301 2 7.26071 135.102 1.67419
5855 1 6.34919 133.539 2.9475
5857 1 9.0778 135.109 2.94088
12056 2 8.16757 133.546 4.24855
12095 2 9.98835 133.534 1.68081
5591 1 11.8054 133.539 2.9475
12054 2 10.8962 135.117 4.24192
11790 2 15.4446 133.534 1.68081
12097 2 12.7169 135.102 1.67419
5589 1 14.534 135.109 2.94088
11785 2 13.6238 133.546 4.24855
11788 2 18.1732 135.102 1.67419
5313 1 17.2617 133.539 2.9475
11787 2 16.3524 135.117 4.24192
11502 2 20.9008 133.534 1.68081
12442 2 21.8087 135.117 4.24192
5315 1 19.9903 135.109 2.94088
11461 2 19.0801 133.546 4.24855
12444 2 1.80561 138.24 1.65779
6014 1 0.89399 136.678 2.9332
12276 2 2.71238 136.687 4.23424
12302 2 4.53313 136.671 1.66652
6016 1 3.62273 138.248 2.92446
12274 2 5.44111 138.258 4.2255
12304 2 7.26185 138.24 1.65779
5826 1 9.07896 138.248 2.92446
5828 1 6.35023 136.678 2.9332
12055 2 8.16861 136.687 4.23424
12060 2 9.98937 136.671 1.66652
5590 1 11.8065 136.678 2.9332
12057 2 10.8974 138.258 4.2255
11789 2 15.4456 136.671 1.66652
12058 2 12.7181 138.24 1.65779
5592 1 14.5352 138.248 2.92446
11740 2 13.6249 136.687 4.23424
11791 2 18.1743 138.24 1.65779
5267 1 17.2627 136.678 2.9332
11738 2 16.3536 138.258 4.2255
11463 2 20.9018 136.671 1.66652
12443 2 21.8098 138.258 4.2255
5265 1 19.9914 138.248 2.92446
11460 2 19.0811 136.687 4.23424
12445 2 1.807 141.378 1.63715
6000 1 0.895288 139.818 2.91466
12275 2 2.71368 139.828 4.21568
12280 2 4.5344 139.809 1.648
5998 1 3.62415 141.388 2.90378
12277 2 5.44254 141.399 4.2048
12278 2 7.26324 141.378 1.63715
5827 1 6.35153 139.818 2.91466
5829 1 9.08039 141.388 2.90378
12024 2 8.16991 139.828 4.21568
12059 2 9.99063 139.809 1.648
5552 1 11.8078 139.818 2.91466
12022 2 10.8988 141.399 4.2048
11744 2 15.4469 139.809 1.648
12061 2 12.7195 141.378 1.63715
5550 1 14.5366 141.388 2.90378
11739 2 13.6262 139.828 4.21568
11742 2 18.1757 141.378 1.63715
5266 1 17.264 139.818 2.91466
11741 2 16.355 141.399 4.2048
11462 2 20.9031 139.809 1.648
12434 2 21.8113 141.399 4.2048
5268 1 19.9929 141.388 2.90378
11414 2 19.0824 139.828 4.21568
12436 2 1.8086 144.517 1.61223
5999 1 0.896837 142.958 2.89184
12260 2 2.71523 142.97 4.19285
12279 2 4.53589 142.948 1.62522
6001 1 3.62582 144.528 2.87882
12258 2 5.44422 144.54 4.17984
12281 2 7.26484 144.517 1.61223
5802 1 9.08206 144.528 2.87882
5804 1 6.35308 142.958 2.89184
12023 2 8.17147 142.97 4.19285
12028 2 9.99213 142.948 1.62522
5551 1 11.8093 142.958 2.89184
12025 2 10.9005 144.54 4.17984
11743 2 15.4484 142.948 1.62522
12026 2 12.7211 144.517 1.61223
5553 1 14.5383 144.528 2.87882
11700 2 13.6277 142.97 4.19285
11745 2 18.1773 144.517 1.61223
5220 1 17.2656 142.958 2.89184
11698 2 16.3567 144.54 4.17984
11416 2 20.9046 142.948 1.62522
12435 2 21.8129 144.54 4.17984
5218 1 19.9945 144.528 2.87882
11413 2 19.0839 142.97 4.19285
12437 2 1.81041 147.656 1.58308
5992 1 0.898628 146.098 2.86473
12259 2 2.71703 146.111 4.16576
12264 2 4.5376 146.086 1.59818
5990 1 3.62773 147.668 2.84959
12261 2 5.44614 147.682 4.15062
12262 2 7.26665 147.656 1.58308
5803 1 6.35487 146.098 2.86473
5805 1 9.08397 147.668 2.84959
12000 2 8.17327 146.111 4.16576
12027 2 9.99384 146.086 1.59818
5520 1 11.8111 146.098 2.86473
11998 2 10.9024 147.682 4.15062
11704 2 15.4501 146.086 1.59818
12029 2 12.7229 147.656 1.58308
5518 1 14.5402 147.668 2.84959
11699 2 13.6295 146.111 4.16576
11702 2 18.1791 147.656 1.58308
5219 1 17.2673 146.098 2.86473
11701 2 16.3586 147.682 4.15062
11415 2 20.9063 146.086 1.59818
12433 2 21.8149 147.682 4.15062
5221 1 19.9964 147.668 2.84959
11367 2 19.0857 146.111 4.16576
5991 1 0.900646 149.239 2.83341
12249 2 2.71906 149.253 4.13445
8163 2 1.81241 150.795 1.54981
12263 2 4.53951 149.225 1.56695
2008 1 3.62985 150.809 2.8162
8057 2 5.44828 150.824 4.11725
5785 1 6.35688 149.239 2.83341
11999 2 8.1753 149.253 4.13445
8072 2 7.26864 150.795 1.54981
1874 1 9.08609 150.809 2.8162
12001 2 9.99574 149.225 1.56695
5519 1 11.8131 149.239 2.83341
7873 2 10.9045 150.824 4.11725
11703 2 15.452 149.225 1.56695
11665 2 13.6315 149.253 4.13445
7874 2 12.7249 150.795 1.54981
1656 1 14.5423 150.809 2.8162
5177 1 17.2694 149.239 2.83341
7595 2 18.1811 150.795 1.54981
7582 2 16.3608 150.824 4.11725
11368 2 20.9082 149.225 1.56695
11366 2 19.0878 149.253 4.13445
8162 2 21.817 150.824 4.11725
1337 1 19.9986 150.809 2.8162
12390 2 0.89492 102.114 6.73235
5955 1 4.53299 102.123 5.44167
12207 2 6.35116 102.114 6.73235
5738 1 9.98923 102.123 5.44167
11917 2 11.8074 102.114 6.73235
5422 1 15.4455 102.123 5.44167
11578 2 17.2636 102.114 6.73235
5056 1 20.9017 102.123 5.44167
6091 1 1.80403 103.695 5.45604
12389 2 0.8933 105.259 6.75998
5954 1 4.53137 105.266 5.46938
12388 2 3.62219 103.687 6.74668
5953 1 7.26027 103.695 5.45604
12187 2 6.34954 105.259 6.75998
12208 2 9.07843 103.687 6.74668
5722 1 9.98761 105.266 5.46938
11916 2 11.8058 105.259 6.75998
5421 1 15.4439 105.266 5.46938
5739 1 12.7165 103.695 5.45604
11915 2 14.5347 103.687 6.74668
5420 1 18.1727 103.695 5.45604
11570 2 17.262 105.259 6.75998
5055 1 20.9001 105.266 5.46938
11579 2 19.9909 103.687 6.74668
6075 1 1.80255 106.838 5.48167
12367 2 0.891966 108.404 6.78344
5935 1 4.53003 108.41 5.49291
12391 2 3.62072 106.832 6.77223
5956 1 7.25879 106.838 5.48167
12185 2 9.07696 106.832 6.77223
12186 2 6.3482 108.404 6.78344
5721 1 9.98627 108.41 5.49291
11895 2 11.8044 108.404 6.78344
5406 1 15.4425 108.41 5.49291
5720 1 12.715 106.838 5.48167
11918 2 14.5332 106.832 6.77223
5423 1 18.1713 106.838 5.48167
11569 2 17.2607 108.404 6.78344
5054 1 20.8987 108.41 5.49291
11568 2 19.9894 106.832 6.77223
6076 1 1.80135 109.981 5.5031
12366 2 0.890908 111.549 6.80272
5934 1 4.52897 111.553 5.51223
12365 2 3.61952 109.976 6.7936
5933 1 7.25758 109.981 5.5031
12159 2 6.34715 111.549 6.80272
12188 2 9.07576 109.976 6.7936
5698 1 9.9852 111.553 5.51223
11894 2 11.8034 111.549 6.80272
5405 1 15.4414 111.553 5.51223
5723 1 12.7138 109.981 5.5031
11893 2 14.532 109.976 6.7936
5404 1 18.1701 109.981 5.5031
11554 2 17.2596 111.549 6.80272
5047 1 20.8977 111.553 5.51223
11571 2 19.9882 109.976 6.7936
6059 1 1.80041 113.124 5.52031
12343 2 0.890121 114.693 6.81781
5908 1 4.52817 114.696 5.52734
12368 2 3.6186 113.121 6.81079
5936 1 7.25665 113.124 5.52031
12157 2 9.07484 113.121 6.81079
12158 2 6.34636 114.693 6.81781
5697 1 9.98441 114.696 5.52734
11865 2 11.8026 114.693 6.81781
5382 1 15.4406 114.696 5.52734
5696 1 12.7129 113.124 5.52031
11896 2 14.5311 113.121 6.81079
5407 1 18.1691 113.124 5.52031
11553 2 17.2588 114.693 6.81781
5046 1 20.8969 114.696 5.52734
11552 2 19.9873 113.121 6.81079
6060 1 1.79975 116.267 5.53332
12342 2 0.889598 117.838 6.8287
5907 1 4.52764 117.839 5.53825
12341 2 3.61795 116.265 6.82378
5906 1 7.25599 116.267 5.53332
12124 2 6.34584 117.838 6.8287
12160 2 9.07418 116.265 6.82378
5666 1 9.98388 117.839 5.53825
11864 2 11.8021 117.838 6.8287
5381 1 15.4401 117.839 5.53825
5699 1 12.7122 116.267 5.53332
11863 2 14.5304 116.265 6.82378
5380 1 18.1685 116.267 5.53332
11530 2 17.2583 117.838 6.8287
5031 1 20.8964 117.839 5.53825
11555 2 19.9867 116.265 6.82378
6043 1 1.79936 119.41 5.54213
12319 2 0.889337 120.982 6.83541
5880 1 4.52738 120.982 5.54497
12344 2 3.61755 119.41 6.83258
5909 1 7.25559 119.41 5.54213
12122 2 9.07379 119.41 6.83258
12123 2 6.34558 120.982 6.83541
5665 1 9.98361 120.982 5.54497
11827 2 11.8018 120.982 6.83541
5350 1 15.4399 120.982 5.54497
5664 1 12.7118 119.41 5.54213
11866 2 14.53 119.41 6.83258
5383 1 18.1681 119.41 5.54213
11529 2 17.2581 120.982 6.83541
5030 1 20.8961 120.982 5.54497
11528 2 19.9863 119.41 6.83258
6044 1 1.79922 122.553 5.54676
12318 2 0.889335 124.126 6.83795
5879 1 4.52737 124.124 5.5475
12317 2 3.61742 122.554 6.8372
5878 1 7.25546 122.553 5.54676
12088 2 6.34557 124.126 6.83795
12125 2 9.07366 122.554 6.8372
5627 1 9.98361 124.124 5.5475
11826 2 11.8018 124.126 6.83795
5349 1 15.4399 124.124 5.5475
5667 1 12.7117 122.553 5.54676
11825 2 14.5299 122.554 6.8372
5348 1 18.1679 122.553 5.54676
11498 2 17.2581 124.126 6.83795
5007 1 20.8961 124.124 5.5475
11531 2 19.9861 122.554 6.8372
6027 1 1.79935 125.696 5.5472
12295 2 0.88959 127.271 6.8363
12320 2 3.61755 125.699 6.83764
5852 1 4.52763 127.267 5.54585
5881 1 7.25559 125.696 5.5472
12086 2 9.07379 125.699 6.83764
12087 2 6.34583 127.271 6.8363
5626 1 9.98387 127.267 5.54585
11782 2 11.8021 127.271 6.8363
5625 1 12.7118 125.696 5.5472
11828 2 14.53 125.699 6.83764
5310 1 15.4401 127.267 5.54585
5351 1 18.1681 125.696 5.5472
11497 2 17.2583 127.271 6.8363
11496 2 19.9863 125.699 6.83764
5006 1 20.8963 127.267 5.54585
6028 1 1.79974 128.838 5.54345
12293 2 3.61793 128.843 6.8339
5850 1 7.25598 128.838 5.54345
12089 2 9.07417 128.843 6.8339
5628 1 12.7122 128.838 5.54345
11780 2 14.5304 128.843 6.8339
5308 1 18.1685 128.838 5.54345
11499 2 19.9866 128.843 6.8339
6011 1 1.80039 131.981 5.53548
12294 2 0.890102 130.415 6.83045
5851 1 4.52815 130.41 5.53999
12296 2 3.61858 131.987 6.82595
5853 1 7.25663 131.981 5.53548
12050 2 9.07481 131.987 6.82595
12052 2 6.34634 130.415 6.83045
5587 1 9.98439 130.41 5.53999
11781 2 11.8026 130.415 6.83045
5309 1 15.4406 130.41 5.53999
5585 1 12.7129 131.981 5.53548
11783 2 14.5311 131.987 6.82595
5311 1 18.1691 131.981 5.53548
11458 2 17.2588 130.415 6.83045
4975 1 20.8969 130.41 5.53999
11456 2 19.9873 131.987 6.82595
6012 1 1.80131 135.124 5.5233
12272 2 0.890875 133.559 6.8204
5824 1 4.52894 133.552 5.52992
12270 2 3.61948 135.131 6.81379
5822 1 7.25755 135.124 5.5233
12051 2 6.34711 133.559 6.8204
12053 2 9.07572 135.131 6.81379
5586 1 9.98517 133.552 5.52992
11736 2 11.8034 133.559 6.8204
5263 1 15.4414 133.552 5.52992
5588 1 12.7138 135.124 5.5233
11734 2 14.532 135.131 6.81379
5261 1 18.17 135.124 5.5233
11457 2 17.2596 133.559 6.8204
4974 1 20.8977 133.552 5.52992
11459 2 19.9882 135.131 6.81379
5996 1 1.80249 138.267 5.50686
12271 2 0.891913 136.703 6.80611
5823 1 4.52999 136.695 5.51561
12273 2 3.62065 138.275 6.79738
5825 1 7.25873 138.267 5.50686
12018 2 9.07689 138.275 6.79738
12020 2 6.34815 136.703 6.80611
5548 1 9.98623 136.695 5.51561
11735 2 11.8044 136.703 6.80611
5262 1 15.4425 136.695 5.51561
5546 1 12.715 138.267 5.50686
11737 2 14.5331 138.275 6.79738
5264 1 18.1712 138.267 5.50686
11411 2 17.2606 136.703 6.80611
4935 1 20.8987 136.695 5.51561
11409 2 19.9894 138.275 6.79738
5997 1 1.80395 141.409 5.48615
12256 2 0.893219 139.848 6.78758
5800 1 4.53131 139.838 5.49704
12254 2 3.62209 141.42 6.77671
5798 1 7.26019 141.409 5.48615
12019 2 6.34946 139.848 6.78758
12021 2 9.07833 141.42 6.77671
5547 1 9.98755 139.838 5.49704
11696 2 11.8057 139.848 6.78758
5216 1 15.4438 139.838 5.49704
5549 1 12.7164 141.409 5.48615
11694 2 14.5346 141.42 6.77671
5214 1 18.1727 141.409 5.48615
11410 2 17.2619 139.848 6.78758
4934 1 20.9 139.838 5.49704
11412 2 19.9908 141.42 6.77671
5988 1 1.80567 144.552 5.46115
12255 2 0.894794 142.992 6.76478
5799 1 4.53289 142.981 5.47418
12257 2 3.6238 144.564 6.75178
5801 1 7.26191 144.552 5.46115
11994 2 9.08004 144.564 6.75178
11996 2 6.35103 142.992 6.76478
5516 1 9.98913 142.981 5.47418
11695 2 11.8073 142.992 6.76478
5215 1 15.4454 142.981 5.47418
5514 1 12.7181 144.552 5.46115
11697 2 14.5363 144.564 6.75178
5217 1 18.1744 144.552 5.46115
11364 2 17.2635 142.992 6.76478
4889 1 20.9016 142.981 5.47418
11362 2 19.9925 144.564 6.75178
5989 1 1.80765 147.695 5.43187
12248 2 0.896636 146.136 6.73772
5784 1 4.53474 146.124 5.44704
12246 2 3.62578 147.708 6.7226
5782 1 7.26389 147.695 5.43187
11995 2 6.35287 146.136 6.73772
11997 2 9.08201 147.708 6.7226
5515 1 9.99098 146.124 5.44704
11664 2 11.8091 146.136 6.73772
5176 1 15.4472 146.124 5.44704
5517 1 12.7201 147.695 5.43187
11662 2 14.5383 147.708 6.7226
5174 1 18.1764 147.695 5.43187
11363 2 17.2654 146.136 6.73772
4888 1 20.9035 146.124 5.44704
11365 2 19.9945 147.708 6.7226
12247 2 0.898743 149.28 6.70644
1994 1 1.80988 150.839 5.39841
5783 1 4.53685 149.267 5.41566
8056 2 3.62801 150.853 6.68925
11977 2 6.35498 149.28 6.70644
1873 1 7.26612 150.839 5.39841
7854 2 9.08425 150.853 6.68925
5489 1 9.99309 149.267 5.41566
11663 2 11.8112 149.28 6.70644
5175 1 15.4493 149.267 5.41566
1641 1 12.7224 150.839 5.39841
7581 2 14.5405 150.853 6.68925
11321 2 17.2675 149.28 6.70644
1336 1 18.1786 150.839 5.39841
4843 1 20.9056 149.267 5.41566
7225 2 19.9967 150.853 6.68925
5951 1 2.71281 102.105 8.01841
12387 2 1.80202 103.671 9.31979
12183 2 4.53098 102.097 9.30553
5718 1 8.16905 102.105 8.01841
12181 2 7.25825 103.671 9.31979
11913 2 9.98722 102.097 9.30553
5418 1 13.6253 102.105 8.01841
11566 2 15.4435 102.097 9.30553
11914 2 12.7145 103.671 9.31979
11564 2 18.1707 103.671 9.31979
5053 1 19.0815 102.105 8.01841
11200 2 20.8997 102.097 9.30553
5931 1 2.71116 105.252 8.04606
5952 1 5.44007 103.678 8.03275
12182 2 4.52937 105.244 9.33301
5717 1 8.1674 105.252 8.04606
5716 1 10.8963 103.678 8.03275
11891 2 9.9856 105.244 9.33301
5402 1 13.6236 105.252 8.04606
11565 2 15.4418 105.244 9.33301
5419 1 16.3525 103.678 8.03275
6073 1 21.8088 103.678 8.03275
5052 1 19.0799 105.252 8.04606
11199 2 20.8981 105.244 9.33301
5930 1 2.70981 108.398 8.06953
12363 2 1.80055 106.818 9.34521
5929 1 5.43857 106.825 8.05831
12155 2 4.52804 108.392 9.35637
5694 1 8.16605 108.398 8.06953
12184 2 7.25679 106.818 9.34521
5719 1 10.8948 106.825 8.05831
11890 2 9.98428 108.392 9.35637
5401 1 13.6223 108.398 8.06953
11550 2 15.4405 108.392 9.35637
11889 2 12.713 106.818 9.34521
5400 1 16.351 106.825 8.05831
11567 2 18.1693 106.818 9.34521
6074 1 21.8073 106.825 8.05831
5045 1 19.0785 108.398 8.06953
11198 2 20.8968 108.392 9.35637
5904 1 2.70874 111.544 8.08881
12364 2 1.79937 109.966 9.36648
5932 1 5.43736 109.971 8.07969
12154 2 4.527 111.54 9.37556
5693 1 8.16498 111.544 8.08881
12153 2 7.25561 109.966 9.36648
5692 1 10.8936 109.971 8.07969
11861 2 9.98324 111.54 9.37556
5378 1 13.6212 111.544 8.08881
11549 2 15.4395 111.54 9.37556
11892 2 12.7118 109.966 9.36648
5403 1 16.3498 109.971 8.07969
11548 2 18.1681 109.966 9.36648
6057 1 21.8061 109.971 8.07969
5044 1 19.0775 111.544 8.08881
11191 2 20.8957 111.54 9.37556
5903 1 2.70795 114.69 8.10389
12339 2 1.79847 113.113 9.38359
5902 1 5.43643 113.117 8.09687
12120 2 4.52623 114.687 9.39058
5662 1 8.16418 114.69 8.10389
12156 2 7.2547 113.113 9.38359
5695 1 10.8927 113.117 8.09687
11860 2 9.98247 114.687 9.39058
5377 1 13.6204 114.69 8.10389
11526 2 15.4387 114.687 9.39058
11859 2 12.7109 113.113 9.38359
5376 1 16.3489 113.117 8.09687
11551 2 18.1672 113.113 9.38359
6058 1 21.8051 113.117 8.09687
5029 1 19.0767 114.69 8.10389
11190 2 20.8949 114.687 9.39058
5876 1 2.70742 117.836 8.11479
12340 2 1.79783 116.261 9.39653
5905 1 5.43577 116.263 8.10986
12119 2 4.52572 117.835 9.40144
5661 1 8.16366 117.836 8.11479
12118 2 7.25406 116.261 9.39653
5660 1 10.892 116.263 8.10986
11823 2 9.98196 117.835 9.40144
5346 1 13.6199 117.836 8.11479
11525 2 15.4382 117.835 9.40144
11862 2 12.7103 116.261 9.39653
5379 1 16.3482 116.263 8.10986
11524 2 18.1665 116.261 9.39653
6041 1 21.8045 116.263 8.10986
5028 1 19.0761 117.836 8.11479
11175 2 20.8944 117.835 9.40144
5875 1 2.70715 120.982 8.1215
12315 2 1.79744 119.409 9.40531
5874 1 5.43537 119.409 8.11867
12084 2 4.52547 120.982 9.40814
5623 1 8.16339 120.982 8.1215
12121 2 7.25368 119.409 9.40531
5663 1 10.8916 119.409 8.11867
11822 2 9.98171 120.982 9.40814
5345 1 13.6196 120.982 8.1215
11494 2 15.4379 120.982 9.40814
11821 2 12.7099 119.409 9.40531
5344 1 16.3479 119.409 8.11867
11527 2 18.1662 119.409 9.40531
6042 1 21.8041 119.409 8.11867
5005 1 19.0759 120.982 8.1215
11174 2 20.8942 120.982 9.40814
5848 1 2.70715 124.128 8.12404
12316 2 1.79731 122.556 9.40993
5877 1 5.43524 122.555 8.1233
12083 2 4.52546 124.13 9.41067
5622 1 8.16339 124.128 8.12404
12082 2 7.25355 122.556 9.40993
5621 1 10.8915 122.555 8.1233
11778 2 9.9817 124.13 9.41067
5306 1 13.6196 124.128 8.12404
11493 2 15.4379 124.13 9.41067
11824 2 12.7098 122.556 9.40993
5347 1 16.3477 122.555 8.1233
11492 2 18.166 122.556 9.40993
6025 1 21.804 122.555 8.1233
5004 1 19.0759 124.128 8.12404
11151 2 20.8942 124.13 9.41067
12291 2 1.79743 125.704 9.41038
5847 1 2.7074 127.274 8.1224
5846 1 5.43536 125.701 8.12374
12048 2 4.52571 127.277 9.40904
12085 2 7.25367 125.704 9.41038
5583 1 8.16364 127.274 8.1224
5624 1 10.8916 125.701 8.12374
11777 2 9.98195 127.277 9.40904
11776 2 12.7099 125.704 9.41038
5305 1 13.6199 127.274 8.1224
11454 2 15.4382 127.277 9.40904
5304 1 16.3478 125.701 8.12374
11495 2 18.1661 125.704 9.41038
6026 1 21.8041 125.701 8.12374
4973 1 19.0761 127.274 8.1224
11150 2 20.8944 127.277 9.40904
12292 2 1.7978 128.851 9.40665
5849 1 5.43574 128.847 8.12001
12046 2 7.25404 128.851 9.40665
5581 1 10.892 128.847 8.12001
11779 2 12.7103 128.851 9.40665
5307 1 16.3482 128.847 8.12001
11452 2 18.1665 128.851 9.40665
6009 1 21.8045 128.847 8.12001
5820 1 2.70791 130.42 8.11657
12268 2 1.79842 131.999 9.39875
5818 1 5.43638 131.993 8.11208
12047 2 4.5262 130.425 9.40323
5582 1 8.16415 130.42 8.11657
12049 2 7.25466 131.999 9.39875
5584 1 10.8926 131.993 8.11208
11732 2 9.98244 130.425 9.40323
5259 1 13.6204 130.42 8.11657
11453 2 15.4387 130.425 9.40323
11730 2 12.7109 131.999 9.39875
5257 1 16.3489 131.993 8.11208
11455 2 18.1671 131.999 9.39875
6010 1 21.8051 131.993 8.11208
4972 1 19.0766 130.42 8.11657
11119 2 20.8949 130.425 9.40323
5819 1 2.70868 133.566 8.10653
12269 2 1.7993 135.146 9.38664
5821 1 5.43728 135.139 8.09992
12016 2 4.52695 133.572 9.39322
5544 1 8.16492 133.566 8.10653
12014 2 7.25554 135.146 9.38664
5542 1 10.8935 135.139 8.09992
11731 2 9.98319 133.572 9.39322
5258 1 13.6212 133.566 8.10653
11407 2 15.4394 133.572 9.39322
11733 2 12.7118 135.146 9.38664
5260 1 16.3498 135.139 8.09992
11405 2 18.168 135.146 9.38664
5994 1 21.806 135.139 8.09992
4933 1 19.0774 133.566 8.10653
11118 2 20.8957 133.572 9.39322
5796 1 2.70972 136.712 8.09226
12252 2 1.80044 138.293 9.37032
5794 1 5.43845 138.284 8.08353
12015 2 4.52796 136.72 9.37901
5543 1 8.16595 136.712 8.09226
12017 2 7.25668 138.293 9.37032
5545 1 10.8947 138.284 8.08353
11692 2 9.9842 136.72 9.37901
5212 1 13.6222 136.712 8.09226
11406 2 15.4404 136.72 9.37901
11690 2 12.7129 138.293 9.37032
5210 1 16.3509 138.284 8.08353
11408 2 18.1692 138.293 9.37032
5995 1 21.8072 138.284 8.08353
4932 1 19.0784 136.712 8.09226
11080 2 20.8967 136.72 9.37901
5795 1 2.71102 139.857 8.07374
12253 2 1.80185 141.44 9.34976
5797 1 5.4399 141.43 8.06287
11992 2 4.52923 139.867 9.36057
5512 1 8.16726 139.857 8.07374
11990 2 7.25809 141.44 9.34976
5510 1 10.8961 141.43 8.06287
11691 2 9.98547 139.867 9.36057
5211 1 13.6235 139.857 8.07374
11360 2 15.4417 139.867 9.36057
11693 2 12.7143 141.44 9.34976
5213 1 16.3524 141.43 8.06287
11358 2 18.1706 141.44 9.34976
5986 1 21.8086 141.43 8.06287
4887 1 19.0797 139.857 8.07374
11079 2 20.8979 139.867 9.36057
5780 1 2.71261 143.003 8.05094
12244 2 1.80354 144.587 9.32496
5778 1 5.44163 144.576 8.03794
11991 2 4.53078 143.014 9.33789
5511 1 8.16885 143.003 8.05094
11993 2 7.25978 144.587 9.32496
5513 1 10.8979 144.576 8.03794
11660 2 9.98702 143.014 9.33789
5172 1 13.6251 143.003 8.05094
11359 2 15.4433 143.014 9.33789
11658 2 12.716 144.587 9.32496
5170 1 16.3541 144.576 8.03794
11361 2 18.1723 144.587 9.32496
5987 1 21.8103 144.576 8.03794
4886 1 19.0813 143.003 8.05094
11040 2 20.8995 143.014 9.33789
5779 1 2.71448 146.149 8.02388
12245 2 1.80551 147.734 9.29594
5781 1 5.44364 147.721 8.00876
11976 2 4.53261 146.161 9.31097
5488 1 8.17072 146.149 8.02388
11974 2 7.26175 147.734 9.29594
5486 1 10.8999 147.721 8.00876
11659 2 9.98885 146.161 9.31097
5171 1 13.627 146.149 8.02388
11320 2 15.4451 146.161 9.31097
11661 2 12.718 147.734 9.29594
5173 1 16.3561 147.721 8.00876
11318 2 18.1742 147.734 9.29594
5985 1 21.8124 147.721 8.00876
4842 1 19.0832 146.149 8.02388
11039 2 20.9013 146.161 9.31097
5769 1 2.71663 149.294 7.99258
8034 2 1.80777 150.881 9.26275
11975 2 4.53472 149.308 9.27986
1854 1 5.44592 150.867 7.97537
5487 1 8.17286 149.294 7.99258
7853 2 7.264 150.881 9.26275
11633 2 9.99096 149.308 9.27986
1640 1 10.9022 150.867 7.97537
5137 1 13.6291 149.294 7.99258
11319 2 15.4472 149.308 9.27986
7560 2 12.7202 150.881 9.26275
1321 1 16.3584 150.867 7.97537
7224 2 18.1765 150.881 9.26275
4841 1 19.0853 149.294 7.99258
11000 2 20.9034 149.308 9.27986
1993 1 21.8146 150.867 7.97537
5927 1 0.892672 102.088 10.5931
12179 2 2.71088 102.08 11.8789
5925 1 3.61995 103.663 10.6073
12180 2 5.4382 103.655 11.8931
5714 1 6.34891 102.088 10.5931
11887 2 8.16712 102.08 11.8789
5715 1 9.07619 103.663 10.6073
5398 1 11.8051 102.088 10.5931
11885 2 10.8944 103.655 11.8931
11562 2 13.6234 102.08 11.8789
5396 1 14.5324 103.663 10.6073
5050 1 17.2614 102.088 10.5931
11563 2 16.3507 103.655 11.8931
11197 2 19.0796 102.08 11.8789
12361 2 21.8069 103.655 11.8931
5051 1 19.9887 103.663 10.6073
5926 1 0.891065 105.237 10.6206
12151 2 2.70935 105.23 11.9062
5690 1 6.3473 105.237 10.6206
11886 2 8.16558 105.23 11.9062
5397 1 11.8035 105.237 10.6206
11546 2 13.6218 105.23 11.9062
5042 1 17.2598 105.237 10.6206
11196 2 19.0781 105.23 11.9062
5900 1 0.889752 108.386 10.6439
12150 2 2.70809 108.38 11.9293
5928 1 3.61849 106.812 10.6327
12149 2 5.4368 106.805 11.9182
5688 1 9.07473 106.812 10.6327
5689 1 6.34599 108.386 10.6439
11857 2 8.16433 108.38 11.9293
5374 1 11.8022 108.386 10.6439
11888 2 10.893 106.805 11.9182
5399 1 14.531 106.812 10.6327
11545 2 13.6206 108.38 11.9293
5041 1 17.2585 108.386 10.6439
11544 2 16.3493 106.805 11.9182
12362 2 21.8055 106.805 11.9182
5040 1 19.9872 106.812 10.6327
11189 2 19.0768 108.38 11.9293
5899 1 0.888722 111.535 10.663
12116 2 2.70711 111.531 11.9483
5898 1 3.61732 109.961 10.654
12152 2 5.43569 109.956 11.9393
5658 1 6.34496 111.535 10.663
5691 1 9.07356 109.961 10.654
11856 2 8.16335 111.531 11.9483
5373 1 11.8012 111.535 10.663
11855 2 10.8919 109.956 11.9393
5372 1 14.5298 109.961 10.654
11522 2 13.6196 111.531 11.9483
5026 1 17.2574 111.535 10.663
11547 2 16.3482 109.956 11.9393
12337 2 21.8044 109.956 11.9393
5043 1 19.986 109.961 10.654
11188 2 19.0758 111.531 11.9483
5872 1 0.887961 114.684 10.678
12115 2 2.70639 114.682 11.9632
5901 1 3.61643 113.11 10.671
12114 2 5.43484 113.106 11.9563
5656 1 9.07267 113.11 10.671
5657 1 6.3442 114.684 10.678
11819 2 8.16263 114.682 11.9632
5342 1 11.8004 114.684 10.678
11858 2 10.8911 113.106 11.9563
5375 1 14.5289 113.11 10.671
11521 2 13.6189 114.682 11.9632
5025 1 17.2567 114.684 10.678
11520 2 16.3473 113.106 11.9563
5024 1 19.9851 113.11 10.671
12338 2 21.8036 113.106 11.9563
11173 2 19.0751 114.682 11.9632
5871 1 0.887459 117.834 10.6889
12080 2 2.70592 117.832 11.974
5870 1 3.6158 116.259 10.684
12117 2 5.43424 116.257 11.9692
5619 1 6.3437 117.834 10.6889
5659 1 9.07204 116.259 10.684
11818 2 8.16216 117.832 11.974
5341 1 11.7999 117.834 10.6889
11817 2 10.8905 116.257 11.9692
5340 1 14.5283 116.259 10.684
11490 2 13.6184 117.832 11.974
5002 1 17.2562 117.834 10.6889
11523 2 16.3467 116.257 11.9692
5027 1 19.9845 116.259 10.684
12313 2 21.803 116.257 11.9692
11172 2 19.0746 117.832 11.974
5844 1 0.887207 120.983 10.6956
12079 2 2.70568 120.983 11.9807
5873 1 3.61542 119.408 10.6927
12078 2 5.43389 119.408 11.9779
5617 1 9.07166 119.408 10.6927
5618 1 6.34345 120.983 10.6956
11774 2 8.16192 120.983 11.9807
5302 1 11.7997 120.983 10.6956
11820 2 10.8901 119.408 11.9779
5343 1 14.5279 119.408 10.6927
11489 2 13.6182 120.983 11.9807
5001 1 17.2559 120.983 10.6956
11488 2 16.3464 119.408 11.9779
5000 1 19.9841 119.408 10.6927
12314 2 21.8026 119.408 11.9779
11149 2 19.0744 120.983 11.9807
5843 1 0.887202 124.132 10.6981
12044 2 2.70568 124.134 11.9832
5842 1 3.61529 122.557 10.6973
12081 2 5.43377 122.558 11.9825
5579 1 6.34344 124.132 10.6981
5620 1 9.07153 122.557 10.6973
11773 2 8.16192 124.134 11.9832
5301 1 11.7997 124.132 10.6981
11772 2 10.89 122.558 11.9825
5300 1 14.5278 122.557 10.6973
11450 2 13.6182 124.134 11.9832
4970 1 17.2559 124.132 10.6981
11491 2 16.3462 122.558 11.9825
5003 1 19.984 122.557 10.6973
12289 2 21.8025 122.558 11.9825
11148 2 19.0744 124.134 11.9832
5816 1 0.887441 127.281 10.6965
12043 2 2.70591 127.284 11.9816
5845 1 3.61541 125.706 10.6978
12042 2 5.43388 125.709 11.9829
5577 1 9.07165 125.706 10.6978
5578 1 6.34368 127.281 10.6965
11728 2 8.16215 127.284 11.9816
11775 2 10.8901 125.709 11.9829
5255 1 11.7999 127.281 10.6965
5303 1 14.5279 125.706 10.6978
11449 2 13.6184 127.284 11.9816
11448 2 16.3464 125.709 11.9829
4969 1 17.2562 127.281 10.6965
4968 1 19.9841 125.706 10.6978
12290 2 21.8026 125.709 11.9829
11117 2 19.0746 127.284 11.9816
5814 1 3.61577 128.855 10.6941
12045 2 5.43423 128.86 11.9792
5580 1 9.07201 128.855 10.6941
11726 2 10.8905 128.86 11.9792
5253 1 14.5282 128.855 10.6941
11451 2 16.3467 128.86 11.9792
4971 1 19.9845 128.855 10.6941
12266 2 21.8029 128.86 11.9792
5815 1 0.887925 130.43 10.6907
12012 2 2.70637 130.435 11.9758
5817 1 3.61638 132.004 10.6862
12010 2 5.43481 132.01 11.9714
5538 1 9.07262 132.004 10.6862
5540 1 6.34416 130.43 10.6907
11727 2 8.16261 130.435 11.9758
5254 1 11.8004 130.43 10.6907
11729 2 10.8911 132.01 11.9714
5256 1 14.5289 132.004 10.6862
11403 2 13.6189 130.435 11.9758
4930 1 17.2566 130.43 10.6907
11401 2 16.3473 132.01 11.9714
4928 1 19.9851 132.004 10.6862
12267 2 21.8035 132.01 11.9714
11116 2 19.0751 130.435 11.9758
5792 1 0.88866 133.579 10.6807
12011 2 2.70708 133.585 11.9659
5790 1 3.61724 135.153 10.6741
12013 2 5.43564 135.16 11.9594
5539 1 6.3449 133.579 10.6807
5541 1 9.07348 135.153 10.6741
11688 2 8.16332 133.585 11.9659
5208 1 11.8011 133.579 10.6807
11686 2 10.8919 135.16 11.9594
5206 1 14.5297 135.153 10.6741
11402 2 13.6196 133.585 11.9659
4929 1 17.2574 133.579 10.6807
11404 2 16.3481 135.16 11.9594
4931 1 19.986 135.153 10.6741
12250 2 21.8044 135.16 11.9594
11078 2 19.0758 133.585 11.9659
5791 1 0.889653 136.728 10.6665
11988 2 2.70803 136.736 11.9518
5793 1 3.61837 138.302 10.6579
11986 2 5.43671 138.311 11.9432
5506 1 9.07461 138.302 10.6579
5508 1 6.34589 136.728 10.6665
11687 2 8.16426 136.736 11.9518
5207 1 11.8021 136.728 10.6665
11689 2 10.893 138.311 11.9432
5209 1 14.5308 138.302 10.6579
11356 2 13.6205 136.736 11.9518
4884 1 17.2584 136.728 10.6665
11354 2 16.3492 138.311 11.9432
4882 1 19.9871 138.302 10.6579
12251 2 21.8054 138.311 11.9432
11077 2 19.0767 136.736 11.9518
5776 1 0.890911 139.876 10.6481
11987 2 2.70923 139.886 11.9336
5774 1 3.61976 141.451 10.6373
11989 2 5.43805 141.461 11.9228
5507 1 6.34715 139.876 10.6481
5509 1 9.076 141.451 10.6373
11656 2 8.16547 139.886 11.9336
5168 1 11.8034 139.876 10.6481
11654 2 10.8943 141.461 11.9228
5166 1 14.5322 141.451 10.6373
11355 2 13.6217 139.886 11.9336
4883 1 17.2596 139.876 10.6481
11357 2 16.3505 141.461 11.9228
4885 1 19.9885 141.451 10.6373
12242 2 21.8068 141.461 11.9228
11038 2 19.0779 139.886 11.9336
5775 1 0.892445 143.025 10.6255
11972 2 2.7107 143.036 11.9111
5777 1 3.62144 144.599 10.6126
11970 2 5.43966 144.611 11.8983
5482 1 9.07768 144.599 10.6126
5484 1 6.34868 143.025 10.6255
11655 2 8.16694 143.036 11.9111
5167 1 11.8049 143.025 10.6255
11657 2 10.8959 144.611 11.8983
5169 1 14.5339 144.599 10.6126
11316 2 13.6232 143.036 11.9111
4839 1 17.2612 143.025 10.6255
11314 2 16.3521 144.611 11.8983
4837 1 19.9902 144.599 10.6126
12243 2 21.8084 144.611 11.8983
11037 2 19.0794 143.036 11.9111
5768 1 0.894265 146.173 10.5986
11971 2 2.71245 146.185 11.8844
5766 1 3.62341 147.747 10.5836
11973 2 5.44155 147.76 11.8695
5483 1 6.3505 146.173 10.5986
5485 1 9.07964 147.747 10.5836
11632 2 8.16869 146.185 11.8844
5136 1 11.8067 146.173 10.5986
11630 2 10.8978 147.76 11.8695
5134 1 14.5359 147.747 10.5836
11315 2 13.6249 146.185 11.8844
4838 1 17.263 146.173 10.5986
11317 2 16.354 147.76 11.8695
4840 1 19.9921 147.747 10.5836
12241 2 21.8103 147.76 11.8695
10999 2 19.0812 146.185 11.8844
5767 1 0.896382 149.321 10.5676
11961 2 2.71449 149.335 11.8536
1853 1 3.62567 150.895 10.5505
7826 2 5.44375 150.909 11.8367
5465 1 6.35262 149.321 10.5676
11631 2 8.17073 149.335 11.8536
1617 1 9.08191 150.895 10.5505
5135 1 11.8089 149.321 10.5676
7559 2 10.9 150.909 11.8367
11281 2 13.627 149.335 11.8536
1320 1 14.5382 150.895 10.5505
4798 1 17.2651 149.321 10.5676
7209 2 16.3562 150.909 11.8367
10998 2 19.0832 149.335 11.8536
953 1 19.9944 150.895 10.5505
8033 2 21.8125 150.909 11.8367
5924 1 1.79994 103.647 13.181
12147 2 0.890888 102.063 14.4522
5682 1 2.70889 102.054 15.7401
5686 1 4.52885 102.071 13.1669
12145 2 3.61827 103.639 14.4661
5683 1 5.43631 103.631 15.7539
5684 1 7.25618 103.647 13.181
11883 2 6.34713 102.063 14.4522
5366 1 8.16513 102.054 15.7401
11884 2 9.07451 103.639 14.4661
5394 1 9.98508 102.071 13.1669
11542 2 11.8034 102.063 14.4522
5364 1 10.8925 103.631 15.7539
5038 1 15.4413 102.071 13.1669
5395 1 12.7124 103.647 13.181
5034 1 13.6214 102.054 15.7401
11540 2 14.5307 103.639 14.4661
5036 1 18.1687 103.647 13.181
11194 2 17.2596 102.063 14.4522
5035 1 16.3488 103.631 15.7539
4688 1 20.8976 102.071 13.1669
4685 1 19.0776 102.054 15.7401
5894 1 21.805 103.631 15.7539
11195 2 19.987 103.639 14.4661
12146 2 0.889487 105.216 14.479
5650 1 2.70756 105.208 15.7668
5685 1 4.52735 105.223 13.194
11853 2 6.34573 105.216 14.479
5365 1 8.1638 105.208 15.7668
5370 1 9.98359 105.223 13.194
11541 2 11.802 105.216 14.479
5037 1 15.4398 105.223 13.194
5018 1 13.62 105.208 15.7668
11186 2 17.2582 105.216 14.479
4687 1 20.8961 105.223 13.194
4684 1 19.0763 105.208 15.7668
5896 1 1.79859 106.799 13.2061
12112 2 0.888359 108.369 14.5019
5649 1 2.7065 108.363 15.7895
5654 1 4.52613 108.375 13.2171
12148 2 3.61701 106.792 14.4909
5648 1 5.43512 106.786 15.7786
5687 1 7.25483 106.799 13.2061
11851 2 9.07325 106.792 14.4909
11852 2 6.3446 108.369 14.5019
5334 1 8.16274 108.363 15.7895
5369 1 9.98237 108.375 13.2171
11518 2 11.8008 108.369 14.5019
5367 1 10.8914 106.786 15.7786
5022 1 15.4386 108.375 13.2171
5368 1 12.7111 106.799 13.2061
11543 2 14.5295 106.792 14.4909
5017 1 13.619 108.363 15.7895
5039 1 18.1673 106.799 13.2061
11185 2 17.2571 108.369 14.5019
5016 1 16.3476 106.786 15.7786
4686 1 20.8948 108.375 13.2171
5895 1 21.8038 106.786 15.7786
11184 2 19.9857 106.792 14.4909
4677 1 19.0752 108.363 15.7895
5897 1 1.79751 109.951 13.2271
12111 2 0.887482 111.522 14.5207
5611 1 2.70568 111.518 15.8082
5653 1 4.52519 111.527 13.236
12110 2 3.61601 109.946 14.5118
5651 1 5.43418 109.941 15.7993
5652 1 7.25375 109.951 13.2271
11815 2 6.34372 111.522 14.5207
11854 2 9.07225 109.946 14.5118
5333 1 8.16192 111.518 15.8082
5338 1 9.98143 111.527 13.236
11517 2 11.8 111.522 14.5207
5332 1 10.8904 109.941 15.7993
5371 1 12.71 109.951 13.2271
5021 1 15.4377 111.527 13.236
11516 2 14.5285 109.946 14.5118
4994 1 13.6182 111.518 15.8082
5020 1 18.1662 109.951 13.2271
11170 2 17.2562 111.522 14.5207
5019 1 16.3467 109.941 15.7993
4679 1 20.8939 111.527 13.236
5866 1 21.8029 109.941 15.7993
11187 2 19.9847 109.946 14.5118
4676 1 19.0744 111.518 15.8082
5868 1 1.79669 113.103 13.244
12076 2 0.886841 114.676 14.5354
5610 1 2.70508 114.673 15.8229
5615 1 4.52449 114.679 13.2509
12113 2 3.61525 113.099 14.5285
5609 1 5.43347 113.096 15.816
5655 1 7.25293 113.103 13.244
11813 2 9.07149 113.099 14.5285
11814 2 6.34308 114.676 14.5354
5294 1 8.16132 114.673 15.8229
5337 1 9.98073 114.679 13.2509
11486 2 11.7993 114.676 14.5354
5335 1 10.8897 113.096 15.816
4998 1 15.437 114.679 13.2509
5336 1 12.7092 113.103 13.244
11519 2 14.5277 113.099 14.5285
4993 1 13.6176 114.673 15.8229
5023 1 18.1654 113.103 13.244
11169 2 17.2556 114.676 14.5354
4992 1 16.3459 113.096 15.816
4678 1 20.8932 114.679 13.2509
11168 2 19.984 113.099 14.5285
5867 1 21.8022 113.096 15.816
4661 1 19.0738 114.673 15.8229
5869 1 1.79612 116.255 13.2568
12075 2 0.886423 117.83 14.5461
5571 1 2.70469 117.828 15.8335
5614 1 4.52404 117.831 13.2616
12074 2 3.61472 116.253 14.5413
5612 1 5.43298 116.251 15.8287
5613 1 7.25236 116.255 13.2568
11770 2 6.34266 117.83 14.5461
11816 2 9.07096 116.253 14.5413
5293 1 8.16093 117.828 15.8335
5298 1 9.98028 117.831 13.2616
11485 2 11.7989 117.83 14.5461
5292 1 10.8892 116.251 15.8287
4997 1 15.4365 117.831 13.2616
5339 1 12.7086 116.255 13.2568
11484 2 14.5272 116.253 14.5413
4962 1 13.6172 117.828 15.8335
4996 1 18.1648 116.255 13.2568
11146 2 17.2551 117.83 14.5461
4995 1 16.3455 116.251 15.8287
4663 1 20.8928 117.831 13.2616
11171 2 19.9834 116.253 14.5413
5838 1 21.8017 116.251 15.8287
4660 1 19.0734 117.828 15.8335
5840 1 1.79578 119.407 13.2655
12040 2 0.886219 120.983 14.5527
5570 1 2.70451 120.984 15.8401
5575 1 4.52381 120.983 13.2683
12077 2 3.61441 119.407 14.5499
5569 1 5.43269 119.406 15.8373
5616 1 7.25202 119.407 13.2655
11768 2 9.07065 119.407 14.5499
11769 2 6.34246 120.983 14.5527
5247 1 8.16075 120.984 15.8401
5297 1 9.98005 120.983 13.2683
11446 2 11.7987 120.983 14.5527
5295 1 10.8889 119.406 15.8373
5296 1 12.7083 119.407 13.2655
4966 1 15.4363 120.983 13.2683
11487 2 14.5269 119.407 14.5499
4961 1 13.617 120.984 15.8401
4999 1 18.1645 119.407 13.2655
11145 2 17.2549 120.983 14.5527
4960 1 16.3452 119.406 15.8373
4662 1 20.8925 120.983 13.2683
11144 2 19.9831 119.407 14.5499
5839 1 21.8014 119.406 15.8373
4637 1 19.0732 120.984 15.8401
5841 1 1.79567 122.559 13.2701
12039 2 0.886225 124.137 14.5552
5532 1 2.70452 124.139 15.8426
5574 1 4.52381 124.135 13.2708
12038 2 3.61432 122.56 14.5544
5572 1 5.43261 122.561 15.8418
5573 1 7.2519 122.559 13.2701
11724 2 6.34246 124.137 14.5552
11771 2 9.07055 122.56 14.5544
5246 1 8.16075 124.139 15.8426
5251 1 9.98005 124.135 13.2708
11445 2 11.7987 124.137 14.5552
5245 1 10.8888 122.561 15.8418
4965 1 15.4363 124.135 13.2708
5299 1 12.7081 122.559 13.2701
11444 2 14.5268 122.56 14.5544
4922 1 13.617 124.139 15.8426
4964 1 18.1644 122.559 13.2701
11114 2 17.2549 124.137 14.5552
4963 1 16.3451 122.561 15.8418
4639 1 20.8925 124.135 13.2708
11147 2 19.983 122.56 14.5544
5810 1 21.8013 122.561 15.8418
4636 1 19.0732 124.139 15.8426
5812 1 1.79578 125.712 13.2705
12008 2 0.886438 127.291 14.5536
5531 1 2.70472 127.294 15.841
12041 2 3.61442 125.714 14.5549
5530 1 5.43271 125.717 15.8423
5536 1 4.52404 127.288 13.2692
5576 1 7.25202 125.712 13.2705
11722 2 9.07066 125.714 14.5549
11723 2 6.34268 127.291 14.5536
5200 1 8.16096 127.294 15.841
5248 1 10.889 125.717 15.8423
5250 1 9.98027 127.288 13.2692
11399 2 11.7989 127.291 14.5536
5249 1 12.7083 125.712 13.2705
11447 2 14.5269 125.714 14.5549
4926 1 15.4365 127.288 13.2692
4921 1 13.6172 127.294 15.841
4967 1 18.1645 125.712 13.2705
4920 1 16.3452 125.717 15.8423
11113 2 17.2552 127.291 14.5536
11112 2 19.9831 125.714 14.5549
5811 1 21.8014 125.717 15.8423
4638 1 20.8928 127.288 13.2692
4605 1 19.0734 127.294 15.841
5813 1 1.79611 128.864 13.2669
12006 2 3.61474 128.868 14.5513
5533 1 5.43301 128.872 15.8387
5534 1 7.25235 128.864 13.2669
11725 2 9.07098 128.868 14.5513
5198 1 10.8893 128.872 15.8387
5252 1 12.7086 128.864 13.2669
11397 2 14.5272 128.868 14.5513
4924 1 18.1648 128.864 13.2669
4923 1 16.3455 128.872 15.8387
11115 2 19.9835 128.868 14.5513
5786 1 21.8017 128.872 15.8387
5788 1 1.79667 132.016 13.2591
12007 2 0.88686 130.445 14.5479
5500 1 2.70512 130.45 15.8354
5535 1 4.52448 130.44 13.2635
12009 2 3.61527 132.022 14.5435
5498 1 5.43351 132.027 15.831
5537 1 7.25291 132.016 13.2591
11682 2 9.07151 132.022 14.5435
11684 2 6.3431 130.445 14.5479
5199 1 8.16136 130.45 15.8354
5204 1 9.98072 130.44 13.2635
11398 2 11.7993 130.445 14.5479
5201 1 10.8898 132.027 15.831
4925 1 15.437 130.44 13.2635
5202 1 12.7092 132.016 13.2591
11400 2 14.5277 132.022 14.5435
4876 1 13.6176 130.45 15.8354
4927 1 18.1654 132.016 13.2591
11075 2 17.2556 130.445 14.5479
4874 1 16.346 132.027 15.831
4607 1 20.8932 130.44 13.2635
11073 2 19.984 132.022 14.5435
5787 1 21.8022 132.027 15.831
4604 1 19.0738 130.45 15.8354
5789 1 1.79747 135.168 13.2471
11984 2 0.887496 133.598 14.5381
5499 1 2.70572 133.605 15.8256
5504 1 4.52516 133.592 13.2536
11982 2 3.61602 135.175 14.5317
5501 1 5.43422 135.182 15.8192
5502 1 7.25371 135.168 13.2471
11683 2 6.34373 133.598 14.5381
11685 2 9.07225 135.175 14.5317
5160 1 8.16196 133.605 15.8256
5203 1 9.9814 133.592 13.2536
11352 2 11.8 133.598 14.5381
5158 1 10.8905 135.182 15.8192
4880 1 15.4376 133.592 13.2536
5205 1 12.7099 135.168 13.2471
11350 2 14.5285 135.175 14.5317
4875 1 13.6182 133.605 15.8256
4878 1 18.1662 135.168 13.2471
11074 2 17.2562 133.598 14.5381
4877 1 16.3467 135.182 15.8192
4606 1 20.8939 133.592 13.2536
11076 2 19.9847 135.175 14.5317
5770 1 21.8029 135.182 15.8192
4569 1 19.0744 133.605 15.8256
5772 1 1.79851 138.32 13.231
11983 2 0.888355 136.752 14.5242
5476 1 2.70653 136.76 15.8118
5503 1 4.52608 136.744 13.2396
11985 2 3.61699 138.328 14.5157
5474 1 5.43514 138.337 15.8033
5505 1 7.25475 138.32 13.231
11650 2 9.07323 138.328 14.5157
11652 2 6.34459 136.752 14.5242
5159 1 8.16277 136.76 15.8118
5164 1 9.98232 136.744 13.2396
11351 2 11.8008 136.752 14.5242
5161 1 10.8914 138.337 15.8033
4879 1 15.4386 136.744 13.2396
5162 1 12.711 138.32 13.231
11353 2 14.5295 138.328 14.5157
4831 1 13.619 136.76 15.8118
4881 1 18.1672 138.32 13.231
11035 2 17.2571 136.752 14.5242
4829 1 16.3476 138.337 15.8033
4571 1 20.8948 136.744 13.2396
11033 2 19.9857 138.328 14.5157
5771 1 21.8039 138.337 15.8033
4568 1 19.0752 136.76 15.8118
5773 1 1.7998 141.471 13.2107
11968 2 0.889446 139.905 14.5061
5475 1 2.70756 139.914 15.7938
5480 1 4.52724 139.895 13.2214
11966 2 3.6182 141.481 14.4956
5477 1 5.43629 141.492 15.7833
5478 1 7.25604 141.471 13.2107
11651 2 6.34568 139.905 14.5061
11653 2 9.07444 141.481 14.4956
5128 1 8.1638 139.914 15.7938
5163 1 9.98348 139.895 13.2214
11312 2 11.8019 139.905 14.5061
5126 1 10.8925 141.492 15.7833
4835 1 15.4397 139.895 13.2214
5165 1 12.7123 141.471 13.2107
11310 2 14.5307 141.481 14.4956
4830 1 13.62 139.914 15.7938
4833 1 18.1685 141.471 13.2107
11034 2 17.2582 139.905 14.5061
4832 1 16.3488 141.492 15.7833
4570 1 20.896 139.895 13.2214
11036 2 19.9869 141.481 14.4956
5762 1 21.805 141.492 15.7833
4533 1 19.0763 139.914 15.7938
5764 1 1.80137 144.622 13.1863
11967 2 0.890786 143.058 14.484
5460 1 2.70883 143.069 15.7718
5479 1 4.52867 143.047 13.199
11969 2 3.61967 144.634 14.4713
5458 1 5.43768 144.646 15.7593
5481 1 7.25761 144.622 13.1863
11626 2 9.07591 144.634 14.4713
11628 2 6.34702 143.058 14.484
5127 1 8.16507 143.069 15.7718
5132 1 9.98491 143.047 13.199
11311 2 11.8033 143.058 14.484
5129 1 10.8939 144.646 15.7593
4834 1 15.4411 143.047 13.199
5130 1 12.7138 144.622 13.1863
11313 2 14.5322 144.634 14.4713
4793 1 13.6213 143.069 15.7718
4836 1 18.1701 144.622 13.1863
10996 2 17.2595 143.058 14.484
4791 1 16.3502 144.646 15.7593
4535 1 20.8974 143.047 13.199
10994 2 19.9884 144.634 14.4713
5763 1 21.8064 144.646 15.7593
4532 1 19.0775 143.069 15.7718
5765 1 1.80323 147.773 13.1576
11960 2 0.892393 146.21 14.4577
5459 1 2.71037 146.222 15.7457
5464 1 4.53038 146.198 13.1725
11958 2 3.62142 147.786 14.443
5461 1 5.43936 147.799 15.7311
5462 1 7.25946 147.773 13.1576
11627 2 6.34863 146.21 14.4577
11629 2 9.07766 147.786 14.443
5104 1 8.1666 146.222 15.7457
5131 1 9.98662 146.198 13.1725
11280 2 11.8049 146.21 14.4577
5102 1 10.8956 147.799 15.7311
4797 1 15.4429 146.198 13.1725
5133 1 12.7157 147.773 13.1576
11278 2 14.5339 147.786 14.443
4792 1 13.6228 146.222 15.7457
4795 1 18.1719 147.773 13.1576
10995 2 17.2611 146.21 14.4577
4794 1 16.3518 147.799 15.7311
4534 1 20.8991 146.198 13.1725
10997 2 19.9901 147.786 14.443
5761 1 21.8081 147.799 15.7311
4498 1 19.0791 146.222 15.7457
11959 2 0.894291 149.362 14.4273
5449 1 2.71218 149.375 15.7155
1827 1 1.80539 150.923 13.1249
5463 1 4.53239 149.348 13.1418
7825 2 3.62348 150.937 14.4106
1585 1 5.44133 150.952 15.6989
11609 2 6.35053 149.362 14.4273
5103 1 8.16842 149.375 15.7155
1616 1 7.26163 150.923 13.1249
7530 2 9.07971 150.937 14.4106
5105 1 9.98863 149.348 13.1418
11279 2 11.8068 149.362 14.4273
1296 1 10.8976 150.952 15.6989
4796 1 15.4449 149.348 13.1418
4760 1 13.6247 149.375 15.7155
1297 1 12.7179 150.923 13.1249
7208 2 14.536 150.937 14.4106
10961 2 17.263 149.362 14.4273
952 1 18.1741 150.923 13.1249
937 1 16.3538 150.952 15.6989
4499 1 20.9011 149.348 13.1418
4497 1 19.0809 149.375 15.7155
6841 2 19.9922 150.937 14.4106
1826 1 21.81 150.952 15.6989
5646 1 0.889077 102.037 18.3128
12144 2 1.79851 103.624 17.0387
11849 2 4.52726 102.046 17.025
5644 1 3.61662 103.616 18.3263
5362 1 6.34532 102.037 18.3128
11847 2 7.25474 103.624 17.0387
5363 1 9.07286 103.616 18.3263
11538 2 9.9835 102.046 17.025
5014 1 11.8016 102.037 18.3128
11182 2 15.4397 102.046 17.025
11539 2 12.711 103.624 17.0387
5012 1 14.5291 103.616 18.3263
4682 1 17.2578 102.037 18.3128
11180 2 18.1672 103.624 17.0387
10880 2 20.896 102.046 17.025
4683 1 19.9853 103.616 18.3263
5645 1 0.88798 105.194 18.339
11848 2 4.52606 105.201 17.0514
5330 1 6.34422 105.194 18.339
11514 2 9.98229 105.201 17.0514
5013 1 11.8005 105.194 18.339
11181 2 15.4385 105.201 17.0514
4674 1 17.2567 105.194 18.339
10879 2 20.8948 105.201 17.0514
12108 2 1.79743 106.779 17.0631
5607 1 0.887114 108.352 18.3613
11811 2 4.5251 108.357 17.0739
5647 1 3.61564 106.773 18.3506
11850 2 7.25367 106.779 17.0631
5328 1 9.07188 106.773 18.3506
5329 1 6.34335 108.352 18.3613
11513 2 9.98134 108.357 17.0739
4990 1 11.7996 108.352 18.3613
11166 2 15.4376 108.357 17.0739
11512 2 12.7099 106.779 17.0631
5015 1 14.5281 106.773 18.3506
11183 2 18.1661 106.779 17.0631
4673 1 17.2558 108.352 18.3613
10878 2 20.8938 108.357 17.0739
4672 1 19.9844 106.773 18.3506
12109 2 1.79659 109.936 17.0836
5606 1 0.886454 111.51 18.3796
11810 2 4.52436 111.514 17.0924
5605 1 3.61488 109.931 18.3709
11809 2 7.25282 109.936 17.0836
5290 1 6.34269 111.51 18.3796
5331 1 9.07112 109.931 18.3709
11482 2 9.9806 111.514 17.0924
4989 1 11.7989 111.51 18.3796
11165 2 15.4368 111.514 17.0924
11515 2 12.7091 109.936 17.0836
4988 1 14.5274 109.931 18.3709
11164 2 18.1653 109.936 17.0836
4658 1 17.2552 111.51 18.3796
10871 2 20.8931 111.514 17.0924
4675 1 19.9836 109.931 18.3709
12072 2 1.79595 113.092 17.1002
5567 1 0.885978 114.668 18.3941
11766 2 4.52383 114.67 17.1069
5608 1 3.61431 113.089 18.3874
11812 2 7.25219 113.092 17.1002
5288 1 9.07055 113.089 18.3874
5289 1 6.34222 114.668 18.3941
11481 2 9.98007 114.67 17.1069
4958 1 11.7985 114.668 18.3941
11142 2 15.4363 114.67 17.1069
11480 2 12.7084 113.092 17.1002
4991 1 14.5268 113.089 18.3874
11167 2 18.1647 113.092 17.1002
4657 1 17.2547 114.668 18.3941
10870 2 20.8925 114.67 17.1069
4656 1 19.983 113.089 18.3874
12073 2 1.79552 116.249 17.1127
5566 1 0.885676 117.826 18.4046
11765 2 4.52349 117.827 17.1175
5565 1 3.61393 116.247 18.3998
11764 2 7.25176 116.249 17.1127
5243 1 6.34191 117.826 18.4046
5291 1 9.07016 116.247 18.3998
11442 2 9.97973 117.827 17.1175
4957 1 11.7982 117.826 18.4046
11141 2 15.436 117.827 17.1175
11483 2 12.708 116.249 17.1127
4956 1 14.5264 116.247 18.3998
11140 2 18.1642 116.249 17.1127
4634 1 17.2544 117.826 18.4046
10855 2 20.8922 117.827 17.1175
4659 1 19.9826 116.247 18.3998
12036 2 1.79527 119.406 17.1212
5528 1 0.885539 120.984 18.4111
11720 2 4.52333 120.984 17.124
5568 1 3.61371 119.405 18.4083
11767 2 7.2515 119.406 17.1212
5241 1 9.06995 119.405 18.4083
5242 1 6.34178 120.984 18.4111
11441 2 9.97957 120.984 17.124
4918 1 11.798 120.984 18.4111
11110 2 15.4358 120.984 17.124
11440 2 12.7077 119.406 17.1212
4959 1 14.5262 119.405 18.4083
11143 2 18.164 119.406 17.1212
4633 1 17.2543 120.984 18.4111
10854 2 20.892 120.984 17.124
4632 1 19.9824 119.405 18.4083
12037 2 1.79519 122.563 17.1257
5527 1 0.885562 124.143 18.4135
11719 2 4.52334 124.141 17.1265
5526 1 3.61365 122.564 18.4128
11718 2 7.25143 122.563 17.1257
5196 1 6.3418 124.143 18.4135
5244 1 9.06989 122.564 18.4128
11395 2 9.97958 124.141 17.1265
4917 1 11.798 124.143 18.4135
11109 2 15.4358 124.141 17.1265
11443 2 12.7077 122.563 17.1257
4916 1 14.5261 122.564 18.4128
11108 2 18.1639 122.563 17.1257
4602 1 17.2543 124.143 18.4135
10831 2 20.8921 124.141 17.1265
4635 1 19.9824 122.564 18.4128
12004 2 1.7953 125.719 17.1262
5496 1 0.885743 127.301 18.412
5529 1 3.61375 125.722 18.4133
11680 2 4.52354 127.298 17.1249
11721 2 7.25154 125.719 17.1262
5194 1 9.06999 125.722 18.4133
5195 1 6.34198 127.301 18.412
11394 2 9.97978 127.298 17.1249
4872 1 11.7982 127.301 18.412
11393 2 12.7078 125.719 17.1262
4919 1 14.5262 125.722 18.4133
11071 2 15.436 127.298 17.1249
11111 2 18.164 125.719 17.1262
4601 1 17.2545 127.301 18.412
4600 1 19.9825 125.722 18.4133
10830 2 20.8923 127.298 17.1249
12005 2 1.79558 128.876 17.1226
5494 1 3.61401 128.88 18.4097
11678 2 7.25182 128.876 17.1226
5197 1 9.07025 128.88 18.4097
11396 2 12.7081 128.876 17.1226
4870 1 14.5265 128.88 18.4097
11069 2 18.1643 128.876 17.1226
4603 1 19.9827 128.88 18.4097
11980 2 1.79604 132.033 17.115
5495 1 0.886085 130.46 18.4064
11679 2 4.52391 130.455 17.1193
5497 1 3.61444 132.039 18.4022
11681 2 7.25228 132.033 17.115
5154 1 9.07068 132.039 18.4022
5156 1 6.34232 130.46 18.4064
11348 2 9.98014 130.455 17.1193
4871 1 11.7986 130.46 18.4064
11070 2 15.4364 130.455 17.1193
11346 2 12.7085 132.033 17.115
4873 1 14.5269 132.039 18.4022
11072 2 18.1648 132.033 17.115
4566 1 17.2548 130.46 18.4064
10803 2 20.8926 130.455 17.1193
4564 1 19.9832 132.039 18.4022
11981 2 1.79668 135.189 17.1033
5472 1 0.886592 133.618 18.3969
11648 2 4.52446 133.611 17.1097
5470 1 3.61503 135.197 18.3906
11646 2 7.25292 135.189 17.1033
5155 1 6.34283 133.618 18.3969
5157 1 9.07127 135.197 18.3906
11347 2 9.9807 133.611 17.1097
4827 1 11.7991 133.618 18.3969
11031 2 15.4369 133.611 17.1097
11349 2 12.7092 135.189 17.1033
4825 1 14.5275 135.197 18.3906
11029 2 18.1654 135.189 17.1033
4565 1 17.2553 133.618 18.3969
10802 2 20.8932 133.611 17.1097
4567 1 19.9837 135.197 18.3906
11964 2 1.79753 138.346 17.0876
5471 1 0.887271 136.776 18.3833
11647 2 4.5252 136.768 17.096
5473 1 3.6158 138.355 18.3749
11649 2 7.25376 138.346 17.0876
5122 1 9.07204 138.355 18.3749
5124 1 6.34351 136.776 18.3833
11308 2 9.98144 136.768 17.096
4826 1 11.7997 136.776 18.3833
11030 2 15.4377 136.768 17.096
11306 2 12.71 138.346 17.0876
4828 1 14.5283 138.355 18.3749
11032 2 18.1662 138.346 17.0876
4530 1 17.256 136.776 18.3833
10775 2 20.8939 136.768 17.096
4528 1 19.9845 138.355 18.3749
11965 2 1.79858 141.502 17.0678
5456 1 0.888136 139.933 18.3656
11624 2 4.52614 139.924 17.0782
5454 1 3.61676 141.512 18.3553
11622 2 7.25481 141.502 17.0678
5123 1 6.34437 139.933 18.3656
5125 1 9.073 141.512 18.3553
11307 2 9.98238 139.924 17.0782
4789 1 11.8006 139.933 18.3656
10992 2 15.4386 139.924 17.0782
11309 2 12.7111 141.502 17.0678
4787 1 14.5292 141.512 18.3553
10990 2 18.1673 141.502 17.0678
4529 1 17.2569 139.933 18.3656
10774 2 20.8949 139.924 17.0782
4531 1 19.9855 141.512 18.3553
11956 2 1.79986 144.657 17.044
5455 1 0.889204 143.09 18.344
11623 2 4.5273 143.079 17.0564
5457 1 3.61794 144.669 18.3317
11625 2 7.25609 144.657 17.044
5098 1 9.07418 144.669 18.3317
5100 1 6.34544 143.09 18.344
11276 2 9.98354 143.079 17.0564
4788 1 11.8017 143.09 18.344
10991 2 15.4398 143.079 17.0564
11274 2 12.7123 144.657 17.044
4790 1 14.5304 144.669 18.3317
10993 2 18.1686 144.657 17.044
4495 1 17.2579 143.09 18.344
10747 2 20.896 143.079 17.0564
4493 1 19.9867 144.669 18.3317
11957 2 1.80139 147.812 17.0161
5448 1 0.8905 146.247 18.3184
11608 2 4.52871 146.234 17.0306
5446 1 3.61936 147.825 18.3041
11606 2 7.25763 147.812 17.0161
5099 1 6.34674 146.247 18.3184
5101 1 9.0756 147.825 18.3041
11275 2 9.98495 146.234 17.0306
4759 1 11.803 146.247 18.3184
10960 2 15.4412 146.234 17.0306
11277 2 12.7139 147.812 17.0161
4757 1 14.5318 147.825 18.3041
10958 2 18.1701 147.812 17.0161
4494 1 17.2592 146.247 18.3184
10746 2 20.8974 146.234 17.0306
4496 1 19.9881 147.825 18.3041
5447 1 0.892057 149.403 18.2888
7791 2 1.80322 150.966 16.9843
11607 2 4.53039 149.389 17.0007
1584 1 3.62107 150.98 18.2726
5081 1 6.3483 149.403 18.2888
7529 2 7.25946 150.966 16.9843
1265 1 9.0773 150.98 18.2726
11249 2 9.98662 149.389 17.0007
4758 1 11.8045 149.403 18.2888
10959 2 15.4429 149.389 17.0007
7185 2 12.7157 150.966 16.9843
936 1 14.5335 150.98 18.2726
4464 1 17.2608 149.403 18.2888
6840 2 18.1719 150.966 16.9843
10719 2 20.8991 149.389 17.0007
585 1 19.9898 150.98 18.2726
11845 2 2.70757 102.029 19.5974
5643 1 1.79716 103.6 20.8981
5326 1 4.52572 102.02 20.8849
11846 2 5.43519 103.608 19.6108
11510 2 8.16381 102.029 19.5974
5324 1 7.2534 103.6 20.8981
5010 1 9.98195 102.02 20.8849
11508 2 10.8914 103.608 19.6108
4670 1 15.4382 102.02 20.8849
11178 2 13.6201 102.029 19.5974
5011 1 12.7096 103.6 20.8981
4668 1 18.1659 103.6 20.8981
11179 2 16.3477 103.608 19.6108
4400 1 20.8944 102.02 20.8849
10877 2 19.0763 102.029 19.5974
12106 2 21.8039 103.608 19.6108
11807 2 2.70662 105.187 19.6232
5325 1 4.52489 105.18 20.9105
11509 2 8.16286 105.187 19.6232
4986 1 9.98113 105.18 20.9105
4669 1 15.4374 105.18 20.9105
11162 2 13.6191 105.187 19.6232
4399 1 20.8936 105.18 20.9105
10876 2 19.0753 105.187 19.6232
5603 1 1.79644 106.76 20.9219
11806 2 2.70587 108.346 19.6453
5286 1 4.52426 108.34 20.9323
11805 2 5.43434 106.767 19.6347
5327 1 7.25267 106.76 20.9219
11478 2 8.16211 108.346 19.6453
4985 1 9.9805 108.34 20.9323
11511 2 10.8906 106.767 19.6347
4654 1 15.4367 108.34 20.9323
4984 1 12.7089 106.76 20.9219
11161 2 13.6183 108.346 19.6453
4671 1 18.1652 106.76 20.9219
11160 2 16.3468 106.767 19.6347
12107 2 21.8031 106.767 19.6347
4398 1 20.893 108.34 20.9323
10869 2 19.0746 108.346 19.6453
5604 1 1.79588 109.921 20.9418
11762 2 2.70531 111.505 19.6635
5285 1 4.52378 111.501 20.9504
11808 2 5.43369 109.926 19.6549
5284 1 7.25212 109.921 20.9418
11477 2 8.16154 111.505 19.6635
4954 1 9.98002 111.501 20.9504
11476 2 10.8899 109.926 19.6549
4653 1 15.4363 111.501 20.9504
4987 1 12.7084 109.921 20.9418
11138 2 13.6178 111.505 19.6635
4652 1 18.1646 109.921 20.9418
11163 2 16.3462 109.926 19.6549
12070 2 21.8024 109.926 19.6549
4391 1 20.8925 111.501 20.9504
10868 2 19.074 111.505 19.6635
5563 1 1.79548 113.082 20.958
11761 2 2.7049 114.665 19.6778
5239 1 4.52345 114.662 20.9646
11760 2 5.4332 113.085 19.6711
5287 1 7.25172 113.082 20.958
11438 2 8.16114 114.665 19.6778
4953 1 9.97969 114.662 20.9646
11479 2 10.8894 113.085 19.6711
4630 1 15.4359 114.662 20.9646
4952 1 12.708 113.082 20.958
11137 2 13.6174 114.665 19.6778
4655 1 18.1642 113.082 20.958
11136 2 16.3457 113.085 19.6711
12071 2 21.8019 113.085 19.6711
4390 1 20.8922 114.662 20.9646
10853 2 19.0736 114.665 19.6778
5564 1 1.79521 116.243 20.9702
11716 2 2.70465 117.825 19.6882
5238 1 4.52325 117.824 20.9749
11763 2 5.43288 116.245 19.6835
5237 1 7.25145 116.243 20.9702
11437 2 8.16089 117.825 19.6882
4914 1 9.97949 117.824 20.9749
11436 2 10.8891 116.245 19.6835
4629 1 15.4357 117.824 20.9749
4955 1 12.7077 116.243 20.9702
11106 2 13.6171 117.825 19.6882
4628 1 18.1639 116.243 20.9702
11139 2 16.3454 116.245 19.6835
12034 2 21.8016 116.245 19.6835
4375 1 20.892 117.824 20.9749
10852 2 19.0734 117.825 19.6882
5524 1 1.79507 119.404 20.9786
11715 2 2.70455 120.985 19.6946
5192 1 4.52317 120.985 20.9813
11714 2 5.4327 119.405 19.6919
5240 1 7.25131 119.404 20.9786
11391 2 8.16078 120.985 19.6946
4913 1 9.97941 120.985 20.9813
11439 2 10.8889 119.405 19.6919
4598 1 15.4356 120.985 20.9813
4912 1 12.7075 119.404 20.9786
11105 2 13.617 120.985 19.6946
4631 1 18.1638 119.404 20.9786
11104 2 16.3452 119.405 19.6919
12035 2 21.8014 119.405 19.6919
4374 1 20.8919 120.985 20.9813
10829 2 19.0733 120.985 19.6946
5525 1 1.79505 122.566 20.983
11676 2 2.70458 124.145 19.6971
5191 1 4.52321 124.147 20.9837
11717 2 5.43266 122.565 19.6963
5190 1 7.25129 122.566 20.983
11390 2 8.16081 124.145 19.6971
4868 1 9.97944 124.147 20.9837
11389 2 10.8889 122.565 19.6963
4597 1 15.4357 124.147 20.9837
4915 1 12.7075 122.566 20.983
11067 2 13.6171 124.145 19.6971
4596 1 18.1638 122.566 20.983
11107 2 16.3451 122.565 19.6963
12002 2 21.8014 122.565 19.6963
4352 1 20.8919 124.147 20.9837
10828 2 19.0733 124.145 19.6971
5492 1 1.79515 125.727 20.9835
11675 2 2.70475 127.305 19.6955
11674 2 5.43276 125.725 19.6968
5152 1 4.52336 127.308 20.9822
5193 1 7.25139 125.727 20.9835
11344 2 8.16098 127.305 19.6955
11392 2 10.889 125.725 19.6968
4867 1 9.9796 127.308 20.9822
4866 1 12.7076 125.727 20.9835
4562 1 15.4358 127.308 20.9822
11066 2 13.6172 127.305 19.6955
4599 1 18.1639 125.727 20.9835
11065 2 16.3452 125.725 19.6968
12003 2 21.8015 125.725 19.6968
4351 1 20.8921 127.308 20.9822
10801 2 19.0735 127.305 19.6955
5493 1 1.79537 128.889 20.98
11677 2 5.433 128.885 19.6933
5150 1 7.2516 128.889 20.98
11342 2 10.8892 128.885 19.6933
4869 1 12.7078 128.889 20.98
4560 1 18.1641 128.889 20.98
11068 2 16.3455 128.885 19.6933
11978 2 21.8017 128.885 19.6933
5468 1 1.7957 132.05 20.9726
11644 2 2.70505 130.464 19.69
5151 1 4.52364 130.469 20.9768
11642 2 5.43338 132.044 19.6858
5153 1 7.25194 132.05 20.9726
11343 2 8.16129 130.464 19.69
4823 1 9.97988 130.469 20.9768
11345 2 10.8896 132.044 19.6858
4561 1 15.4361 130.469 20.9768
4821 1 12.7082 132.05 20.9726
11027 2 13.6175 130.464 19.69
4563 1 18.1644 132.05 20.9726
11025 2 16.3459 132.044 19.6858
11979 2 21.8021 132.044 19.6858
4328 1 20.8924 130.469 20.9768
10800 2 19.0738 130.464 19.69
5469 1 1.79617 135.211 20.9612
11643 2 2.70551 133.624 19.6805
5120 1 4.52404 133.631 20.9674
11645 2 5.43391 135.204 19.6743
5118 1 7.25241 135.211 20.9612
11304 2 8.16174 133.624 19.6805
4822 1 9.98028 133.631 20.9674
11302 2 10.8901 135.204 19.6743
4526 1 15.4365 133.631 20.9674
4824 1 12.7086 135.211 20.9612
11026 2 13.618 133.624 19.6805
4524 1 18.1649 135.211 20.9612
11028 2 16.3464 135.204 19.6743
11962 2 21.8026 135.204 19.6743
4327 1 20.8928 133.631 20.9674
10773 2 19.0742 133.624 19.6805
5452 1 1.79677 138.372 20.9459
11620 2 2.70611 136.783 19.6671
5119 1 4.52457 136.792 20.954
11618 2 5.43459 138.363 19.6588
5121 1 7.253 138.372 20.9459
11303 2 8.16235 136.783 19.6671
4785 1 9.98081 136.792 20.954
11305 2 10.8908 138.363 19.6588
4525 1 15.437 136.792 20.954
4783 1 12.7092 138.372 20.9459
10988 2 13.6186 136.783 19.6671
4527 1 18.1655 138.372 20.9459
10986 2 16.3471 138.363 19.6588
11963 2 21.8033 138.363 19.6588
4304 1 20.8933 136.792 20.954
10772 2 19.0748 136.783 19.6671
5453 1 1.79751 141.532 20.9266
11619 2 2.70687 139.943 19.6496
5096 1 4.52524 139.952 20.9367
11621 2 5.43544 141.522 19.6394
5094 1 7.25375 141.532 20.9266
11272 2 8.16311 139.943 19.6496
4784 1 9.98148 139.952 20.9367
11270 2 10.8917 141.522 19.6394
4491 1 15.4377 139.952 20.9367
4786 1 12.71 141.532 20.9266
10987 2 13.6193 139.943 19.6496
4489 1 18.1662 141.532 20.9266
10989 2 16.3479 141.522 19.6394
11954 2 21.8042 141.522 19.6394
4303 1 20.894 139.952 20.9367
10745 2 19.0756 139.943 19.6496
5444 1 1.79843 144.692 20.9035
11604 2 2.70782 143.101 19.6282
5095 1 4.52607 143.112 20.9155
11602 2 5.43648 144.68 19.6161
5097 1 7.25467 144.692 20.9035
11271 2 8.16406 143.101 19.6282
4755 1 9.98231 143.112 20.9155
11273 2 10.8927 144.68 19.6161
4490 1 15.4385 143.112 20.9155
4753 1 12.7109 144.692 20.9035
10956 2 13.6203 143.101 19.6282
4492 1 18.1671 144.692 20.9035
10954 2 16.349 144.68 19.6161
11955 2 21.8052 144.68 19.6161
4280 1 20.8948 143.112 20.9155
10744 2 19.0765 143.101 19.6282
5445 1 1.79955 147.851 20.8765
11603 2 2.70897 146.259 19.6029
5080 1 4.52708 146.272 20.8905
11605 2 5.43775 147.838 19.5888
5078 1 7.25578 147.851 20.8765
11248 2 8.16521 146.259 19.6029
4754 1 9.98332 146.272 20.8905
11246 2 10.894 147.838 19.5888
4463 1 15.4396 146.272 20.8905
4756 1 12.712 147.851 20.8765
10955 2 13.6214 146.259 19.6029
4461 1 18.1683 147.851 20.8765
10957 2 16.3502 147.838 19.5888
11953 2 21.8065 147.838 19.5888
4279 1 20.8958 146.272 20.8905
10718 2 19.0777 146.259 19.6029
11593 2 2.71036 149.416 19.5737
1546 1 1.8009 151.009 20.8457
5079 1 4.52831 149.43 20.8616
7492 2 5.43927 150.994 19.5577
11247 2 8.16659 149.416 19.5737
1264 1 7.25714 151.009 20.8457
4730 1 9.98455 149.43 20.8616
7184 2 10.8955 150.994 19.5577
4462 1 15.4408 149.43 20.8616
10929 2 13.6228 149.416 19.5737
913 1 12.7134 151.009 20.8457
584 1 18.1696 151.009 20.8457
6825 2 16.3517 150.994 19.5577
4256 1 20.897 149.43 20.8616
10717 2 19.0791 149.416 19.5737
7790 2 21.808 150.994 19.5577
5322 1 2.7064 102.003 23.4563
11803 2 0.888138 102.012 22.1691
5323 1 5.43425 103.584 23.4692
11801 2 3.6159 103.592 22.1822
4982 1 8.16264 102.003 23.4563
11506 2 6.34438 102.012 22.1691
11507 2 9.07214 103.592 22.1822
11158 2 11.8006 102.012 22.1691
4980 1 10.8905 103.584 23.4692
4666 1 13.6189 102.003 23.4563
11156 2 14.5284 103.592 22.1822
10874 2 17.2569 102.012 22.1691
4667 1 16.3467 103.584 23.4692
4397 1 19.0751 102.003 23.4563
5601 1 21.803 103.584 23.4692
10875 2 19.9846 103.592 22.1822
5282 1 2.70589 105.166 23.4813
11802 2 0.887471 105.173 22.1944
4981 1 8.16213 105.166 23.4813
11474 2 6.34371 105.173 22.1944
11157 2 11.7999 105.173 22.1944
4650 1 13.6184 105.166 23.4813
10866 2 17.2562 105.173 22.1944
4396 1 19.0746 105.166 23.4813
5281 1 2.70551 108.329 23.5027
11758 2 0.886962 108.335 22.216
5280 1 5.4338 106.747 23.4924
11804 2 3.61532 106.754 22.2057
4950 1 8.16175 108.329 23.5027
11472 2 9.07156 106.754 22.2057
11473 2 6.3432 108.335 22.216
4983 1 10.89 106.747 23.4924
11134 2 11.7994 108.335 22.216
4649 1 13.618 108.329 23.5027
11159 2 14.5278 106.754 22.2057
4648 1 16.3463 106.747 23.4924
10865 2 17.2557 108.335 22.216
5602 1 21.8025 106.747 23.4924
4389 1 19.0742 108.329 23.5027
10864 2 19.984 106.754 22.2057
5235 1 2.70523 111.493 23.5204
11757 2 0.886588 111.497 22.2339
5283 1 5.43348 109.911 23.512
11756 2 3.61488 109.916 22.2254
4949 1 8.16147 111.493 23.5204
11434 2 6.34283 111.497 22.2339
11475 2 9.07112 109.916 22.2254
4948 1 10.8897 109.911 23.512
11133 2 11.7991 111.497 22.2339
4626 1 13.6177 111.493 23.5204
11132 2 14.5274 109.916 22.2254
4651 1 16.346 109.911 23.512
10850 2 17.2553 111.497 22.2339
5561 1 21.8022 109.911 23.512
4388 1 19.0739 111.493 23.5204
10867 2 19.9836 109.916 22.2254
5234 1 2.70505 114.657 23.5343
11712 2 0.886331 114.66 22.2479
5233 1 5.43325 113.075 23.5278
11759 2 3.61456 113.078 22.2414
4910 1 8.16129 114.657 23.5343
11432 2 9.0708 113.078 22.2414
11433 2 6.34257 114.66 22.2479
4951 1 10.8895 113.075 23.5278
11102 2 11.7988 114.66 22.2479
4625 1 13.6175 114.657 23.5343
11135 2 14.527 113.078 22.2414
4624 1 16.3457 113.075 23.5278
10849 2 17.255 114.66 22.2479
5562 1 21.802 113.075 23.5278
4373 1 19.0738 114.657 23.5343
10848 2 19.9833 113.078 22.2414
5188 1 2.70496 117.821 23.5444
11711 2 0.886181 117.822 22.2581
5236 1 5.43311 116.239 23.5399
11710 2 3.61436 116.241 22.2535
4909 1 8.1612 117.821 23.5444
11387 2 6.34242 117.822 22.2581
11435 2 9.0706 116.241 22.2535
4908 1 10.8894 116.239 23.5399
11101 2 11.7987 117.822 22.2581
4594 1 13.6174 117.821 23.5444
11100 2 14.5268 116.241 22.2535
4627 1 16.3456 116.239 23.5399
10826 2 17.2549 117.822 22.2581
5522 1 21.8018 116.239 23.5399
4372 1 19.0737 117.821 23.5444
10851 2 19.9831 116.241 22.2535
5187 1 2.70494 120.986 23.5507
11672 2 0.886132 120.985 22.2645
5186 1 5.43306 119.404 23.5481
11713 2 3.61426 119.404 22.2618
4864 1 8.16118 120.986 23.5507
11385 2 9.0705 119.404 22.2618
11386 2 6.34237 120.985 22.2645
4911 1 10.8893 119.404 23.5481
11063 2 11.7986 120.985 22.2645
4593 1 13.6174 120.986 23.5507
11103 2 14.5267 119.404 22.2618
4592 1 16.3455 119.404 23.5481
10825 2 17.2548 120.985 22.2645
5523 1 21.8018 119.404 23.5481
4350 1 19.0737 120.986 23.5507
10824 2 19.983 119.404 22.2618
5148 1 2.70499 124.15 23.5532
11671 2 0.886179 124.148 22.2669
5189 1 5.43308 122.568 23.5524
11670 2 3.61426 122.567 22.2662
4863 1 8.16123 124.15 23.5532
11340 2 6.34242 124.148 22.2669
11388 2 9.0705 122.567 22.2662
4862 1 10.8893 122.568 23.5524
11062 2 11.7987 124.148 22.2669
4558 1 13.6175 124.15 23.5532
11061 2 14.5267 122.567 22.2662
4595 1 16.3456 122.568 23.5524
10798 2 17.2549 124.148 22.2669
5490 1 21.8018 122.568 23.5524
4349 1 19.0737 124.15 23.5532
10827 2 19.983 122.567 22.2662
5147 1 2.70512 127.315 23.5517
11640 2 0.886323 127.311 22.2654
5146 1 5.43317 125.733 23.5529
11673 2 3.61436 125.73 22.2666
11338 2 9.0706 125.73 22.2666
4819 1 8.16136 127.315 23.5517
11339 2 6.34256 127.311 22.2654
4865 1 10.8894 125.733 23.5529
11023 2 11.7988 127.311 22.2654
11064 2 14.5268 125.73 22.2666
4557 1 13.6176 127.315 23.5517
4556 1 16.3456 125.733 23.5529
10797 2 17.255 127.311 22.2654
5491 1 21.8019 125.733 23.5529
10796 2 19.9831 125.73 22.2666
4326 1 19.0738 127.315 23.5517
5149 1 5.43334 128.897 23.5495
11638 2 3.61455 128.893 22.2632
11341 2 9.07079 128.893 22.2632
4817 1 10.8896 128.897 23.5495
11021 2 14.527 128.893 22.2632
4559 1 16.3458 128.897 23.5495
5466 1 21.8021 128.897 23.5495
10799 2 19.9833 128.893 22.2632
5116 1 2.70533 130.479 23.5463
11639 2 0.886565 130.474 22.26
5114 1 5.43358 132.062 23.5422
11641 2 3.61484 132.056 22.2558
4818 1 8.16157 130.479 23.5463
11298 2 9.07108 132.056 22.2558
11300 2 6.3428 130.474 22.26
4820 1 10.8898 132.062 23.5422
11022 2 11.799 130.474 22.26
4522 1 13.6178 130.479 23.5463
11024 2 14.5273 132.056 22.2558
4520 1 16.3461 132.062 23.5422
10770 2 17.2553 130.474 22.26
5467 1 21.8023 132.062 23.5422
4325 1 19.074 130.479 23.5463
10768 2 19.9836 132.056 22.2558
5115 1 2.70562 133.644 23.5371
11616 2 0.886907 133.637 22.2507
5117 1 5.43391 135.226 23.531
11614 2 3.61524 135.218 22.2446
4781 1 8.16185 133.644 23.5371
11299 2 6.34315 133.637 22.2507
11301 2 9.07147 135.218 22.2446
4779 1 10.8901 135.226 23.531
10984 2 11.7994 133.637 22.2507
4521 1 13.6181 133.644 23.5371
10982 2 14.5277 135.218 22.2446
4523 1 16.3464 135.226 23.531
10769 2 17.2556 133.637 22.2507
5450 1 21.8026 135.226 23.531
4302 1 19.0743 133.644 23.5371
10771 2 19.984 135.218 22.2446
5092 1 2.70598 136.808 23.524
11615 2 0.887355 136.799 22.2375
5090 1 5.43432 138.389 23.516
11617 2 3.61574 138.381 22.2294
4780 1 8.16222 136.808 23.524
11266 2 9.07198 138.381 22.2294
11268 2 6.34359 136.799 22.2375
4782 1 10.8906 138.389 23.516
10983 2 11.7998 136.799 22.2375
4487 1 13.6185 136.808 23.524
10985 2 14.5282 138.381 22.2294
4485 1 16.3468 138.389 23.516
10742 2 17.2561 136.799 22.2375
5451 1 21.803 138.389 23.516
4301 1 19.0747 136.808 23.524
10740 2 19.9845 138.381 22.2294
5091 1 2.70644 139.971 23.5071
11600 2 0.88792 139.961 22.2204
5093 1 5.43483 141.553 23.4972
11598 2 3.61637 141.542 22.2104
4751 1 8.16268 139.971 23.5071
11267 2 6.34416 139.961 22.2204
11269 2 9.07261 141.542 22.2104
4749 1 10.8911 141.553 23.4972
10952 2 11.8004 139.961 22.2204
4486 1 13.6189 139.971 23.5071
10950 2 14.5288 141.542 22.2104
4488 1 16.3473 141.553 23.4972
10741 2 17.2566 139.961 22.2204
5442 1 21.8035 141.553 23.4972
4278 1 19.0752 139.971 23.5071
10743 2 19.9851 141.542 22.2104
5076 1 2.70701 143.134 23.4864
11599 2 0.888617 143.123 22.1994
5074 1 5.43546 144.715 23.4746
11601 2 3.61714 144.703 22.1875
4750 1 8.16325 143.134 23.4864
11242 2 9.07338 144.703 22.1875
11244 2 6.34486 143.123 22.1994
4752 1 10.8917 144.715 23.4746
10951 2 11.8011 143.123 22.1994
4459 1 13.6195 143.134 23.4864
10953 2 14.5296 144.703 22.1875
4457 1 16.3479 144.715 23.4746
10715 2 17.2573 143.123 22.1994
5443 1 21.8042 144.715 23.4746
4277 1 19.0757 143.134 23.4864
10713 2 19.9859 144.703 22.1875
5075 1 2.7077 146.296 23.4619
11592 2 0.889471 146.284 22.1747
5077 1 5.43623 147.877 23.4483
11590 2 3.61809 147.864 22.1609
4729 1 8.16394 146.296 23.4619
11243 2 6.34571 146.284 22.1747
11245 2 9.07432 147.864 22.1609
4727 1 10.8925 147.877 23.4483
10928 2 11.8019 146.284 22.1747
4458 1 13.6202 146.296 23.4619
10926 2 14.5306 147.864 22.1609
4460 1 16.3487 147.877 23.4483
10714 2 17.2582 146.284 22.1747
5441 1 21.8049 147.877 23.4483
4255 1 19.0764 146.296 23.4619
10716 2 19.9868 147.864 22.1609
5065 1 2.70856 149.458 23.4337
11591 2 0.890515 149.444 22.1462
1225 1 5.43719 151.038 23.4183
7491 2 3.61924 151.023 22.1305
4728 1 8.1648 149.458 23.4337
11225 2 6.34675 149.444 22.1462
7153 2 9.07548 151.023 22.1305
10927 2 11.803 149.444 22.1462
912 1 10.8934 151.038 23.4183
4436 1 13.621 149.458 23.4337
6824 2 14.5317 151.023 22.1305
10692 2 17.2592 149.444 22.1462
569 1 16.3497 151.038 23.4183
4254 1 19.0773 149.458 23.4337
1545 1 21.8059 151.038 23.4183
6521 2 19.988 151.023 22.1305
11800 2 1.79696 103.576 24.7529
5278 1 0.887461 101.986 26.0268
11466 2 2.70658 101.977 27.3102
11470 2 4.52527 101.994 24.7401
11467 2 5.43468 103.56 27.3227
5276 1 3.61547 103.568 26.0395
11468 2 7.2532 103.576 24.7529
4978 1 6.3437 101.986 26.0268
11126 2 8.16282 101.977 27.3102
4979 1 9.07171 103.568 26.0395
11154 2 9.98151 101.994 24.7401
4646 1 11.7999 101.986 26.0268
11124 2 10.8909 103.56 27.3227
10862 2 15.4377 101.994 24.7401
11155 2 12.7094 103.576 24.7529
10858 2 13.6191 101.977 27.3102
4644 1 14.528 103.568 26.0395
10860 2 18.1657 103.576 24.7529
4394 1 17.2562 101.986 26.0268
10859 2 16.3472 103.56 27.3227
10656 2 20.894 101.994 24.7401
10653 2 19.0753 101.977 27.3102
11752 2 21.8034 103.56 27.3227
4395 1 19.9842 103.568 26.0395
5277 1 0.887271 105.151 26.0513
11426 2 2.70654 105.144 27.3344
11469 2 4.52491 105.159 24.7648
4946 1 6.34351 105.151 26.0513
11125 2 8.16278 105.144 27.3344
11130 2 9.98115 105.159 24.7648
4645 1 11.7997 105.151 26.0513
10861 2 15.4374 105.159 24.7648
10842 2 13.619 105.144 27.3344
4386 1 17.256 105.151 26.0513
10655 2 20.8936 105.159 24.7648
10652 2 19.0753 105.144 27.3344
11754 2 1.79666 106.741 24.7758
5231 1 0.887153 108.318 26.0722
11425 2 2.70655 108.312 27.3551
5279 1 3.61532 106.734 26.0622
11430 2 4.52466 108.323 24.786
11424 2 5.43466 106.728 27.3452
11471 2 7.2529 106.741 24.7758
4944 1 9.07156 106.734 26.0622
4945 1 6.34339 108.318 26.0722
11094 2 8.16279 108.312 27.3551
4622 1 11.7996 108.318 26.0722
11129 2 9.9809 108.323 24.786
11127 2 10.8909 106.728 27.3452
11128 2 12.7091 106.741 24.7758
4647 1 14.5278 106.734 26.0622
10846 2 15.4371 108.323 24.786
10841 2 13.619 108.312 27.3551
10863 2 18.1654 106.741 24.7758
4385 1 17.2559 108.318 26.0722
10840 2 16.3471 106.728 27.3452
4384 1 19.984 106.734 26.0622
10654 2 20.8934 108.323 24.786
11753 2 21.8034 106.728 27.3452
10645 2 19.0753 108.312 27.3551
5230 1 0.887088 111.485 26.0896
11755 2 1.79645 109.906 24.7952
11379 2 2.70658 111.48 27.3723
5229 1 3.61523 109.901 26.0814
11429 2 4.52449 111.489 24.8035
11427 2 5.43468 109.896 27.3642
4906 1 6.34333 111.485 26.0896
4947 1 9.07147 109.901 26.0814
11428 2 7.25269 109.906 24.7952
11093 2 8.16282 111.48 27.3723
4621 1 11.7996 111.485 26.0896
11098 2 9.98073 111.489 24.8035
11092 2 10.8909 109.896 27.3642
4620 1 14.5277 109.901 26.0814
10845 2 15.437 111.489 24.8035
11131 2 12.7089 109.906 24.7952
10818 2 13.6191 111.48 27.3723
4370 1 17.2558 111.485 26.0896
10844 2 18.1652 109.906 24.7952
10843 2 16.3472 109.896 27.3642
4387 1 19.9839 109.901 26.0814
10647 2 20.8932 111.489 24.8035
11706 2 21.8034 109.896 27.3642
10644 2 19.0753 111.48 27.3723
5184 1 0.887064 114.652 26.1033
11708 2 1.79631 113.071 24.8109
11378 2 2.70663 114.649 27.3859
5232 1 3.61519 113.068 26.0969
11383 2 4.52438 114.654 24.8173
11377 2 5.43472 113.065 27.3795
4904 1 9.07143 113.068 26.0969
4905 1 6.3433 114.652 26.1033
11431 2 7.25255 113.071 24.8109
11055 2 8.16286 114.649 27.3859
4590 1 11.7995 114.652 26.1033
11097 2 9.98062 114.654 24.8173
11095 2 10.891 113.065 27.3795
4623 1 14.5277 113.068 26.0969
10822 2 15.4369 114.654 24.8173
11096 2 12.7088 113.071 24.8109
10817 2 13.6191 114.649 27.3859
4369 1 17.2558 114.652 26.1033
10847 2 18.165 113.071 24.8109
10816 2 16.3472 113.065 27.3795
4368 1 19.9839 113.068 26.0969
10646 2 20.8931 114.654 24.8173
11707 2 21.8034 113.065 27.3795
10630 2 19.0753 114.649 27.3859
5183 1 0.887074 117.819 26.1132
11709 2 1.79624 116.237 24.8228
5182 1 3.61518 116.235 26.1087
11382 2 4.52434 117.82 24.8273
4860 1 6.34331 117.819 26.1132
4907 1 9.07142 116.235 26.1087
11381 2 7.25247 116.237 24.8228
4589 1 11.7996 117.819 26.1132
11059 2 9.98058 117.82 24.8273
4588 1 14.5277 116.235 26.1087
10821 2 15.4368 117.82 24.8273
11099 2 12.7087 116.237 24.8228
4347 1 17.2558 117.819 26.1132
10820 2 18.165 116.237 24.8228
4371 1 19.9839 116.235 26.1087
10632 2 20.8931 117.82 24.8273
5144 1 0.887117 120.987 26.1194
11668 2 1.79622 119.403 24.8309
5185 1 3.61521 119.403 26.1168
11336 2 4.52435 120.986 24.8336
4858 1 9.07145 119.403 26.1168
4859 1 6.34336 120.987 26.1194
11384 2 7.25246 119.403 24.8309
4554 1 11.7996 120.987 26.1194
11058 2 9.98059 120.986 24.8336
4591 1 14.5277 119.403 26.1168
10794 2 15.4368 120.986 24.8336
11057 2 12.7087 119.403 24.8309
4346 1 17.2558 120.987 26.1194
10823 2 18.1649 119.403 24.8309
4345 1 19.9839 119.403 26.1168
10631 2 20.8931 120.986 24.8336
5143 1 0.887191 124.154 26.1218
11669 2 1.79626 122.569 24.8352
5142 1 3.61527 122.57 26.1211
11335 2 4.52442 124.152 24.836
4815 1 6.34343 124.154 26.1218
4861 1 9.07151 122.57 26.1211
11334 2 7.2525 122.569 24.8352
4553 1 11.7997 124.154 26.1218
11019 2 9.98066 124.152 24.836
4552 1 14.5277 122.57 26.1211
10793 2 15.4369 124.152 24.836
11060 2 12.7087 122.569 24.8352
4323 1 17.2559 124.154 26.1218
10792 2 18.165 122.569 24.8352
4348 1 19.984 122.57 26.1211
10616 2 20.8931 124.152 24.836
11636 2 1.79635 125.735 24.8357
5112 1 0.887295 127.322 26.1204
5145 1 3.61536 125.738 26.1216
11296 2 4.52454 127.318 24.8345
4813 1 9.0716 125.738 26.1216
11337 2 7.25259 125.735 24.8357
4814 1 6.34353 127.322 26.1204
4518 1 11.7998 127.322 26.1204
11018 2 9.98077 127.318 24.8345
4555 1 14.5278 125.738 26.1216
11017 2 12.7088 125.735 24.8357
10766 2 15.437 127.318 24.8345
10795 2 18.1651 125.735 24.8357
4322 1 17.256 127.322 26.1204
4321 1 19.9841 125.738 26.1216
10615 2 20.8933 127.318 24.8345
11637 2 1.79649 128.901 24.8323
5110 1 3.61548 128.906 26.1182
4816 1 9.07172 128.906 26.1182
11294 2 7.25273 128.901 24.8323
4516 1 14.528 128.906 26.1182
11020 2 12.709 128.901 24.8323
10764 2 18.1652 128.901 24.8323
4324 1 19.9842 128.906 26.1182
5111 1 0.887431 130.489 26.1151
11612 2 1.79669 132.067 24.8251
5113 1 3.61563 132.073 26.1111
11295 2 4.52471 130.484 24.8292
4775 1 9.07187 132.073 26.1111
4777 1 6.34367 130.489 26.1151
11297 2 7.25293 132.067 24.8251
4517 1 11.7999 130.489 26.1151
10980 2 9.98095 130.484 24.8292
4519 1 14.5281 132.073 26.1111
10765 2 15.4372 130.484 24.8292
10978 2 12.7092 132.067 24.8251
4299 1 17.2561 130.489 26.1151
10767 2 18.1654 132.067 24.8251
4297 1 19.9843 132.073 26.1111
10600 2 20.8934 130.484 24.8292
5088 1 0.887598 133.657 26.1061
11613 2 1.79695 135.233 24.8141
5086 1 3.61581 135.24 26.1001
11264 2 4.52493 133.65 24.8201
4776 1 6.34384 133.657 26.1061
4778 1 9.07205 135.24 26.1001
11262 2 7.25319 135.233 24.8141
4483 1 11.8001 133.657 26.1061
10979 2 9.98117 133.65 24.8201
4481 1 14.5283 135.24 26.1001
10738 2 15.4374 133.65 24.8201
10981 2 12.7094 135.233 24.8141
4298 1 17.2563 133.657 26.1061
10736 2 18.1657 135.233 24.8141
4300 1 19.9845 135.24 26.1001
10599 2 20.8936 133.65 24.8201
5087 1 0.8878 136.824 26.0933
11596 2 1.79727 138.398 24.7992
5089 1 3.61603 138.407 26.0854
11263 2 4.52522 136.815 24.8071
4745 1 9.07227 138.407 26.0854
4747 1 6.34404 136.824 26.0933
11265 2 7.25351 138.398 24.7992
4482 1 11.8003 136.824 26.0933
10948 2 9.98146 136.815 24.8071
4484 1 14.5285 138.407 26.0854
10737 2 15.4377 136.815 24.8071
10946 2 12.7097 138.398 24.7992
4275 1 17.2565 136.824 26.0933
10739 2 18.166 138.398 24.7992
4273 1 19.9847 138.407 26.0854
10584 2 20.8939 136.815 24.8071
5072 1 0.888042 139.99 26.0767
11597 2 1.79766 141.563 24.7806
5070 1 3.6163 141.573 26.067
11240 2 4.52557 139.98 24.7904
4746 1 6.34428 139.99 26.0767
4748 1 9.07254 141.573 26.067
11238 2 7.2539 141.563 24.7806
4455 1 11.8005 139.99 26.0767
10947 2 9.98181 139.98 24.7904
4453 1 14.5288 141.573 26.067
10711 2 15.438 139.98 24.7904
10949 2 12.7101 141.563 24.7806
4274 1 17.2568 139.99 26.0767
10709 2 18.1664 141.563 24.7806
4276 1 19.985 141.573 26.067
10583 2 20.8943 139.98 24.7904
5071 1 0.888333 143.156 26.0564
11588 2 1.79814 144.727 24.7583
5073 1 3.61662 144.739 26.0449
11239 2 4.52601 143.145 24.7699
4723 1 9.07286 144.739 26.0449
4725 1 6.34457 143.156 26.0564
11241 2 7.25438 144.727 24.7583
4454 1 11.8008 143.156 26.0564
10924 2 9.98224 143.145 24.7699
4456 1 14.5291 144.739 26.0449
10710 2 15.4385 143.145 24.7699
10922 2 12.7106 144.727 24.7583
4252 1 17.257 143.156 26.0564
10712 2 18.1669 144.727 24.7583
4250 1 19.9853 144.739 26.0449
10568 2 20.8947 143.145 24.7699
5064 1 0.888694 146.322 26.0325
11589 2 1.79873 147.89 24.7323
5062 1 3.61703 147.904 26.0192
11224 2 4.52654 146.309 24.7457
4724 1 6.34493 146.322 26.0325
4726 1 9.07327 147.904 26.0192
11222 2 7.25497 147.89 24.7323
4435 1 11.8012 146.322 26.0325
10923 2 9.98278 146.309 24.7457
4433 1 14.5295 147.904 26.0192
10691 2 15.439 146.309 24.7457
10925 2 12.7112 147.89 24.7323
4251 1 17.2574 146.322 26.0325
10689 2 18.1674 147.89 24.7323
4253 1 19.9857 147.904 26.0192
10567 2 20.8953 146.309 24.7457
5063 1 0.889152 149.486 26.0051
7447 2 1.79948 151.053 24.7027
11223 2 4.5272 149.472 24.7179
1224 1 3.61755 151.068 25.99
7113 2 5.43634 151.083 27.2739
4708 1 6.34539 149.486 26.0051
881 1 9.07379 151.068 25.99
7152 2 7.25572 151.053 24.7027
4434 1 11.8016 149.486 26.0051
10905 2 9.98344 149.472 24.7179
6800 2 10.8926 151.083 27.2739
10690 2 15.4397 149.472 24.7179
568 1 14.53 151.068 25.99
6801 2 12.712 151.053 24.7027
4233 1 17.2579 149.486 26.0051
6520 2 18.1682 151.053 24.7027
6505 2 16.3488 151.083 27.2739
10552 2 20.8959 149.472 24.7179
297 1 19.9863 151.068 25.99
7446 2 21.8051 151.083 27.2739
11422 2 0.888401 101.959 29.8794
5275 1 1.79717 103.552 28.6089
4942 1 4.52522 101.968 28.5965
11420 2 3.61665 103.544 29.8916
11122 2 6.34464 101.959 29.8794
4940 1 7.2534 103.552 28.6089
11123 2 9.07289 103.544 29.8916
4642 1 9.98146 101.968 28.5965
10838 2 11.8009 101.959 29.8794
4382 1 15.4377 101.968 28.5965
4643 1 12.7096 103.552 28.6089
10836 2 14.5291 103.544 29.8916
10650 2 17.2571 101.959 29.8794
4380 1 18.1659 103.552 28.6089
4208 1 20.8939 101.968 28.5965
10651 2 19.9854 103.544 29.8916
11421 2 0.888668 105.13 29.9031
4941 1 4.52535 105.137 28.6204
11090 2 6.34491 105.13 29.9031
4618 1 9.98159 105.137 28.6204
10837 2 11.8011 105.13 29.9031
4381 1 15.4378 105.137 28.6204
10642 2 17.2574 105.13 29.9031
4207 1 20.8941 105.137 28.6204
5227 1 1.7973 106.722 28.6311
11375 2 0.888917 108.301 29.9234
4902 1 4.52549 108.306 28.641
11423 2 3.61691 106.715 29.9137
4943 1 7.25354 106.722 28.6311
11088 2 9.07315 106.715 29.9137
11089 2 6.34516 108.301 29.9234
4617 1 9.98173 108.306 28.641
10814 2 11.8014 108.301 29.9234
4366 1 15.438 108.306 28.641
4616 1 12.7098 106.722 28.6311
10839 2 14.5294 106.715 29.9137
4383 1 18.166 106.722 28.6311
10641 2 17.2576 108.301 29.9234
4206 1 20.8942 108.306 28.641
10640 2 19.9856 106.715 29.9137
5228 1 1.79744 109.891 28.6499
11374 2 0.889141 111.472 29.9403
4901 1 4.52563 111.476 28.658
11373 2 3.61715 109.886 29.9323
4900 1 7.25368 109.891 28.6499
11051 2 6.34538 111.472 29.9403
11091 2 9.07339 109.886 29.9323
4586 1 9.98187 111.476 28.658
10813 2 11.8016 111.472 29.9403
4365 1 15.4381 111.476 28.658
4619 1 12.7099 109.891 28.6499
10812 2 14.5296 109.886 29.9323
4364 1 18.1662 109.891 28.6499
10627 2 17.2579 111.472 29.9403
4199 1 20.8943 111.476 28.658
10643 2 19.9859 109.886 29.9323
5180 1 1.79758 113.061 28.6652
11328 2 0.889333 114.644 29.9536
4856 1 4.52576 114.646 28.6714
11376 2 3.61736 113.058 29.9474
4903 1 7.25381 113.061 28.6652
11049 2 9.0736 113.058 29.9474
11050 2 6.34557 114.644 29.9536
4585 1 9.982 114.646 28.6714
10786 2 11.8018 114.644 29.9536
4343 1 15.4382 114.646 28.6714
4584 1 12.7101 113.061 28.6652
10815 2 14.5298 113.058 29.9474
4367 1 18.1663 113.061 28.6652
10626 2 17.258 114.644 29.9536
4198 1 20.8945 114.646 28.6714
10625 2 19.9861 113.058 29.9474
11332 2 2.70669 117.818 27.3957
5181 1 1.7977 116.232 28.6768
11327 2 0.889493 117.816 29.9633
11380 2 5.43477 116.233 27.3913
4855 1 4.52587 117.817 28.6812
11326 2 3.61754 116.23 29.9589
11054 2 8.16293 117.818 27.3957
4854 1 7.25394 116.232 28.6768
11011 2 6.34573 117.816 29.9633
11052 2 9.07377 116.23 29.9589
11053 2 10.891 116.233 27.3913
4550 1 9.98211 117.817 28.6812
10785 2 11.802 117.816 29.9633
10790 2 13.6192 117.818 27.3957
4342 1 15.4383 117.817 28.6812
4587 1 12.7102 116.232 28.6768
10784 2 14.53 116.23 29.9589
10819 2 16.3473 116.233 27.3913
4341 1 18.1664 116.232 28.6768
10611 2 17.2582 117.816 29.9633
11666 2 21.8035 116.233 27.3913
10629 2 19.0754 117.818 27.3957
4187 1 20.8946 117.817 28.6812
10628 2 19.9863 116.23 29.9589
11331 2 2.70676 120.987 27.4019
5140 1 1.79781 119.402 28.6847
11288 2 0.889621 120.988 29.9694
11330 2 5.43484 119.402 27.3993
4811 1 4.52597 120.987 28.6873
11329 2 3.61768 119.402 29.9668
11015 2 8.163 120.987 27.4019
4857 1 7.25404 119.402 28.6847
11009 2 9.07392 119.402 29.9668
11010 2 6.34586 120.988 29.9694
11056 2 10.8911 119.402 27.3993
4549 1 9.98221 120.987 28.6873
10758 2 11.8021 120.988 29.9694
10789 2 13.6192 120.987 27.4019
4319 1 15.4385 120.987 28.6873
4548 1 12.7103 119.402 28.6847
10787 2 14.5302 119.402 29.9668
10788 2 16.3473 119.402 27.3993
4344 1 18.1665 119.402 28.6847
10610 2 17.2583 120.988 29.9694
11667 2 21.8036 119.402 27.3993
10614 2 19.0755 120.987 27.4019
4186 1 20.8947 120.987 28.6873
10609 2 19.9864 119.402 29.9668
11292 2 2.70684 124.156 27.4042
5141 1 1.7979 122.573 28.689
11287 2 0.889719 124.16 29.9717
11333 2 5.43492 122.572 27.4035
4810 1 4.52607 124.158 28.6897
11286 2 3.61779 122.574 29.971
11014 2 8.16308 124.156 27.4042
4809 1 7.25414 122.573 28.689
10972 2 6.34596 124.16 29.9717
11012 2 9.07403 122.574 29.971
11013 2 10.8912 122.572 27.4035
4514 1 9.9823 124.158 28.6897
10757 2 11.8022 124.16 29.9717
10762 2 13.6193 124.156 27.4042
4318 1 15.4385 124.158 28.6897
4551 1 12.7104 122.573 28.689
10756 2 14.5303 122.574 29.971
10791 2 16.3474 122.572 27.4035
4317 1 18.1666 122.573 28.689
10595 2 17.2584 124.16 29.9717
11634 2 21.8036 122.572 27.4035
10613 2 19.0756 124.156 27.4042
4175 1 20.8948 124.158 28.6897
10612 2 19.9865 122.574 29.971
11291 2 2.70693 127.325 27.4028
5108 1 1.79799 125.743 28.6894
11256 2 0.889786 127.332 29.9703
11290 2 5.435 125.741 27.404
11289 2 3.61788 125.746 29.9715
4773 1 4.52614 127.329 28.6883
10976 2 8.16317 127.325 27.4028
4812 1 7.25423 125.743 28.6894
10970 2 9.07411 125.746 29.9715
10971 2 6.34602 127.332 29.9703
11016 2 10.8912 125.741 27.404
4513 1 9.98238 127.329 28.6883
10730 2 11.8023 127.332 29.9703
10761 2 13.6194 127.325 27.4028
4512 1 12.7105 125.743 28.6894
10759 2 14.5304 125.746 29.9715
4295 1 15.4386 127.329 28.6883
10760 2 16.3475 125.741 27.404
4320 1 18.1667 125.743 28.6894
10594 2 17.2585 127.332 29.9703
11635 2 21.8037 125.741 27.404
10598 2 19.0756 127.325 27.4028
10593 2 19.9866 125.746 29.9715
4174 1 20.8949 127.329 28.6883
5109 1 1.79806 128.914 28.6862
11293 2 5.4351 128.91 27.4007
11254 2 3.61793 128.918 29.9682
4771 1 7.2543 128.914 28.6862
10973 2 9.07417 128.918 29.9682
10974 2 10.8913 128.91 27.4007
4515 1 12.7105 128.914 28.6862
10728 2 14.5304 128.918 29.9682
10763 2 16.3476 128.91 27.4007
4293 1 18.1668 128.914 28.6862
11610 2 21.8038 128.91 27.4007
10596 2 19.9866 128.918 29.9682
11260 2 2.70703 130.494 27.3976
5084 1 1.79812 132.084 28.6792
11255 2 0.889822 130.504 29.9652
11258 2 5.43521 132.079 27.3936
4772 1 4.52621 130.499 28.6831
11257 2 3.61795 132.09 29.9613
10975 2 8.16327 130.494 27.3976
4774 1 7.25436 132.084 28.6792
10938 2 9.07418 132.09 29.9613
10940 2 6.34606 130.504 29.9652
10977 2 10.8914 132.079 27.3936
4479 1 9.98245 130.499 28.6831
10729 2 11.8023 130.504 29.9652
10734 2 13.6195 130.494 27.3976
4294 1 15.4387 130.499 28.6831
4477 1 12.7106 132.084 28.6792
10731 2 14.5304 132.09 29.9613
10732 2 16.3477 132.079 27.3936
4296 1 18.1668 132.084 28.6792
10579 2 17.2585 130.504 29.9652
11611 2 21.8039 132.079 27.3936
10597 2 19.0758 130.494 27.3976
4163 1 20.8949 130.499 28.6831
10577 2 19.9867 132.09 29.9613
11259 2 2.70715 133.663 27.3887
5085 1 1.79817 135.255 28.6684
11232 2 0.889825 133.676 29.9564
4743 1 4.52626 133.67 28.6743
11230 2 3.61793 135.262 29.9506
11261 2 5.43533 135.247 27.3828
10944 2 8.16339 133.663 27.3887
4741 1 7.2544 135.255 28.6684
10939 2 6.34606 133.676 29.9564
10941 2 9.07417 135.262 29.9506
4478 1 9.9825 133.67 28.6743
10703 2 11.8023 133.676 29.9564
10942 2 10.8916 135.247 27.3828
10733 2 13.6196 133.663 27.3887
4271 1 15.4387 133.67 28.6743
4480 1 12.7106 135.255 28.6684
10701 2 14.5304 135.262 29.9506
4269 1 18.1669 135.255 28.6684
10578 2 17.2585 133.676 29.9564
10735 2 16.3478 135.247 27.3828
10582 2 19.0759 133.663 27.3887
11594 2 21.804 135.247 27.3828
4162 1 20.895 133.67 28.6743
10580 2 19.9866 135.262 29.9506
5068 1 1.7982 138.424 28.654
11231 2 0.889795 136.848 29.9439
11236 2 2.70727 136.831 27.3759
4742 1 4.5263 136.84 28.6617
11233 2 3.61789 138.433 29.9363
11234 2 5.43546 138.416 27.3682
4744 1 7.25444 138.424 28.654
10914 2 9.07412 138.433 29.9363
10916 2 6.34603 136.848 29.9439
10943 2 8.16351 136.831 27.3759
4451 1 9.98254 136.84 28.6617
10702 2 11.8023 136.848 29.9439
10945 2 10.8917 138.416 27.3682
4270 1 15.4388 136.84 28.6617
4449 1 12.7107 138.424 28.654
10704 2 14.5304 138.433 29.9363
10707 2 13.6197 136.831 27.3759
4272 1 18.1669 138.424 28.654
10563 2 17.2585 136.848 29.9439
10705 2 16.3479 138.416 27.3682
11595 2 21.8042 138.416 27.3682
4151 1 20.895 136.84 28.6617
10561 2 19.9866 138.433 29.9363
10581 2 19.076 136.831 27.3759
5069 1 1.79822 141.594 28.6359
11216 2 0.889731 140.019 29.9278
11235 2 2.70741 140 27.3595
4721 1 4.52633 140.009 28.6454
11214 2 3.61781 141.604 29.9184
11237 2 5.43561 141.583 27.35
4719 1 7.25446 141.594 28.6359
10915 2 6.34597 140.019 29.9278
10917 2 9.07404 141.604 29.9184
10920 2 8.16365 140 27.3595
4450 1 9.98257 140.009 28.6454
10683 2 11.8022 140.019 29.9278
10918 2 10.8918 141.583 27.35
4248 1 15.4388 140.009 28.6454
4452 1 12.7107 141.594 28.6359
10681 2 14.5303 141.604 29.9184
10706 2 13.6199 140 27.3595
4246 1 18.1669 141.594 28.6359
10562 2 17.2584 140.019 29.9278
10708 2 16.3481 141.583 27.35
11586 2 21.8043 141.583 27.35
4150 1 20.895 140.009 28.6454
10564 2 19.9865 141.604 29.9184
10566 2 19.0761 140 27.3595
5060 1 1.79825 144.763 28.6143
11215 2 0.889636 143.19 29.9082
11220 2 2.70758 143.167 27.3395
4720 1 4.52635 143.178 28.6256
11217 2 3.6177 144.775 29.897
11218 2 5.43579 144.751 27.3281
4722 1 7.25448 144.763 28.6143
10898 2 9.07394 144.775 29.897
10900 2 6.34587 143.19 29.9082
10919 2 8.16381 143.167 27.3395
4431 1 9.98259 143.178 28.6256
10682 2 11.8021 143.19 29.9082
10921 2 10.892 144.751 27.3281
4247 1 15.4388 143.178 28.6256
4429 1 12.7107 144.763 28.6143
10684 2 14.5302 144.775 29.897
10687 2 13.6201 143.167 27.3395
4249 1 18.167 144.763 28.6143
10548 2 17.2584 143.19 29.9082
10685 2 16.3483 144.751 27.3281
11587 2 21.8045 144.751 27.3281
4139 1 20.8951 143.178 28.6256
10546 2 19.9864 144.775 29.897
10565 2 19.0763 143.167 27.3395
5061 1 1.79828 147.931 28.5893
11208 2 0.889521 146.36 29.8851
11219 2 2.70778 146.334 27.3159
4707 1 4.52638 146.347 28.6022
11206 2 3.61758 147.944 29.8722
11221 2 5.43602 147.917 27.3027
4705 1 7.25452 147.931 28.5893
10899 2 6.34576 146.36 29.8851
10901 2 9.07382 147.944 29.8722
10904 2 8.16402 146.334 27.3159
4430 1 9.98262 146.347 28.6022
10671 2 11.802 146.36 29.8851
10902 2 10.8923 147.917 27.3027
4232 1 15.4389 146.347 28.6022
4432 1 12.7108 147.931 28.5893
10669 2 14.5301 147.944 29.8722
10686 2 13.6203 146.334 27.3159
4230 1 18.167 147.931 28.5893
10547 2 17.2582 146.36 29.8851
10688 2 16.3485 147.917 27.3027
11585 2 21.8047 147.917 27.3027
4138 1 20.8951 146.347 28.6022
10549 2 19.9863 147.944 29.8722
10551 2 19.0765 146.334 27.3159
11207 2 0.889402 149.529 29.8586
11209 2 2.70805 149.5 27.2888
1178 1 1.79836 151.098 28.5608
4706 1 4.52643 149.515 28.5754
7112 2 3.61747 151.113 29.8441
10889 2 6.34564 149.529 29.8586
10903 2 8.16429 149.5 27.2888
880 1 7.2546 151.098 28.5608
6769 2 9.07371 151.113 29.8441
4416 1 9.98267 149.515 28.5754
10670 2 11.8019 149.529 29.8586
4231 1 15.4389 149.515 28.5754
10672 2 13.6205 149.5 27.2888
545 1 12.7108 151.098 28.5608
6504 2 14.5299 151.113 29.8441
10537 2 17.2581 149.529 29.8586
296 1 18.1671 151.098 28.5608
4127 1 20.8951 149.515 28.5754
10550 2 19.0768 149.5 27.2888
6297 2 19.9862 151.113 29.8441
4938 1 2.70729 101.95 31.1651
11419 2 1.79921 103.528 32.4595
11086 2 4.52705 101.941 32.4474
4939 1 5.43563 103.536 31.1773
4614 1 8.16353 101.95 31.1651
11084 2 7.25545 103.528 32.4595
10834 2 9.98328 101.941 32.4474
4612 1 10.8919 103.536 31.1773
4378 1 13.6198 101.95 31.1651
10638 2 15.4395 101.941 32.4474
10835 2 12.7117 103.528 32.4595
4379 1 16.3481 103.536 31.1773
10636 2 18.1679 103.528 32.4595
4205 1 19.076 101.95 31.1651
10528 2 20.8958 101.941 32.4474
5225 1 21.8043 103.536 31.1773
4898 1 2.70772 105.122 31.1886
11371 2 1.79972 106.702 32.4811
11085 2 4.52759 105.115 32.4707
4613 1 8.16396 105.122 31.1886
11087 2 7.25595 106.702 32.4811
10810 2 9.98383 105.115 32.4707
4362 1 13.6202 105.122 31.1886
10637 2 15.4401 105.115 32.4707
10808 2 12.7122 106.702 32.4811
10639 2 18.1684 106.702 32.4811
4204 1 19.0764 105.122 31.1886
10527 2 20.8963 105.115 32.4707
4897 1 2.7081 108.295 31.2088
4896 1 5.43604 106.708 31.1991
11047 2 4.52806 108.289 32.4907
4582 1 8.16434 108.295 31.2088
4615 1 10.8923 106.708 31.1991
10809 2 9.9843 108.289 32.4907
4361 1 13.6206 108.295 31.2088
10623 2 15.4405 108.289 32.4907
4360 1 16.3485 106.708 31.1991
5226 1 21.8048 106.708 31.1991
4197 1 19.0768 108.295 31.2088
10526 2 20.8968 108.289 32.4907
4852 1 2.70843 111.468 31.2255
11372 2 1.80015 109.876 32.4995
4899 1 5.43639 109.881 31.2176
11046 2 4.52846 111.464 32.5074
4581 1 8.16467 111.468 31.2255
11045 2 7.25639 109.876 32.4995
4580 1 10.8926 109.881 31.2176
10782 2 9.9847 111.464 32.5074
4339 1 13.6209 111.468 31.2255
10622 2 15.4409 111.464 32.5074
10811 2 12.7126 109.876 32.4995
4363 1 16.3489 109.881 31.2176
10621 2 18.1689 109.876 32.4995
5178 1 21.8051 109.881 31.2176
4196 1 19.0771 111.468 31.2255
10523 2 20.8972 111.464 32.5074
4851 1 2.7087 114.641 31.2387
11324 2 1.80051 113.051 32.5144
4850 1 5.43669 113.054 31.2326
11007 2 4.52878 114.638 32.5205
4546 1 8.16493 114.641 31.2387
11048 2 7.25675 113.051 32.5144
4583 1 10.8929 113.054 31.2326
10781 2 9.98502 114.638 32.5205
4338 1 13.6212 114.641 31.2387
10607 2 15.4413 114.638 32.5205
10780 2 12.713 113.051 32.5144
4337 1 16.3492 113.054 31.2326
10624 2 18.1692 113.051 32.5144
5179 1 21.8054 113.054 31.2326
4185 1 19.0774 114.641 31.2387
10522 2 20.8975 114.638 32.5205
4807 1 2.70891 117.815 31.2484
11325 2 1.80079 116.226 32.5257
4853 1 5.43693 116.228 31.244
11006 2 4.52903 117.813 32.5301
4545 1 8.16514 117.815 31.2484
11005 2 7.25703 116.226 32.5257
4544 1 10.8932 116.228 31.244
10754 2 9.98527 117.813 32.5301
4315 1 13.6214 117.815 31.2484
10606 2 15.4415 117.813 32.5301
10783 2 12.7133 116.226 32.5257
4340 1 16.3494 116.228 31.244
10605 2 18.1695 116.226 32.5257
5138 1 21.8056 116.228 31.244
4184 1 19.0776 117.815 31.2484
10519 2 20.8977 117.813 32.5301
4806 1 2.70906 120.988 31.2544
11284 2 1.80101 119.401 32.5335
4805 1 5.43711 119.401 31.2519
10968 2 4.52921 120.989 32.5361
4510 1 8.1653 120.988 31.2544
11008 2 7.25725 119.401 32.5335
4547 1 10.8933 119.401 31.2519
10753 2 9.98545 120.989 32.5361
4314 1 13.6215 120.988 31.2544
10591 2 15.4417 120.989 32.5361
10752 2 12.7135 119.401 32.5335
4313 1 16.3496 119.401 31.2519
10608 2 18.1697 119.401 32.5335
5139 1 21.8058 119.401 31.2519
4173 1 19.0778 120.988 31.2544
10518 2 20.8979 120.989 32.5361
4769 1 2.70917 124.162 31.2567
11285 2 1.80115 122.576 32.5377
4808 1 5.43724 122.575 31.256
10967 2 4.52932 124.164 32.5384
4509 1 8.16541 124.162 31.2567
10966 2 7.25739 122.576 32.5377
4508 1 10.8935 122.575 31.256
10726 2 9.98556 124.164 32.5384
4291 1 13.6216 124.162 31.2567
10590 2 15.4418 124.164 32.5384
10755 2 12.7136 122.576 32.5377
4316 1 16.3497 122.575 31.256
10589 2 18.1699 122.576 32.5377
5106 1 21.806 122.575 31.256
4172 1 19.0779 124.162 31.2567
10515 2 20.898 124.164 32.5384
11252 2 1.80123 125.751 32.5382
4768 1 2.70922 127.336 31.2554
4767 1 5.43732 125.749 31.2565
10936 2 4.52936 127.339 32.537
10969 2 7.25747 125.751 32.5382
4475 1 8.16546 127.336 31.2554
4511 1 10.8936 125.749 31.2565
10725 2 9.9856 127.339 32.537
10724 2 12.7137 125.751 32.5382
4290 1 13.6217 127.336 31.2554
10575 2 15.4418 127.339 32.537
4289 1 16.3498 125.749 31.2565
10592 2 18.1699 125.751 32.5382
5107 1 21.806 125.749 31.2565
4161 1 19.0779 127.336 31.2554
10514 2 20.8981 127.339 32.537
11253 2 1.80124 128.927 32.535
4770 1 5.43735 128.922 31.2533
10934 2 7.25748 128.927 32.535
4473 1 10.8936 128.922 31.2533
10727 2 12.7137 128.927 32.535
4292 1 16.3498 128.922 31.2533
10573 2 18.17 128.927 32.535
5082 1 21.8061 128.922 31.2533
4739 1 2.70923 130.509 31.2503
11228 2 1.80118 132.102 32.5281
4737 1 5.43733 132.096 31.2464
10935 2 4.52934 130.514 32.532
4474 1 8.16546 130.509 31.2503
10937 2 7.25742 132.102 32.5281
4476 1 10.8936 132.096 31.2464
10699 2 9.98558 130.514 32.532
4267 1 13.6217 130.509 31.2503
10574 2 15.4418 130.514 32.532
10697 2 12.7137 132.102 32.5281
4265 1 16.3498 132.096 31.2464
10576 2 18.1699 132.102 32.5281
5083 1 21.806 132.096 31.2464
4160 1 19.0779 130.509 31.2503
10511 2 20.8981 130.514 32.532
4738 1 2.70917 133.683 31.2416
11229 2 1.80105 135.276 32.5176
4740 1 5.43724 135.269 31.2358
10912 2 4.52924 133.689 32.5233
4447 1 8.16541 133.683 31.2416
10910 2 7.25728 135.276 32.5176
4445 1 10.8935 135.269 31.2358
10698 2 9.98548 133.689 32.5233
4266 1 13.6216 133.683 31.2416
10559 2 15.4417 133.689 32.5233
10700 2 12.7135 135.276 32.5176
4268 1 16.3497 135.269 31.2358
10557 2 18.1698 135.276 32.5176
5066 1 21.806 135.269 31.2358
4149 1 19.0779 133.683 31.2416
10510 2 20.898 133.689 32.5233
4717 1 2.70906 136.856 31.2292
11212 2 1.80084 138.451 32.5035
4715 1 5.4371 138.442 31.2217
10911 2 4.52907 136.864 32.511
4446 1 8.1653 136.856 31.2292
10913 2 7.25708 138.451 32.5035
4448 1 10.8933 138.442 31.2217
10679 2 9.98531 136.864 32.511
4244 1 13.6215 136.856 31.2292
10558 2 15.4415 136.864 32.511
10677 2 12.7133 138.451 32.5035
4242 1 16.3496 138.442 31.2217
10560 2 18.1696 138.451 32.5035
5067 1 21.8058 138.442 31.2217
4148 1 19.0778 136.856 31.2292
10507 2 20.8978 136.864 32.511
4716 1 2.70889 140.029 31.2132
11213 2 1.80055 141.625 32.486
4718 1 5.4369 141.615 31.2039
10896 2 4.52882 140.038 32.4952
4427 1 8.16513 140.029 31.2132
10894 2 7.25679 141.625 32.486
4425 1 10.8931 141.615 31.2039
10678 2 9.98506 140.038 32.4952
4243 1 13.6214 140.029 31.2132
10544 2 15.4413 140.038 32.4952
10680 2 12.713 141.625 32.486
4245 1 16.3494 141.615 31.2039
10542 2 18.1693 141.625 32.486
5058 1 21.8056 141.615 31.2039
4137 1 19.0776 140.029 31.2132
10506 2 20.8975 140.038 32.4952
4703 1 2.70866 143.201 31.1938
11204 2 1.80018 144.799 32.4649
4701 1 5.43664 144.787 31.1827
10895 2 4.52849 143.212 32.4759
4426 1 8.1649 143.201 31.1938
10897 2 7.25642 144.799 32.4649
4428 1 10.8929 144.787 31.1827
10667 2 9.98473 143.212 32.4759
4228 1 13.6211 143.201 31.1938
10543 2 15.441 143.212 32.4759
10665 2 12.7127 144.799 32.4649
4226 1 16.3491 144.787 31.1827
10545 2 18.1689 144.799 32.4649
5059 1 21.8054 144.787 31.1827
4136 1 19.0774 143.201 31.1938
10503 2 20.8972 143.212 32.4759
4702 1 2.70837 146.373 31.1709
11205 2 1.79974 147.972 32.4406
4704 1 5.43633 147.958 31.1582
10888 2 4.52809 146.386 32.4532
4415 1 8.16461 146.373 31.1709
10886 2 7.25597 147.972 32.4406
4413 1 10.8926 147.958 31.1582
10666 2 9.98432 146.386 32.4532
4227 1 13.6209 146.373 31.1709
10536 2 15.4406 146.386 32.4532
10668 2 12.7122 147.972 32.4406
4229 1 16.3488 147.958 31.1582
10534 2 18.1685 147.972 32.4406
5057 1 21.805 147.958 31.1582
4126 1 19.0771 146.373 31.1709
10502 2 20.8968 146.386 32.4532
4694 1 2.70804 149.544 31.1447
7066 2 1.79923 151.144 32.413
10887 2 4.52761 149.558 32.4272
841 1 5.43599 151.129 31.1304
4414 1 8.16428 149.544 31.1447
6768 2 7.25547 151.144 32.413
10660 2 9.98385 149.558 32.4272
544 1 10.8922 151.129 31.1304
4217 1 13.6205 149.544 31.1447
10535 2 15.4401 149.558 32.4272
6481 2 12.7117 151.144 32.413
281 1 16.3485 151.129 31.1304
6296 2 18.1679 151.144 32.413
4125 1 19.0768 149.544 31.1447
10499 2 20.8963 149.558 32.4272
1177 1 21.8047 151.129 31.1304
4894 1 0.889995 101.932 33.7326
11082 2 2.71011 101.923 35.0143
4892 1 3.61847 103.52 33.7445
11083 2 5.43863 103.511 35.0262
4610 1 6.34623 101.932 33.7326
10806 2 8.16635 101.923 35.0143
4611 1 9.07471 103.52 33.7445
4358 1 11.8025 101.932 33.7326
10804 2 10.8949 103.511 35.0262
10634 2 13.6226 101.923 35.0143
4356 1 14.5309 103.52 33.7445
4202 1 17.2587 101.932 33.7326
10635 2 16.3511 103.511 35.0262
10525 2 19.0788 101.923 35.0143
11369 2 21.8073 103.511 35.0262
4203 1 19.9872 103.52 33.7445
4893 1 0.890687 105.107 33.7557
11043 2 2.71089 105.1 35.0373
11041 2 5.43935 106.689 35.0476
4895 1 3.61911 106.695 33.7661
4578 1 6.34693 105.107 33.7557
10805 2 8.16713 105.1 35.0373
4576 1 9.07535 106.695 33.7661
4357 1 11.8032 105.107 33.7557
10807 2 10.8956 106.689 35.0476
10619 2 13.6234 105.1 35.0373
4359 1 14.5316 106.695 33.7661
4194 1 17.2594 105.107 33.7557
10617 2 16.3518 106.689 35.0476
10524 2 19.0796 105.1 35.0373
11370 2 21.8081 106.689 35.0476
4192 1 19.9878 106.695 33.7661
4848 1 0.891277 108.283 33.7756
11042 2 2.71155 108.277 35.0571
4577 1 6.34752 108.283 33.7756
10778 2 8.16779 108.277 35.0571
4335 1 11.8038 108.283 33.7756
10618 2 13.624 108.277 35.0571
4193 1 17.26 108.283 33.7756
10521 2 19.0803 108.277 35.0571
4847 1 0.891764 111.459 33.7921
11003 2 2.71209 111.455 35.0735
4846 1 3.61965 109.871 33.7843
11044 2 5.43995 109.866 35.0657
4542 1 6.348 111.459 33.7921
4579 1 9.07589 109.871 33.7843
10777 2 8.16833 111.455 35.0735
4334 1 11.8042 111.459 33.7921
10776 2 10.8962 109.866 35.0657
4333 1 14.5321 109.871 33.7843
10603 2 13.6246 111.455 35.0735
4182 1 17.2605 111.459 33.7921
10620 2 16.3524 109.866 35.0657
11322 2 21.8087 109.866 35.0657
4195 1 19.9884 109.871 33.7843
10520 2 19.0808 111.455 35.0735
4803 1 0.892153 114.636 33.8052
11002 2 2.71252 114.633 35.0865
4849 1 3.62009 113.047 33.7991
11001 2 5.44044 113.044 35.0804
4540 1 9.07633 113.047 33.7991
4541 1 6.34839 114.636 33.8052
10750 2 8.16876 114.633 35.0865
4311 1 11.8046 114.636 33.8052
10779 2 10.8967 113.044 35.0804
4336 1 14.5326 113.047 33.7991
10602 2 13.625 114.633 35.0865
4181 1 17.2609 114.636 33.8052
10601 2 16.3529 113.044 35.0804
11323 2 21.8092 113.044 35.0804
4180 1 19.9888 113.047 33.7991
10517 2 19.0812 114.633 35.0865
4802 1 0.892447 117.812 33.8147
10964 2 2.71285 117.811 35.096
4801 1 3.62043 116.224 33.8104
11004 2 5.44082 116.222 35.0917
4506 1 6.34869 117.812 33.8147
4543 1 9.07667 116.224 33.8104
10749 2 8.16908 117.811 35.096
4310 1 11.8049 117.812 33.8147
10748 2 10.8971 116.222 35.0917
4309 1 14.5329 116.224 33.8104
10587 2 13.6253 117.811 35.096
4170 1 17.2612 117.812 33.8147
10604 2 16.3533 116.222 35.0917
11282 2 21.8095 116.222 35.0917
4183 1 19.9891 116.224 33.8104
10516 2 19.0816 117.811 35.096
4765 1 0.892652 120.989 33.8206
10963 2 2.71307 120.989 35.1019
4804 1 3.62068 119.401 33.8181
10962 2 5.44109 119.4 35.0994
4504 1 9.07692 119.401 33.8181
4505 1 6.34889 120.989 33.8206
10722 2 8.16931 120.989 35.1019
4287 1 11.8051 120.989 33.8206
10751 2 10.8973 119.4 35.0994
4312 1 14.5332 119.401 33.8181
10586 2 13.6255 120.989 35.1019
4169 1 17.2614 120.989 33.8206
10585 2 16.3536 119.4 35.0994
11283 2 21.8098 119.4 35.0994
4168 1 19.9894 119.401 33.8181
10513 2 19.0818 120.989 35.1019
4764 1 0.89277 124.166 33.823
10932 2 2.71319 124.168 35.1042
4763 1 3.62084 122.577 33.8223
10965 2 5.44126 122.578 35.1035
4471 1 6.34901 124.166 33.823
4507 1 9.07708 122.577 33.8223
10721 2 8.16943 124.168 35.1042
4286 1 11.8052 124.166 33.823
10720 2 10.8975 122.578 35.1035
4285 1 14.5333 122.577 33.8223
10571 2 13.6257 124.168 35.1042
4158 1 17.2615 124.166 33.823
10588 2 16.3537 122.578 35.1035
11250 2 21.81 122.578 35.1035
4171 1 19.9896 122.577 33.8223
10512 2 19.0819 124.168 35.1042
4735 1 0.892802 127.342 33.8216
10931 2 2.71321 127.346 35.1028
4766 1 3.62092 125.754 33.8227
10930 2 5.44133 125.757 35.104
4469 1 9.07715 125.754 33.8227
4470 1 6.34904 127.342 33.8216
10695 2 8.16945 127.346 35.1028
10723 2 10.8976 125.757 35.104
4263 1 11.8053 127.342 33.8216
4288 1 14.5334 125.754 33.8227
10570 2 13.6257 127.346 35.1028
10569 2 16.3538 125.757 35.104
4157 1 17.2615 127.342 33.8216
11251 2 21.81 125.757 35.104
4156 1 19.9896 125.754 33.8227
10509 2 19.0819 127.346 35.1028
4733 1 3.6209 128.931 33.8196
10933 2 5.44131 128.935 35.1008
4472 1 9.07714 128.931 33.8196
10693 2 10.8975 128.935 35.1008
4261 1 14.5334 128.931 33.8196
10572 2 16.3538 128.935 35.1008
11226 2 21.81 128.935 35.1008
4159 1 19.9896 128.931 33.8196
4734 1 0.892746 130.519 33.8166
10908 2 2.71314 130.524 35.0979
4736 1 3.6208 132.107 33.8128
10906 2 5.44118 132.113 35.0941
4441 1 9.07704 132.107 33.8128
4443 1 6.34898 130.519 33.8166
10694 2 8.16937 130.524 35.0979
4262 1 11.8052 130.519 33.8166
10696 2 10.8974 132.113 35.0941
4264 1 14.5333 132.107 33.8128
10555 2 13.6256 130.524 35.0979
4146 1 17.2615 130.519 33.8166
10553 2 16.3537 132.113 35.0941
11227 2 21.8099 132.113 35.0941
4144 1 19.9895 132.107 33.8128
10508 2 19.0819 130.524 35.0979
4713 1 0.892599 133.696 33.808
10907 2 2.71295 133.702 35.0893
4711 1 3.62061 135.284 33.8024
10909 2 5.44094 135.291 35.0837
4442 1 6.34884 133.696 33.808
4444 1 9.07685 135.284 33.8024
10675 2 8.16919 133.702 35.0893
4240 1 11.8051 133.696 33.808
10673 2 10.8972 135.291 35.0837
4238 1 14.5331 135.284 33.8024
10554 2 13.6254 133.702 35.0893
4145 1 17.2613 133.696 33.808
10556 2 16.3534 135.291 35.0837
11210 2 21.8097 135.291 35.0837
4147 1 19.9893 135.284 33.8024
10505 2 19.0817 133.702 35.0893
4712 1 0.892356 136.872 33.7958
10892 2 2.71266 136.88 35.0772
4714 1 3.62032 138.46 33.7884
10890 2 5.44059 138.469 35.0698
4421 1 9.07655 138.46 33.7884
4423 1 6.34859 136.872 33.7958
10674 2 8.1689 136.88 35.0772
10676 2 10.8968 138.469 35.0698
4239 1 11.8048 136.872 33.7958
10540 2 13.6251 136.88 35.0772
4241 1 14.5328 138.46 33.7884
10538 2 16.3531 138.469 35.0698
4134 1 17.2611 136.872 33.7958
10504 2 19.0814 136.88 35.0772
4132 1 19.989 138.46 33.7884
11211 2 21.8093 138.469 35.0698
10891 2 2.71225 140.058 35.0615
4699 1 0.89201 140.048 33.7801
10893 2 5.44012 141.646 35.0524
4697 1 3.61992 141.636 33.7709
10663 2 8.16849 140.058 35.0615
4424 1 9.07615 141.636 33.7709
4422 1 6.34825 140.048 33.7801
10661 2 10.8964 141.646 35.0524
4224 1 11.8045 140.048 33.7801
10539 2 13.6247 140.058 35.0615
4222 1 14.5324 141.636 33.7709
10541 2 16.3526 141.646 35.0524
4133 1 17.2607 140.048 33.7801
10501 2 19.081 140.058 35.0615
4135 1 19.9886 141.636 33.7709
11202 2 21.8088 141.646 35.0524
4698 1 0.891557 143.224 33.7609
10884 2 2.71172 143.235 35.0425
4700 1 3.61941 144.811 33.7501
10882 2 5.43953 144.823 35.0317
4409 1 9.07565 144.811 33.7501
4411 1 6.3478 143.224 33.7609
10662 2 8.16796 143.235 35.0425
4223 1 11.804 143.224 33.7609
10664 2 10.8958 144.823 35.0317
4225 1 14.5319 144.811 33.7501
10532 2 13.6242 143.235 35.0425
4123 1 17.2603 143.224 33.7609
10530 2 16.352 144.823 35.0317
11203 2 21.8082 144.823 35.0317
4121 1 19.9881 144.811 33.7501
10500 2 19.0804 143.235 35.0425
4693 1 0.890993 146.399 33.7384
10883 2 2.71107 146.412 35.0201
4691 1 3.61879 147.986 33.7259
10885 2 5.43881 148 35.0077
4410 1 6.34723 146.399 33.7384
4412 1 9.07503 147.986 33.7259
10659 2 8.16731 146.412 35.0201
4216 1 11.8035 146.399 33.7384
10657 2 10.8951 148 35.0077
4214 1 14.5313 147.986 33.7259
10531 2 13.6235 146.412 35.0201
10533 2 16.3513 148 35.0077
4122 1 17.2597 146.399 33.7384
10498 2 19.0798 146.412 35.0201
4124 1 19.9875 147.986 33.7259
11201 2 21.8075 148 35.0077
10881 2 2.71029 149.588 34.9945
4692 1 0.890323 149.573 33.7127
6729 2 5.43797 151.176 34.9805
840 1 3.61807 151.16 33.6986
513 1 9.07431 151.16 33.6986
10658 2 8.16652 149.588 34.9945
4404 1 6.34656 149.573 33.7127
6480 2 10.8942 151.176 34.9805
4215 1 11.8028 149.573 33.7127
280 1 14.5305 151.16 33.6986
10529 2 13.6228 149.588 34.9945
6281 2 16.3504 151.176 34.9805
4116 1 17.259 149.573 33.7127
105 1 19.9868 151.16 33.6986
7065 2 21.8067 151.176 34.9805
10497 2 19.079 149.588 34.9945
12670 2 0.893892 101.905 37.5799
4891 1 1.80198 103.503 36.3107
4574 1 4.52963 101.914 36.2989
12668 2 3.62251 103.495 37.5917
12639 2 6.35013 101.905 37.5799
12640 2 9.07875 103.495 37.5917
4572 1 7.25822 103.503 36.3107
12606 2 11.8064 101.905 37.5799
4354 1 9.98587 101.914 36.2989
4190 1 15.4421 101.914 36.2989
12604 2 14.535 103.495 37.5917
4355 1 12.7145 103.503 36.3107
12575 2 17.2626 101.905 37.5799
4188 1 18.1707 103.503 36.3107
4112 1 20.8983 101.914 36.2989
12576 2 19.9912 103.495 37.5917
12669 2 0.894851 105.085 37.6027
4844 1 1.80281 106.682 36.332
4573 1 4.53053 105.093 36.3217
12671 2 3.62339 106.675 37.613
12636 2 6.35109 105.085 37.6027
12634 2 9.07963 106.675 37.613
4575 1 7.25905 106.682 36.332
12605 2 11.8073 105.085 37.6027
4331 1 9.98677 105.093 36.3217
4189 1 15.443 105.093 36.3217
12607 2 14.5359 106.675 37.613
4329 1 12.7153 106.682 36.332
12572 2 17.2636 105.085 37.6027
4191 1 18.1715 106.682 36.332
4111 1 20.8992 105.093 36.3217
12570 2 19.9921 106.675 37.613
12666 2 0.895655 108.266 37.6224
4538 1 4.53129 108.272 36.3414
12635 2 6.35189 108.266 37.6224
12602 2 11.8081 108.266 37.6224
4330 1 9.98753 108.272 36.3414
4178 1 15.4438 108.272 36.3414
12571 2 17.2644 108.266 37.6224
4110 1 20.9 108.272 36.3414
12665 2 0.896312 111.446 37.6387
4845 1 1.8035 109.861 36.35
12664 2 3.62412 109.856 37.6309
4537 1 4.53191 111.451 36.3578
12632 2 6.35255 111.446 37.6387
12637 2 9.08036 109.856 37.6309
4536 1 7.25974 109.861 36.35
12601 2 11.8088 111.446 37.6387
4307 1 9.98815 111.451 36.3578
12600 2 14.5366 109.856 37.6309
4177 1 15.4444 111.451 36.3578
4332 1 12.716 109.861 36.35
12568 2 17.265 111.446 37.6387
4176 1 18.1722 109.861 36.35
12573 2 19.9928 109.856 37.6309
4109 1 20.9006 111.451 36.3578
12662 2 0.896829 114.628 37.6516
4799 1 1.80405 113.041 36.3647
12667 2 3.62471 113.037 37.6455
4502 1 4.5324 114.63 36.3707
12630 2 9.08095 113.037 37.6455
12631 2 6.35307 114.628 37.6516
4539 1 7.26029 113.041 36.3647
12598 2 11.8093 114.628 37.6516
4306 1 9.98864 114.63 36.3707
12603 2 14.5372 113.037 37.6455
4166 1 15.4449 114.63 36.3707
4305 1 12.7165 113.041 36.3647
12567 2 17.2655 114.628 37.6516
4179 1 18.1728 113.041 36.3647
12566 2 19.9934 113.037 37.6455
4108 1 20.9011 114.63 36.3707
12661 2 0.897212 117.809 37.661
4800 1 1.80448 116.22 36.3759
12660 2 3.62516 116.218 37.6567
4501 1 4.53276 117.81 36.3802
12628 2 6.35345 117.809 37.661
12633 2 9.08139 116.218 37.6567
4500 1 7.26071 116.22 36.3759
12597 2 11.8097 117.809 37.661
4283 1 9.989 117.81 36.3802
12596 2 14.5376 116.218 37.6567
4165 1 15.4452 117.81 36.3802
4308 1 12.717 116.22 36.3759
12564 2 17.2659 117.809 37.661
4164 1 18.1732 116.22 36.3759
12569 2 19.9939 116.218 37.6567
4107 1 20.9015 117.81 36.3802
12658 2 0.897466 120.99 37.6668
4761 1 1.80478 119.4 36.3835
12663 2 3.62547 119.399 37.6643
4467 1 4.533 120.99 36.386
12626 2 9.08171 119.399 37.6643
12627 2 6.3537 120.99 37.6668
4503 1 7.26102 119.4 36.3835
12594 2 11.8099 120.99 37.6668
4282 1 9.98924 120.99 36.386
12599 2 14.538 119.399 37.6643
4154 1 15.4455 120.99 36.386
4281 1 12.7173 119.4 36.3835
12563 2 17.2662 120.99 37.6668
4167 1 18.1735 119.4 36.3835
12562 2 19.9942 119.399 37.6643
4106 1 20.9017 120.99 36.386
12657 2 0.897596 124.172 37.6691
4762 1 1.80496 122.58 36.3876
12656 2 3.62567 122.581 37.6684
4466 1 4.53313 124.17 36.3883
12624 2 6.35383 124.172 37.6691
12629 2 9.0819 122.581 37.6684
4465 1 7.2612 122.58 36.3876
12593 2 11.8101 124.172 37.6691
4259 1 9.98937 124.17 36.3883
12592 2 14.5381 122.581 37.6684
4153 1 15.4456 124.17 36.3883
4284 1 12.7174 122.58 36.3876
12560 2 17.2663 124.172 37.6691
4152 1 18.1737 122.58 36.3876
12565 2 19.9944 122.581 37.6684
4105 1 20.9018 124.17 36.3883
4731 1 1.80503 125.76 36.3881
12654 2 0.897602 127.353 37.6678
12659 2 3.62573 125.762 37.6689
4439 1 4.53314 127.349 36.387
12622 2 9.08197 125.762 37.6689
4468 1 7.26127 125.76 36.3881
12623 2 6.35384 127.353 37.6678
12590 2 11.8101 127.353 37.6678
4258 1 9.98938 127.349 36.387
12595 2 14.5382 125.762 37.6689
4257 1 12.7175 125.76 36.3881
4142 1 15.4456 127.349 36.387
4155 1 18.1737 125.76 36.3881
12559 2 17.2663 127.353 37.6678
12558 2 19.9944 125.762 37.6689
4104 1 20.9019 127.349 36.387
4732 1 1.80499 128.939 36.385
12652 2 3.62568 128.944 37.6658
12625 2 9.08191 128.944 37.6658
4437 1 7.26123 128.939 36.385
12588 2 14.5382 128.944 37.6658
4260 1 12.7175 128.939 36.385
4140 1 18.1737 128.939 36.385
12561 2 19.9944 128.944 37.6658
12653 2 0.897481 130.534 37.6629
4709 1 1.80482 132.119 36.3783
12655 2 3.62549 132.125 37.6591
4438 1 4.53304 130.529 36.3821
12618 2 9.08173 132.125 37.6591
12620 2 6.35372 130.534 37.6629
4440 1 7.26106 132.119 36.3783
12589 2 11.81 130.534 37.6629
4236 1 9.98928 130.529 36.3821
12591 2 14.538 132.125 37.6591
4141 1 15.4455 130.529 36.3821
4234 1 12.7173 132.119 36.3783
12556 2 17.2662 130.534 37.6629
4143 1 18.1735 132.119 36.3783
12554 2 19.9942 132.125 37.6591
4103 1 20.9018 130.529 36.3821
12650 2 0.897229 133.715 37.6544
4710 1 1.80453 135.299 36.368
12648 2 3.62517 135.306 37.6488
4419 1 4.53281 133.709 36.3736
12619 2 6.35347 133.715 37.6544
12621 2 9.08141 135.306 37.6488
4417 1 7.26077 135.299 36.368
12586 2 11.8097 133.715 37.6544
4235 1 9.98905 133.709 36.3736
12584 2 14.5376 135.306 37.6488
4130 1 15.4453 133.709 36.3736
4237 1 12.717 135.299 36.368
12555 2 17.2659 133.715 37.6544
4128 1 18.1732 135.299 36.368
12557 2 19.9939 135.306 37.6488
4102 1 20.9015 133.709 36.3736
12649 2 0.89684 136.896 37.6424
4695 1 1.80411 138.478 36.3542
12651 2 3.62471 138.487 37.6351
4418 1 4.53246 136.888 36.3615
12614 2 9.08095 138.487 37.6351
12616 2 6.35308 136.896 37.6424
4420 1 7.26035 138.478 36.3542
12585 2 11.8093 136.896 37.6424
4220 1 9.9887 136.888 36.3615
12587 2 14.5372 138.487 37.6351
4129 1 15.4449 136.888 36.3615
4218 1 12.7166 138.478 36.3542
12552 2 17.2656 136.896 37.6424
4131 1 18.1728 138.478 36.3542
12550 2 19.9934 138.487 37.6351
4101 1 20.9012 136.888 36.3615
12646 2 0.896306 140.077 37.6269
4696 1 1.80355 141.657 36.3369
12644 2 3.6241 141.667 37.6178
4407 1 4.53197 140.067 36.3459
12615 2 6.35254 140.077 37.6269
12617 2 9.08034 141.667 37.6178
4405 1 7.25979 141.657 36.3369
12582 2 11.8088 140.077 37.6269
4219 1 9.98821 140.067 36.3459
12580 2 14.5366 141.667 37.6178
4119 1 15.4444 140.067 36.3459
4221 1 12.716 141.657 36.3369
12551 2 17.265 140.077 37.6269
4117 1 18.1723 141.657 36.3369
12553 2 19.9928 141.667 37.6178
4100 1 20.9007 140.067 36.3459
12645 2 0.895617 143.258 37.608
4689 1 1.80284 144.836 36.3163
12647 2 3.62333 144.848 37.5973
4406 1 4.53133 143.246 36.327
12610 2 9.07957 144.848 37.5973
12612 2 6.35186 143.258 37.608
4408 1 7.25908 144.836 36.3163
12581 2 11.8081 143.258 37.608
4212 1 9.98757 143.246 36.327
12583 2 14.5358 144.848 37.5973
4118 1 15.4438 143.246 36.327
4210 1 12.7153 144.836 36.3163
12548 2 17.2643 143.258 37.608
4120 1 18.1716 144.836 36.3163
12546 2 19.992 144.848 37.5973
4099 1 20.9 143.246 36.327
12643 2 0.894766 146.438 37.5858
4690 1 1.80197 148.014 36.2924
12641 2 3.6224 148.028 37.5734
4403 1 4.53054 146.425 36.3047
12611 2 6.351 146.438 37.5858
12613 2 9.07863 148.028 37.5734
4401 1 7.25821 148.014 36.2924
12579 2 11.8072 146.438 37.5858
4211 1 9.98678 146.425 36.3047
12577 2 14.5349 148.028 37.5734
4115 1 15.443 146.425 36.3047
4213 1 12.7144 148.014 36.2924
12547 2 17.2635 146.438 37.5858
4113 1 18.1707 148.014 36.2924
12549 2 19.9911 148.028 37.5734
4098 1 20.8993 146.425 36.3047
12642 2 0.893745 149.618 37.5604
794 1 1.80094 151.192 36.2654
4402 1 4.52959 149.603 36.2793
12609 2 6.34998 149.618 37.5604
512 1 7.25718 151.192 36.2654
12578 2 11.8062 149.618 37.5604
4209 1 9.98583 149.603 36.2793
4114 1 15.4421 149.603 36.2793
257 1 12.7134 151.192 36.2654
12545 2 17.2625 149.618 37.5604
104 1 18.1697 151.192 36.2654
4097 1 20.8983 149.603 36.2793
16409 1 2.71376 101.895 38.8639
23951 2 1.80711 103.478 40.1561
16407 1 0.898669 101.877 41.4276
18295 1 5.44243 103.486 38.8756
18294 1 3.62739 103.469 41.4394
22015 2 4.53466 101.886 40.1443
16255 1 8.17 101.895 38.8639
18200 1 9.08362 103.469 41.4394
23922 2 7.26335 103.478 40.1561
16233 1 6.35491 101.877 41.4276
18207 1 10.8987 103.486 38.8756
15999 1 11.8111 101.877 41.4276
21817 2 9.9909 101.886 40.1443
16001 1 13.6262 101.895 38.8639
18024 1 14.5399 103.469 41.4394
23800 2 12.7196 103.478 40.1561
21567 2 15.4471 101.886 40.1443
18025 1 16.3549 103.486 38.8756
23592 2 18.1758 103.478 40.1561
15673 1 17.2674 101.877 41.4276
18312 1 21.8111 103.486 38.8756
15718 1 19.0825 101.895 38.8639
17753 1 19.9961 103.469 41.4394
21232 2 20.9034 101.886 40.1443
18296 1 2.71482 105.077 38.8866
18288 1 0.899817 105.062 41.4504
23952 2 1.8081 106.662 40.1772
18297 1 5.4434 106.669 38.8968
18286 1 3.62844 106.655 41.4605
23920 2 4.53574 105.07 40.167
18205 1 8.17106 105.077 38.8866
18201 1 6.35606 105.062 41.4504
18202 1 9.08468 106.655 41.4605
23918 2 7.26434 106.662 40.1772
18203 1 10.8996 106.669 38.8968
18018 1 11.8123 105.062 41.4504
23801 2 9.99198 105.07 40.167
18026 1 13.6273 105.077 38.8866
18016 1 14.5409 106.655 41.4605
23590 2 15.4482 105.07 40.167
23802 2 12.7206 106.662 40.1772
18027 1 16.3559 106.669 38.8968
17754 1 17.2685 105.062 41.4504
23588 2 18.1768 106.662 40.1772
18310 1 21.8121 106.669 38.8968
17757 1 19.0835 105.077 38.8866
17755 1 19.9972 106.655 41.4605
23292 2 20.9045 105.07 40.167
18292 1 2.7157 108.26 38.9062
18287 1 0.900775 108.248 41.4699
23919 2 4.53665 108.254 40.1866
18204 1 8.17194 108.26 38.9062
18193 1 6.35701 108.248 41.4699
18017 1 11.8133 108.248 41.4699
23797 2 9.99289 108.254 40.1866
18022 1 13.6282 108.26 38.9062
23589 2 15.4491 108.254 40.1866
17748 1 17.2695 108.248 41.4699
17756 1 19.0844 108.26 38.9062
23291 2 20.9054 108.254 40.1866
18291 1 2.71642 111.442 38.9225
23948 2 1.80892 109.846 40.1951
18277 1 0.901554 111.434 41.4861
18290 1 5.4442 109.851 38.9147
18289 1 3.62931 109.841 41.4784
23912 2 4.53738 111.438 40.2028
18197 1 8.17266 111.442 38.9225
18191 1 9.08554 109.841 41.4784
23921 2 7.26516 109.846 40.1951
18192 1 6.35779 111.434 41.4861
18206 1 10.9004 109.851 38.9147
18006 1 11.814 111.434 41.4861
23796 2 9.99362 111.438 40.2028
18021 1 13.6289 111.442 38.9225
18019 1 14.5418 109.841 41.4784
23795 2 12.7214 109.846 40.1951
23582 2 15.4499 111.438 40.2028
18020 1 16.3567 109.851 38.9147
23591 2 18.1776 109.846 40.1951
17747 1 17.2703 111.434 41.4861
18311 1 21.8129 109.851 38.9147
17751 1 19.0851 111.442 38.9225
17746 1 19.998 109.841 41.4784
23290 2 20.9061 111.438 40.2028
18281 1 2.71698 114.625 38.9353
23949 2 1.80957 113.03 40.2097
18276 1 0.902162 114.619 41.499
18293 1 5.44484 113.034 38.9293
18275 1 3.63 113.026 41.493
23911 2 4.53796 114.622 40.2157
18196 1 8.17322 114.625 38.9353
18194 1 9.08624 113.026 41.493
23910 2 7.26581 113.03 40.2097
18177 1 6.3584 114.619 41.499
18195 1 10.9011 113.034 38.9293
18005 1 11.8146 114.619 41.499
23785 2 9.9942 114.622 40.2157
18010 1 13.6295 114.625 38.9353
18004 1 14.5425 113.026 41.493
23798 2 12.722 113.03 40.2097
23581 2 15.4504 114.622 40.2157
18023 1 16.3573 113.034 38.9293
23580 2 18.1783 113.03 40.2097
17734 1 17.2709 114.619 41.499
18308 1 21.8136 113.034 38.9293
17750 1 19.0857 114.625 38.9353
17749 1 19.9987 113.026 41.493
23283 2 20.9067 114.622 40.2157
18280 1 2.7174 117.808 38.9447
18265 1 0.902609 117.805 41.5083
23944 2 1.81007 116.214 40.2208
18279 1 5.44533 116.216 38.9404
18278 1 3.63052 116.212 41.5041
23897 2 4.53839 117.806 40.2251
18181 1 8.17363 117.808 38.9447
18175 1 9.08676 116.212 41.5041
18176 1 6.35885 117.805 41.5083
23913 2 7.26631 116.214 40.2208
18198 1 10.9016 116.216 38.9404
17986 1 11.8151 117.805 41.5083
23784 2 9.99462 117.806 40.2251
18009 1 13.6299 117.808 38.9447
18007 1 14.543 116.212 41.5041
23566 2 15.4509 117.806 40.2251
23783 2 12.7225 116.214 40.2208
18008 1 16.3578 116.216 38.9404
17733 1 17.2713 117.805 41.5083
23583 2 18.1788 116.214 40.2208
18309 1 21.814 116.216 38.9404
17737 1 19.0861 117.808 38.9447
17732 1 19.9992 116.212 41.5041
23282 2 20.9071 117.806 40.2251
18269 1 2.71767 120.991 38.9505
18264 1 0.902899 120.991 41.5141
23945 2 1.81042 119.399 40.2284
18282 1 5.44567 119.399 38.9481
18263 1 3.63089 119.398 41.5117
23896 2 4.53866 120.991 40.2309
18180 1 8.17391 120.991 38.9505
18154 1 6.35914 120.991 41.5141
18178 1 9.08713 119.398 41.5117
23895 2 7.26666 119.399 40.2284
18179 1 10.9019 119.399 38.9481
17985 1 11.8154 120.991 41.5141
23765 2 9.9949 120.991 40.2309
17990 1 13.6301 120.991 38.9505
17984 1 14.5434 119.398 41.5117
23565 2 15.4511 120.991 40.2309
23786 2 12.7229 119.399 40.2284
18011 1 16.3581 119.399 38.9481
17712 1 17.2716 120.991 41.5141
23564 2 18.1791 119.399 40.2284
18306 1 21.8144 119.399 38.9481
17736 1 19.0864 120.991 38.9505
17735 1 19.9996 119.398 41.5117
23267 2 20.9074 120.991 40.2309
18268 1 2.7178 124.174 38.9528
18253 1 0.903036 124.177 41.5164
23940 2 1.81063 122.583 40.2325
18267 1 5.44587 122.582 38.9521
18266 1 3.63111 122.584 41.5157
23881 2 4.5388 124.175 40.2332
18158 1 8.17404 124.174 38.9528
18152 1 9.08734 122.584 41.5157
18153 1 6.35927 124.177 41.5164
23898 2 7.26687 122.583 40.2325
18182 1 10.9021 122.582 38.9521
17958 1 11.8155 124.177 41.5164
23764 2 9.99504 124.175 40.2332
17989 1 13.6303 124.174 38.9528
17987 1 14.5436 122.584 41.5157
23542 2 15.4513 124.175 40.2332
23763 2 12.7231 122.583 40.2325
17988 1 16.3583 122.582 38.9521
17711 1 17.2718 124.177 41.5164
23567 2 18.1793 122.583 40.2325
18307 1 21.8146 122.582 38.9521
17715 1 19.0865 124.174 38.9528
17710 1 19.9998 122.584 41.5157
23266 2 20.9075 124.175 40.2332
18257 1 2.7178 127.356 38.9515
18252 1 0.903019 127.363 41.5151
23941 2 1.81069 125.768 40.233
18270 1 5.44594 125.765 38.9526
18251 1 3.63117 125.77 41.5162
23880 2 4.53879 127.36 40.2319
18157 1 8.17404 127.356 38.9515
18130 1 6.35926 127.363 41.5151
18155 1 9.0874 125.77 41.5162
23879 2 7.26693 125.768 40.233
18156 1 10.9022 125.765 38.9526
17957 1 11.8155 127.363 41.5151
23738 2 9.99503 127.36 40.2319
17962 1 13.6303 127.356 38.9515
17956 1 14.5436 125.77 41.5162
23541 2 15.4513 127.36 40.2319
23766 2 12.7232 125.768 40.233
17991 1 16.3584 125.765 38.9526
17682 1 17.2717 127.363 41.5151
23540 2 18.1794 125.768 40.233
18304 1 21.8147 125.765 38.9526
17714 1 19.0865 127.356 38.9515
17713 1 19.9999 125.77 41.5162
23243 2 20.9075 127.36 40.2319
23936 2 1.81061 128.952 40.2299
18255 1 5.44586 128.948 38.9495
18254 1 3.63107 128.956 41.5131
18128 1 9.08731 128.956 41.5131
23882 2 7.26685 128.952 40.2299
18159 1 10.9021 128.948 38.9495
17959 1 14.5435 128.956 41.5131
23736 2 12.7231 128.952 40.2299
17960 1 16.3583 128.948 38.9495
23543 2 18.1793 128.952 40.2299
18305 1 21.8146 128.948 38.9495
17680 1 19.9998 128.956 41.5131
18256 1 2.71765 130.539 38.9466
18241 1 0.902848 130.549 41.5103
23937 2 1.81038 132.137 40.2232
18258 1 5.44565 132.131 38.9428
23865 2 4.53863 130.544 40.227
18239 1 3.63082 132.142 41.5065
18134 1 8.17389 130.539 38.9466
18129 1 6.35909 130.549 41.5103
18131 1 9.08706 132.142 41.5065
23863 2 7.26662 132.137 40.2232
18132 1 10.9019 132.131 38.9428
17923 1 11.8153 130.549 41.5103
23737 2 9.99487 130.544 40.227
17961 1 13.6301 130.539 38.9466
23510 2 15.4511 130.544 40.227
17921 1 14.5433 132.142 41.5065
23739 2 12.7229 132.137 40.2232
17963 1 16.3581 132.131 38.9428
17681 1 17.2716 130.549 41.5103
23508 2 18.1791 132.137 40.2232
17685 1 19.0864 130.539 38.9466
18302 1 21.8144 132.131 38.9428
23242 2 20.9073 130.544 40.227
17683 1 19.9995 132.142 41.5065
18245 1 2.71737 133.722 38.9382
18240 1 0.902516 133.735 41.5018
23932 2 1.81 135.321 40.213
18243 1 5.44529 135.313 38.9326
18242 1 3.63041 135.328 41.4963
23864 2 4.53833 133.729 40.2185
18133 1 8.17361 133.722 38.9382
18104 1 9.08665 135.328 41.4963
18106 1 6.35875 133.735 41.5018
23866 2 7.26624 135.321 40.213
18135 1 10.9015 135.313 38.9326
17922 1 11.815 133.735 41.5018
23710 2 9.99457 133.729 40.2185
17927 1 13.6298 133.722 38.9382
17924 1 14.5429 135.328 41.4963
23509 2 15.4508 133.729 40.2185
23708 2 12.7225 135.321 40.213
17925 1 16.3578 135.313 38.9326
17644 1 17.2712 133.735 41.5018
23511 2 18.1787 135.321 40.213
18303 1 21.814 135.313 38.9326
17684 1 19.0861 133.722 38.9382
17642 1 19.9991 135.328 41.4963
23211 2 20.907 133.729 40.2185
18244 1 2.71693 136.905 38.9262
18229 1 0.902018 136.921 41.4899
23933 2 1.80946 138.505 40.1993
18246 1 5.44477 138.496 38.9189
18227 1 3.62982 138.514 41.4826
23849 2 4.53787 136.913 40.2066
18110 1 8.17317 136.905 38.9262
18105 1 6.35826 136.921 41.4899
18107 1 9.08606 138.514 41.4826
23847 2 7.2657 138.505 40.1993
18108 1 10.901 138.496 38.9189
17887 1 11.8145 136.921 41.4899
23709 2 9.99411 136.913 40.2066
17926 1 13.6294 136.905 38.9262
17885 1 14.5423 138.514 41.4826
23471 2 15.4503 136.913 40.2066
23711 2 12.7219 138.505 40.1993
17928 1 16.3572 138.496 38.9189
17643 1 17.2707 136.921 41.4899
23469 2 18.1782 138.505 40.1993
18300 1 21.8135 138.496 38.9189
17647 1 19.0856 136.905 38.9262
17645 1 19.9985 138.514 41.4826
23210 2 20.9066 136.913 40.2066
18233 1 2.71633 140.087 38.9107
18228 1 0.901342 140.107 41.4745
23928 2 1.80875 141.689 40.1821
18231 1 5.44408 141.678 38.9017
18230 1 3.62905 141.7 41.4655
23848 2 4.53724 140.097 40.1911
18109 1 8.17256 140.087 38.9107
18080 1 9.08529 141.7 41.4655
18082 1 6.35758 140.107 41.4745
23850 2 7.26498 141.689 40.1821
18111 1 10.9003 141.678 38.9017
17886 1 11.8138 140.107 41.4745
23682 2 9.99348 140.097 40.1911
17891 1 13.6288 140.087 38.9107
17888 1 14.5415 141.7 41.4655
23470 2 15.4497 140.097 40.1911
23680 2 12.7212 141.689 40.1821
17889 1 16.3566 141.678 38.9017
17599 1 17.2701 140.107 41.4745
23472 2 18.1775 141.689 40.1821
18301 1 21.8128 141.678 38.9017
17646 1 19.085 140.087 38.9107
17597 1 19.9978 141.7 41.4655
23171 2 20.906 140.097 40.1911
18232 1 2.71555 143.269 38.8919
18218 1 0.900479 143.292 41.4557
23929 2 1.80785 144.873 40.1616
18234 1 5.44322 144.86 38.8812
18216 1 3.62809 144.885 41.445
23833 2 4.53644 143.281 40.1723
18086 1 8.17179 143.269 38.8919
18081 1 6.35672 143.292 41.4557
18083 1 9.08433 144.885 41.445
23831 2 7.26409 144.873 40.1616
18084 1 10.8995 144.86 38.8812
17852 1 11.813 143.292 41.4557
23681 2 9.99268 143.281 40.1723
17890 1 13.628 143.269 38.8919
17850 1 14.5406 144.885 41.445
23431 2 15.4489 143.281 40.1723
23683 2 12.7203 144.873 40.1616
17892 1 16.3557 144.86 38.8812
17598 1 17.2692 143.292 41.4557
23429 2 18.1766 144.873 40.1616
18298 1 21.8119 144.86 38.8812
17602 1 19.0843 143.269 38.8919
17600 1 19.9968 144.885 41.445
23170 2 20.9052 143.281 40.1723
18222 1 2.71459 146.451 38.8698
18217 1 0.899415 146.478 41.4335
23925 2 1.80677 148.056 40.1379
18220 1 5.44216 148.042 38.8575
18219 1 3.62692 148.071 41.4213
23832 2 4.53545 146.464 40.1501
18085 1 8.17083 146.451 38.8698
18060 1 9.08316 148.071 41.4213
18062 1 6.35565 146.478 41.4335
23834 2 7.26301 148.056 40.1379
18087 1 10.8984 148.042 38.8575
17851 1 11.8119 146.478 41.4335
23655 2 9.99169 146.464 40.1501
17856 1 13.6271 146.451 38.8698
17853 1 14.5394 148.071 41.4213
23430 2 15.4479 146.464 40.1501
23653 2 12.7192 148.056 40.1379
17854 1 16.3546 148.042 38.8575
17555 1 17.2681 146.478 41.4335
23432 2 18.1755 148.056 40.1379
18299 1 21.8109 148.042 38.8575
17601 1 19.0833 146.451 38.8698
17553 1 19.9956 148.071 41.4213
23124 2 20.9042 146.464 40.1501
18221 1 2.71344 149.633 38.8445
18211 1 0.898138 149.663 41.4082
23818 2 4.53427 149.648 40.1248
18063 1 8.16968 149.633 38.8445
18061 1 6.35438 149.663 41.4082
17821 1 11.8106 149.663 41.4082
23654 2 9.99051 149.648 40.1248
17855 1 13.6259 149.633 38.8445
23392 2 15.4467 149.648 40.1248
17554 1 17.2669 149.663 41.4082
17556 1 19.0822 149.633 38.8445
23123 2 20.903 149.648 40.1248
18284 1 1.81308 103.452 44.0019
22001 2 2.71997 101.867 42.7074
23915 2 5.44868 103.461 42.7192
16231 1 4.54059 101.858 43.99
18199 1 7.26932 103.452 44.0019
21815 2 8.17621 101.867 42.7074
23799 2 10.9049 103.461 42.7192
15969 1 9.99683 101.858 43.99
18013 1 12.7256 103.452 44.0019
15671 1 15.4531 101.858 43.99
21529 2 13.6324 101.867 42.7074
17752 1 18.1818 103.452 44.0019
23585 2 16.3612 103.461 42.7192
23950 2 21.8174 103.461 42.7192
15339 1 20.9093 101.858 43.99
21230 2 19.0887 101.867 42.7074
18285 1 1.81416 106.641 44.0231
23916 2 2.72111 105.054 42.7302
18189 1 4.54177 105.047 44.0129
23917 2 5.44973 106.648 42.7404
18187 1 7.2704 106.641 44.0231
23793 2 8.17735 105.054 42.7302
18014 1 9.998 105.047 44.0129
23791 2 10.906 106.648 42.7404
17744 1 15.4542 105.047 44.0129
18015 1 12.7266 106.641 44.0231
23586 2 13.6336 105.054 42.7302
17742 1 18.1829 106.641 44.0231
23587 2 16.3622 106.648 42.7404
23946 2 21.8184 106.648 42.7404
17412 1 20.9105 105.047 44.0129
23289 2 19.0898 105.054 42.7302
23908 2 2.72206 108.242 42.7498
18188 1 4.54275 108.236 44.0325
23792 2 8.1783 108.242 42.7498
18002 1 9.99899 108.236 44.0325
17743 1 15.4552 108.236 44.0325
23578 2 13.6345 108.242 42.7498
17411 1 20.9115 108.236 44.0325
23288 2 19.0908 108.242 42.7498
18273 1 1.81506 109.83 44.0411
23907 2 2.72284 111.429 42.766
23906 2 5.4506 109.835 42.7583
18173 1 4.54356 111.425 44.0488
18190 1 7.2713 109.83 44.0411
23781 2 8.17908 111.429 42.766
23794 2 10.9068 109.835 42.7583
18001 1 9.9998 111.425 44.0488
18000 1 12.7275 109.83 44.0411
17730 1 15.456 111.425 44.0488
23577 2 13.6353 111.429 42.766
17745 1 18.1838 109.83 44.0411
23576 2 16.3631 109.835 42.7583
23947 2 21.8193 109.835 42.7583
17410 1 20.9123 111.425 44.0488
23281 2 19.0916 111.429 42.766
18274 1 1.81578 113.019 44.0557
23893 2 2.72346 114.617 42.7788
23909 2 5.45129 113.023 42.7729
18172 1 4.54419 114.614 44.0616
18171 1 7.27201 113.019 44.0557
23780 2 8.1797 114.617 42.7788
23779 2 10.9075 113.023 42.7729
17982 1 10.0004 114.614 44.0616
18003 1 12.7283 113.019 44.0557
17729 1 15.4567 114.614 44.0616
23562 2 13.6359 114.617 42.7788
17728 1 18.1845 113.019 44.0557
23579 2 16.3638 113.023 42.7729
23942 2 21.82 113.023 42.7729
17403 1 20.9129 114.614 44.0616
23280 2 19.0922 114.617 42.7788
18261 1 1.81632 116.208 44.0668
23892 2 2.72391 117.804 42.7882
18150 1 4.54465 117.803 44.071
23891 2 5.45182 116.21 42.784
18174 1 7.27256 116.208 44.0668
23761 2 8.18014 117.804 42.7882
17981 1 10.0009 117.803 44.071
23782 2 10.9081 116.21 42.784
17708 1 15.4571 117.803 44.071
17980 1 12.7288 116.208 44.0668
23561 2 13.6364 117.804 42.7882
17731 1 18.185 116.208 44.0668
23560 2 16.3643 116.21 42.784
23943 2 21.8205 116.21 42.784
17402 1 20.9134 117.803 44.071
23265 2 19.0926 117.804 42.7882
18262 1 1.8167 119.398 44.0743
23877 2 2.7242 120.992 42.794
18149 1 4.54495 120.992 44.0768
23894 2 5.45219 119.398 42.7916
18148 1 7.27294 119.398 44.0743
23760 2 8.18044 120.992 42.794
17954 1 10.0012 120.992 44.0768
23759 2 10.9084 119.398 42.7916
17707 1 15.4574 120.992 44.0768
17983 1 12.7292 119.398 44.0743
23538 2 13.6367 120.992 42.794
17706 1 18.1854 119.398 44.0743
23563 2 16.3647 119.398 42.7916
23938 2 21.8209 119.398 42.7916
17387 1 20.9137 120.992 44.0768
23264 2 19.0929 120.992 42.794
18249 1 1.81692 122.587 44.0784
23876 2 2.72433 124.179 42.7963
18126 1 4.54509 124.181 44.0791
23875 2 5.4524 122.586 42.7956
18151 1 7.27316 122.587 44.0784
23734 2 8.18057 124.179 42.7963
17953 1 10.0013 124.181 44.0791
23762 2 10.9086 122.586 42.7956
17678 1 15.4576 124.181 44.0791
17952 1 12.7294 122.587 44.0784
23537 2 13.6368 124.179 42.7963
17709 1 18.1856 122.587 44.0784
23536 2 16.3649 122.586 42.7956
23939 2 21.8211 122.586 42.7956
17386 1 20.9138 124.181 44.0791
23241 2 19.093 124.179 42.7963
18250 1 1.81698 125.776 44.0789
23861 2 2.72431 127.367 42.795
18125 1 4.54506 127.371 44.0778
23878 2 5.45246 125.773 42.7961
18124 1 7.27322 125.776 44.0789
23733 2 8.18055 127.367 42.795
17919 1 10.0013 127.371 44.0778
23732 2 10.9087 125.773 42.7961
17677 1 15.4575 127.371 44.0778
17955 1 12.7295 125.776 44.0789
23506 2 13.6368 127.367 42.795
17676 1 18.1857 125.776 44.0789
23539 2 16.3649 125.773 42.7961
23934 2 21.8212 125.773 42.7961
17363 1 20.9138 127.371 44.0778
23240 2 19.093 127.367 42.795
18237 1 1.81687 128.965 44.0758
23859 2 5.45236 128.961 42.793
18127 1 7.27311 128.965 44.0758
23735 2 10.9086 128.961 42.793
17917 1 12.7293 128.965 44.0758
17679 1 18.1856 128.965 44.0758
23504 2 16.3648 128.961 42.793
23935 2 21.8211 128.961 42.793
23860 2 2.72414 130.555 42.7901
18238 1 1.8166 132.154 44.0692
18102 1 4.54487 130.56 44.0729
23862 2 5.45211 132.148 42.7864
23706 2 8.18037 130.555 42.7901
18100 1 7.27283 132.154 44.0692
17918 1 10.0011 130.56 44.0729
23704 2 10.9083 132.148 42.7864
17640 1 15.4573 130.56 44.0729
23505 2 13.6366 130.555 42.7901
17920 1 12.7291 132.154 44.0692
17638 1 18.1853 132.154 44.0692
23507 2 16.3646 132.148 42.7864
17362 1 20.9136 130.56 44.0729
23209 2 19.0929 130.555 42.7901
23930 2 21.8208 132.148 42.7864
18225 1 1.81615 135.343 44.059
23845 2 2.7238 133.742 42.7817
18101 1 4.54451 133.749 44.0645
23843 2 5.45168 135.336 42.7762
18103 1 7.27239 135.343 44.059
23705 2 8.18003 133.742 42.7817
17883 1 10.0008 133.749 44.0645
23707 2 10.9079 135.336 42.7762
17639 1 15.457 133.749 44.0645
17881 1 12.7286 135.343 44.059
23467 2 13.6363 133.742 42.7817
17641 1 18.1849 135.343 44.059
23465 2 16.3642 135.336 42.7762
23931 2 21.8204 135.336 42.7762
17331 1 20.9132 133.749 44.0645
23208 2 19.0925 133.742 42.7817
18226 1 1.81553 138.532 44.0453
23844 2 2.72329 136.93 42.7697
18078 1 4.54398 136.938 44.0526
23846 2 5.45109 138.523 42.7625
18076 1 7.27177 138.532 44.0453
23678 2 8.17953 136.93 42.7697
17882 1 10.0002 136.938 44.0526
23676 2 10.9073 138.523 42.7625
17595 1 15.4565 136.938 44.0526
17884 1 12.728 138.532 44.0453
23466 2 13.6358 136.93 42.7697
17593 1 18.1842 138.532 44.0453
23468 2 16.3636 138.523 42.7625
23926 2 21.8198 138.523 42.7625
17330 1 20.9127 136.938 44.0526
23169 2 19.092 136.93 42.7697
18214 1 1.81472 141.721 44.0281
23829 2 2.7226 140.117 42.7543
18077 1 4.54327 140.127 44.0371
23827 2 5.45031 141.71 42.7453
18079 1 7.27096 141.721 44.0281
23677 2 8.17884 140.117 42.7543
17848 1 9.9995 140.127 44.0371
23679 2 10.9066 141.71 42.7453
17594 1 15.4557 140.127 44.0371
17846 1 12.7272 141.721 44.0281
23427 2 13.6351 140.117 42.7543
17596 1 18.1834 141.721 44.0281
23425 2 16.3628 141.71 42.7453
23927 2 21.819 141.71 42.7453
17291 1 20.912 140.127 44.0371
23168 2 19.0913 140.117 42.7543
18215 1 1.81371 144.91 44.0075
23828 2 2.72174 143.304 42.7354
18058 1 4.54236 143.316 44.0182
23830 2 5.44935 144.898 42.7248
18056 1 7.26995 144.91 44.0075
23651 2 8.17798 143.304 42.7354
17847 1 9.9986 143.316 44.0182
23649 2 10.9056 144.898 42.7248
17551 1 15.4548 143.316 44.0182
17849 1 12.7262 144.91 44.0075
23426 2 13.6342 143.304 42.7354
17549 1 18.1824 144.91 44.0075
23428 2 16.3618 144.898 42.7248
23923 2 21.8181 144.898 42.7248
17290 1 20.9111 143.316 44.0182
23122 2 19.0905 143.304 42.7354
18210 1 1.8125 148.099 43.9836
23817 2 2.72067 146.491 42.7132
18057 1 4.54125 146.505 43.996
23815 2 5.44819 148.085 42.7009
18059 1 7.26874 148.099 43.9836
23650 2 8.17691 146.491 42.7132
17820 1 9.99749 146.505 43.996
23652 2 10.9044 148.085 42.7009
17550 1 15.4537 146.505 43.996
17818 1 12.725 148.099 43.9836
23391 2 13.6332 146.491 42.7132
17552 1 18.1812 148.099 43.9836
23389 2 16.3607 148.085 42.7009
23924 2 21.8169 148.085 42.7009
17245 1 20.91 146.505 43.996
23121 2 19.0894 146.491 42.7132
23816 2 2.71941 149.678 42.6878
18043 1 4.53993 149.694 43.9705
23628 2 8.17565 149.678 42.6878
17819 1 9.99617 149.694 43.9705
17512 1 15.4524 149.694 43.9705
23390 2 13.6319 149.678 42.6878
17244 1 20.9086 149.694 43.9705
23076 2 19.0881 149.678 42.6878
21999 2 0.90604 101.848 45.2691
16217 1 2.72703 101.839 46.5512
23914 2 3.63475 103.444 45.2811
18184 1 5.45575 103.435 46.5632
23788 2 9.09099 103.444 45.2811
21793 2 6.36228 101.848 45.2691
15967 1 8.18327 101.839 46.5512
21527 2 11.8185 101.848 45.2691
18012 1 10.912 103.435 46.5632
23584 2 14.5472 103.444 45.2811
15633 1 13.6395 101.839 46.5512
21185 2 17.2748 101.848 45.2691
17739 1 16.3682 103.435 46.5632
23285 2 20.0035 103.444 45.2811
18283 1 21.8245 103.435 46.5632
15337 1 19.0958 101.839 46.5512
23904 2 0.907184 105.039 45.2922
18185 1 2.72819 105.031 46.5743
18271 1 0.000577507 106.627 46.5846
23902 2 3.63581 106.634 45.3024
18186 1 5.45682 106.627 46.5846
23789 2 6.36342 105.039 45.2922
23790 2 9.09205 106.634 45.3024
17998 1 8.18443 105.031 46.5743
23574 2 11.8197 105.039 45.2922
17996 1 10.9131 106.627 46.5846
23572 2 14.5483 106.634 45.3024
17740 1 13.6407 105.031 46.5743
23286 2 17.2759 105.039 45.2922
17741 1 16.3693 106.627 46.5846
23287 2 20.0045 106.634 45.3024
17409 1 19.0969 105.031 46.5743
23903 2 0.908149 108.23 45.3119
18169 1 2.72916 108.224 46.5941
23777 2 6.36439 108.23 45.3119
17997 1 8.1854 108.224 46.5941
23573 2 11.8206 108.23 45.3119
17726 1 13.6416 108.224 46.5941
23278 2 17.2769 108.23 45.3119
17408 1 19.0979 108.224 46.5941
23889 2 0.908942 111.42 45.3282
18168 1 2.72996 111.416 46.6104
18272 1 0.0014653 109.82 46.6027
18167 1 5.4577 109.82 46.6027
23905 2 3.63669 109.825 45.3204
23775 2 9.09292 109.825 45.3204
23776 2 6.36518 111.42 45.3282
17978 1 8.1862 111.416 46.6104
17999 1 10.9139 109.82 46.6027
23558 2 11.8214 111.42 45.3282
23575 2 14.5492 109.825 45.3204
17725 1 13.6424 111.416 46.6104
17724 1 16.3702 109.82 46.6027
23277 2 17.2777 111.42 45.3282
23276 2 20.0054 109.825 45.3204
17401 1 19.0987 111.416 46.6104
23888 2 0.909566 114.611 45.341
18146 1 2.7306 114.608 46.6233
18259 1 0.00218195 113.012 46.6173
23887 2 3.63739 113.016 45.335
18170 1 5.45842 113.012 46.6173
23778 2 9.09363 113.016 45.335
23757 2 6.3658 114.611 45.341
17977 1 8.18683 114.608 46.6233
23557 2 11.822 114.611 45.341
17976 1 10.9147 113.012 46.6173
23556 2 14.5499 113.016 45.335
17704 1 13.6431 114.608 46.6233
23262 2 17.2783 114.611 45.341
17727 1 16.3709 113.012 46.6173
23279 2 20.0061 113.016 45.335
17400 1 19.0993 114.608 46.6233
23873 2 0.910025 117.802 45.3504
18145 1 2.73106 117.801 46.6327
18260 1 0.00273041 116.204 46.6285
23890 2 3.63794 116.206 45.3462
18144 1 5.45897 116.204 46.6285
23755 2 9.09417 116.206 45.3462
23756 2 6.36626 117.802 45.3504
17950 1 8.1873 117.801 46.6327
23534 2 11.8225 117.802 45.3504
17979 1 10.9152 116.204 46.6285
23559 2 14.5504 116.206 45.3462
17703 1 13.6435 117.801 46.6327
23261 2 17.2787 117.802 45.3504
17702 1 16.3714 116.204 46.6285
23260 2 20.0067 116.206 45.3462
17385 1 19.0998 117.801 46.6327
23872 2 0.910322 120.992 45.3562
18122 1 2.73136 120.993 46.6386
18247 1 0.00311256 119.397 46.6361
23871 2 3.63831 119.397 45.3538
18147 1 5.45935 119.397 46.6361
23730 2 6.36656 120.992 45.3562
23758 2 9.09455 119.397 45.3538
17949 1 8.1876 120.993 46.6386
23533 2 11.8228 120.992 45.3562
17948 1 10.9156 119.397 46.6361
23532 2 14.5508 119.397 45.3538
17674 1 13.6438 120.993 46.6386
23238 2 17.279 120.992 45.3562
17705 1 16.3718 119.397 46.6361
23263 2 20.007 119.397 45.3538
17384 1 19.1001 120.993 46.6386
23857 2 0.910456 124.183 45.3585
18121 1 2.73149 124.185 46.6408
18248 1 0.00332928 122.589 46.6401
23874 2 3.63853 122.588 45.3578
18120 1 5.45957 122.589 46.6401
23728 2 9.09477 122.588 45.3578
23729 2 6.36669 124.183 45.3585
17915 1 8.18773 124.185 46.6408
23502 2 11.8229 124.183 45.3585
17951 1 10.9158 122.589 46.6401
23535 2 14.551 122.588 45.3578
17673 1 13.644 124.185 46.6408
23237 2 17.2792 124.183 45.3585
17672 1 16.372 122.589 46.6401
23236 2 20.0072 122.588 45.3578
17361 1 19.1002 124.185 46.6408
23856 2 0.910428 127.374 45.3572
18098 1 2.73146 127.378 46.6395
18235 1 0.00338041 125.782 46.6406
23855 2 3.63858 125.779 45.3583
18123 1 5.45962 125.782 46.6406
23702 2 6.36667 127.374 45.3572
23731 2 9.09482 125.779 45.3583
17914 1 8.1877 127.378 46.6395
23501 2 11.8229 127.374 45.3572
17913 1 10.9159 125.782 46.6406
23500 2 14.5511 125.779 45.3583
17636 1 13.6439 127.378 46.6395
23206 2 17.2791 127.374 45.3572
17675 1 16.3721 125.782 46.6406
23239 2 20.0073 125.779 45.3583
17360 1 19.1002 127.378 46.6395
18236 1 0.00326472 128.974 46.6375
23858 2 3.63847 128.969 45.3552
18096 1 5.4595 128.974 46.6375
23700 2 9.09471 128.969 45.3552
17916 1 10.9157 128.974 46.6375
23503 2 14.5509 128.969 45.3552
17634 1 16.372 128.974 46.6375
23204 2 20.0072 128.969 45.3552
23841 2 0.910236 130.565 45.3523
18097 1 2.73126 130.57 46.6346
18223 1 0.00297993 132.166 46.6309
23839 2 3.6382 132.16 45.3485
18099 1 5.45922 132.166 46.6309
23701 2 6.36647 130.565 45.3523
23703 2 9.09443 132.16 45.3485
17879 1 8.1875 130.57 46.6346
23463 2 11.8227 130.565 45.3523
17877 1 10.9155 132.166 46.6309
23461 2 14.5507 132.16 45.3485
17635 1 13.6437 130.57 46.6346
23205 2 17.279 130.565 45.3523
17637 1 16.3717 132.166 46.6309
23207 2 20.0069 132.16 45.3485
17329 1 19.1 130.57 46.6346
23840 2 0.909876 133.756 45.3439
18074 1 2.73089 133.762 46.6262
18224 1 0.00252275 135.359 46.6206
23842 2 3.63775 135.351 45.3383
18072 1 5.45876 135.359 46.6206
23672 2 9.09399 135.351 45.3383
23674 2 6.36611 133.756 45.3439
17878 1 8.18713 133.762 46.6262
23462 2 11.8224 133.756 45.3439
17880 1 10.915 135.359 46.6206
23464 2 14.5502 135.351 45.3383
17591 1 13.6434 133.762 46.6262
23166 2 17.2786 133.756 45.3439
17589 1 16.3712 135.359 46.6206
23164 2 20.0065 135.351 45.3383
17328 1 19.0996 133.762 46.6262
23825 2 0.909345 136.946 45.3319
18073 1 2.73035 136.955 46.6142
18212 1 0.00188902 138.551 46.6069
23823 2 3.63713 138.542 45.3246
18075 1 5.45813 138.551 46.6069
23673 2 6.36558 136.946 45.3319
23675 2 9.09337 138.542 45.3246
17844 1 8.18659 136.955 46.6142
23423 2 11.8218 136.946 45.3319
17842 1 10.9144 138.551 46.6069
23421 2 14.5496 138.542 45.3246
17590 1 13.6428 136.955 46.6142
23165 2 17.2781 136.946 45.3319
17592 1 16.3706 138.551 46.6069
23167 2 20.0058 138.542 45.3246
17289 1 19.0991 136.955 46.6142
23824 2 0.908637 140.137 45.3164
18054 1 2.72962 140.147 46.5987
18213 1 0.00107385 141.743 46.5896
23826 2 3.63633 141.732 45.3073
18052 1 5.45731 141.743 46.5896
23645 2 9.09257 141.732 45.3073
23647 2 6.36488 140.137 45.3164
17843 1 8.18586 140.147 46.5987
23422 2 11.8211 140.137 45.3164
17845 1 10.9136 141.743 46.5896
23424 2 14.5488 141.732 45.3073
17547 1 13.6421 140.147 46.5987
23119 2 17.2774 140.137 45.3164
17545 1 16.3698 141.743 46.5896
23117 2 20.005 141.732 45.3073
17288 1 19.0983 140.147 46.5987
23813 2 0.907745 143.328 45.2974
18053 1 2.72872 143.339 46.5796
18208 1 7.17012e-05 144.935 46.5688
23811 2 3.63535 144.923 45.2867
18055 1 5.45631 144.935 46.5688
23646 2 6.36398 143.328 45.2974
23648 2 9.09159 144.923 45.2867
17816 1 8.18495 143.339 46.5796
23387 2 11.8202 143.328 45.2974
17814 1 10.9125 144.935 46.5688
23385 2 14.5478 144.923 45.2867
17546 1 13.6412 143.339 46.5796
23118 2 17.2765 143.328 45.2974
17548 1 16.3688 144.935 46.5688
23120 2 20.0041 144.923 45.2867
17243 1 19.0974 143.339 46.5796
23812 2 0.906664 146.518 45.275
18042 1 2.72762 146.532 46.5571
18209 1 -0.0011233 148.128 46.5446
23814 2 3.63417 148.113 45.2626
18040 1 5.45512 148.128 46.5446
23625 2 9.09041 148.113 45.2626
23627 2 6.3629 146.518 45.275
17815 1 8.18386 146.532 46.5571
23386 2 11.8191 146.518 45.275
17817 1 10.9114 148.128 46.5446
23388 2 14.5466 148.113 45.2626
17511 1 13.6401 146.532 46.5571
23075 2 17.2754 146.518 45.275
17509 1 16.3676 148.128 46.5446
23073 2 20.0029 148.113 45.2626
17242 1 19.0963 146.532 46.5571
23806 2 0.905387 149.709 45.2493
18041 1 2.72632 149.724 46.5313
23626 2 6.36163 149.709 45.2493
17793 1 8.18256 149.724 46.5313
23356 2 11.8179 149.709 45.2493
17510 1 13.6388 149.724 46.5313
23074 2 17.2741 149.709 45.2493
17199 1 19.095 149.724 46.5313
23900 2 1.82155 103.426 47.8417
16215 1 0.914218 101.82 49.1111
21791 2 4.5491 101.829 47.8297
18183 1 3.6429 103.418 49.1233
23787 2 7.27779 103.426 47.8417
17993 1 9.09914 103.418 49.1233
15945 1 6.37046 101.82 49.1111
21497 2 10.0053 101.829 47.8297
15631 1 11.8267 101.82 49.1111
23569 2 12.734 103.426 47.8417
21183 2 15.4616 101.829 47.8297
17738 1 14.5554 103.418 49.1233
23284 2 18.1903 103.426 47.8417
15294 1 17.2829 101.82 49.1111
20855 2 20.9178 101.829 47.8297
17405 1 20.0116 103.418 49.1233
23901 2 1.82257 106.62 47.8633
18165 1 0.915302 105.016 49.1346
23773 2 4.5502 105.023 47.853
18163 1 3.64391 106.614 49.145
23771 2 7.27881 106.62 47.8633
17994 1 6.37154 105.016 49.1346
17995 1 9.10014 106.614 49.145
23570 2 10.0064 105.023 47.853
17722 1 11.8278 105.016 49.1346
23274 2 15.4627 105.023 47.853
23571 2 12.735 106.62 47.8633
17720 1 14.5564 106.614 49.145
23272 2 18.1913 106.62 47.8633
17406 1 17.284 105.016 49.1346
22932 2 20.9189 105.023 47.853
17407 1 20.0126 106.614 49.145
18164 1 0.916231 108.211 49.1546
23772 2 4.55114 108.217 47.8729
17974 1 6.37247 108.211 49.1546
23554 2 10.0074 108.217 47.8729
17721 1 11.8287 108.211 49.1546
23273 2 15.4636 108.217 47.8729
17398 1 17.2849 108.211 49.1546
22931 2 20.9199 108.217 47.8729
23885 2 1.82343 109.814 47.8815
18142 1 0.917005 111.407 49.1711
18166 1 3.64476 109.809 49.1632
23753 2 4.55191 111.411 47.8893
23774 2 7.27966 109.814 47.8815
17972 1 9.101 109.809 49.1632
17973 1 6.37324 111.407 49.1711
23553 2 10.0082 111.411 47.8893
17700 1 11.8295 111.407 49.1711
23552 2 12.7359 109.814 47.8815
17723 1 14.5572 109.809 49.1632
23258 2 15.4644 111.411 47.8893
23275 2 18.1921 109.814 47.8815
17397 1 17.2857 111.407 49.1711
17396 1 20.0135 109.809 49.1632
22930 2 20.9206 111.411 47.8893
23886 2 1.82412 113.008 47.8962
18141 1 0.917621 114.602 49.184
23752 2 4.55253 114.605 47.9022
18140 1 3.64545 113.005 49.178
23751 2 7.28036 113.008 47.8962
17975 1 9.10169 113.005 49.178
17946 1 6.37386 114.602 49.184
23530 2 10.0088 114.605 47.9022
17699 1 11.8301 114.602 49.184
23555 2 12.7366 113.008 47.8962
23257 2 15.465 114.605 47.9022
17698 1 14.5579 113.005 49.178
23256 2 18.1928 113.008 47.8962
17382 1 17.2863 114.602 49.184
22923 2 20.9212 114.605 47.9022
17399 1 20.0142 113.005 49.178
23869 2 1.82466 116.202 47.9074
18118 1 0.918076 117.798 49.1935
23726 2 4.55299 117.799 47.9116
18143 1 3.64599 116.2 49.1892
23754 2 7.2809 116.202 47.9074
17944 1 9.10223 116.2 49.1892
17945 1 6.37431 117.798 49.1935
23529 2 10.0092 117.799 47.9116
17670 1 11.8306 117.798 49.1935
23234 2 15.4655 117.799 47.9116
23528 2 12.7371 116.202 47.9074
17701 1 14.5585 116.2 49.1892
23259 2 18.1934 116.202 47.9074
17381 1 17.2868 117.798 49.1935
22922 2 20.9217 117.799 47.9116
17380 1 20.0147 116.2 49.1892
23870 2 1.82504 119.396 47.915
18117 1 0.91837 120.994 49.1993
23725 2 4.55328 120.993 47.9175
18116 1 3.64636 119.396 49.1968
23724 2 7.28127 119.396 47.915
17911 1 6.37461 120.994 49.1993
17947 1 9.1026 119.396 49.1968
23498 2 10.0095 120.993 47.9175
17669 1 11.8308 120.994 49.1993
23233 2 15.4658 120.993 47.9175
23531 2 12.7375 119.396 47.915
17668 1 14.5588 119.396 49.1968
23232 2 18.1938 119.396 47.915
17358 1 17.2871 120.994 49.1993
22907 2 20.922 120.993 47.9175
17383 1 20.0151 119.396 49.1968
23853 2 1.82525 122.59 47.9191
18094 1 0.9185 124.189 49.2016
23698 2 4.55341 124.187 47.9197
18119 1 3.64657 122.591 49.2009
23727 2 7.28149 122.59 47.9191
17909 1 9.10281 122.591 49.2009
17910 1 6.37474 124.189 49.2016
23497 2 10.0097 124.187 47.9197
17632 1 11.831 124.189 49.2016
23202 2 15.4659 124.187 47.9197
23496 2 12.7377 122.59 47.9191
17671 1 14.5591 122.591 49.2009
23235 2 18.194 122.59 47.9191
17357 1 17.2872 124.189 49.2016
22906 2 20.9221 124.187 47.9197
17356 1 20.0153 122.591 49.2009
23854 2 1.8253 125.784 47.9195
18093 1 0.918464 127.385 49.2003
23697 2 4.55338 127.381 47.9184
18092 1 3.64662 125.787 49.2014
23696 2 7.28154 125.784 47.9195
17875 1 6.3747 127.385 49.2003
17912 1 9.10286 125.787 49.2014
23459 2 10.0096 127.381 47.9184
17631 1 11.8309 127.385 49.2003
23201 2 15.4659 127.381 47.9184
23499 2 12.7378 125.784 47.9195
17630 1 14.5591 125.787 49.2014
23200 2 18.194 125.784 47.9195
17326 1 17.2872 127.385 49.2003
22883 2 20.9221 127.381 47.9184
17359 1 20.0153 125.787 49.2014
23837 2 1.82518 128.978 47.9164
18095 1 3.6465 128.983 49.1983
23699 2 7.28142 128.978 47.9164
17873 1 9.10274 128.983 49.1983
23457 2 12.7377 128.978 47.9164
17633 1 14.559 128.983 49.1983
23203 2 18.1939 128.978 47.9164
17324 1 20.0152 128.983 49.1983
18070 1 0.918262 130.58 49.1954
23838 2 1.8249 132.172 47.9098
23670 2 4.55318 130.575 47.9135
18068 1 3.64622 132.178 49.1916
17874 1 6.3745 130.58 49.1954
23668 2 7.28114 132.172 47.9098
17876 1 9.10246 132.178 49.1916
23458 2 10.0094 130.575 47.9135
17587 1 11.8307 130.58 49.1954
23162 2 15.4657 130.575 47.9135
23460 2 12.7374 132.172 47.9098
17585 1 14.5587 132.178 49.1916
17325 1 17.287 130.58 49.1954
23160 2 18.1936 132.172 47.9098
22882 2 20.9219 130.575 47.9135
17327 1 20.0149 132.178 49.1916
23821 2 1.82445 135.366 47.8995
18069 1 0.917891 133.776 49.1869
23669 2 4.55281 133.769 47.9051
18071 1 3.64576 135.374 49.1813
23671 2 7.28069 135.366 47.8995
17838 1 9.102 135.374 49.1813
17840 1 6.37413 133.776 49.1869
23419 2 10.0091 133.769 47.9051
17586 1 11.8304 133.776 49.1869
23161 2 15.4653 133.769 47.9051
23417 2 12.7369 135.366 47.8995
17588 1 14.5582 135.374 49.1813
23163 2 18.1932 135.366 47.8995
17286 1 17.2866 133.776 49.1869
22851 2 20.9215 133.769 47.9051
17284 1 20.0145 135.374 49.1813
23822 2 1.82383 138.56 47.8856
18050 1 0.917352 136.972 49.1748
23643 2 4.55228 136.963 47.893
18048 1 3.64514 138.569 49.1674
23641 2 7.28007 138.56 47.8856
17839 1 6.37359 136.972 49.1748
17841 1 9.10138 138.569 49.1674
23418 2 10.0085 136.963 47.893
17543 1 11.8298 136.972 49.1748
23115 2 15.4648 136.963 47.893
23420 2 12.7363 138.56 47.8856
17541 1 14.5576 138.569 49.1674
23113 2 18.1925 138.56 47.8856
17285 1 17.2861 136.972 49.1748
22850 2 20.921 136.963 47.893
17287 1 20.0139 138.569 49.1674
23809 2 1.82304 141.754 47.8683
18049 1 0.916643 140.167 49.1591
23642 2 4.55157 140.157 47.8774
18051 1 3.64435 141.765 49.1499
23644 2 7.27928 141.754 47.8683
17810 1 9.10058 141.765 49.1499
17812 1 6.37288 140.167 49.1591
23383 2 10.0078 140.157 47.8774
17542 1 11.8291 140.167 49.1591
23114 2 15.4641 140.157 47.8774
23381 2 12.7355 141.754 47.8683
17544 1 14.5568 141.765 49.1499
23116 2 18.1918 141.754 47.8683
17240 1 17.2854 140.167 49.1591
22811 2 20.9203 140.157 47.8774
17238 1 20.0131 141.765 49.1499
23810 2 1.82207 144.948 47.8473
18038 1 0.915767 143.363 49.1399
23623 2 4.55069 143.351 47.8582
18036 1 3.64338 144.961 49.1289
23621 2 7.27831 144.948 47.8473
17811 1 6.372 143.363 49.1399
17813 1 9.09962 144.961 49.1289
23382 2 10.0069 143.351 47.8582
17507 1 11.8282 143.363 49.1399
23071 2 15.4632 143.351 47.8582
23384 2 12.7345 144.948 47.8473
17505 1 14.5559 144.961 49.1289
23069 2 18.1908 144.948 47.8473
17239 1 17.2845 143.363 49.1399
22810 2 20.9194 143.351 47.8582
17241 1 20.0121 144.961 49.1289
23805 2 1.82093 148.142 47.8229
18037 1 0.914722 146.559 49.1171
23622 2 4.54964 146.545 47.8356
18039 1 3.64226 148.157 49.1043
23624 2 7.27717 148.142 47.8229
17790 1 9.0985 148.157 49.1043
17792 1 6.37096 146.559 49.1171
23355 2 10.0059 146.545 47.8356
17506 1 11.8272 146.559 49.1171
23070 2 15.4621 146.545 47.8356
23353 2 12.7334 148.142 47.8229
17508 1 14.5547 148.157 49.1043
23072 2 18.1896 148.142 47.8229
17198 1 17.2834 146.559 49.1171
22767 2 20.9184 146.545 47.8356
17196 1 20.011 148.157 49.1043
18031 1 0.913512 149.755 49.0907
23608 2 4.54842 149.74 47.8095
17791 1 6.36975 149.755 49.0907
23354 2 10.0047 149.74 47.8095
17476 1 11.826 149.755 49.0907
23032 2 15.4609 149.74 47.8095
17197 1 17.2822 149.755 49.0907
22766 2 20.9171 149.74 47.8095
21777 2 2.73663 101.81 50.389
23899 2 0.00903879 103.409 50.4013
18161 1 1.83072 103.4 51.6823
21775 2 0.924833 101.791 52.9472
23768 2 5.46528 103.409 50.4013
23767 2 3.65342 103.391 52.9597
15943 1 4.55834 101.801 51.6699
21495 2 8.19287 101.81 50.389
17992 1 7.28696 103.4 51.6823
23545 2 9.10966 103.391 52.9597
21473 2 6.38107 101.791 52.9472
23568 2 10.9215 103.409 50.4013
15601 1 10.0146 101.801 51.6699
21143 2 11.8373 101.791 52.9472
21145 2 13.6491 101.81 50.389
17717 1 12.7432 103.4 51.6823
23268 2 14.5659 103.391 52.9597
15292 1 15.4708 101.801 51.6699
23269 2 16.3778 103.409 50.4013
17404 1 18.1994 103.4 51.6823
20812 2 17.2935 101.791 52.9472
20853 2 19.1053 101.81 50.389
22925 2 20.0221 103.391 52.9597
14995 1 20.9271 101.801 51.6699
23769 2 2.73765 105.008 50.4127
23883 2 0.00999214 106.606 50.4232
18162 1 1.83165 106.599 51.7043
23745 2 0.925752 104.992 52.9713
23770 2 5.46623 106.606 50.4232
17970 1 4.55932 105 51.6937
23743 2 3.65429 106.592 52.9819
23550 2 8.19389 105.008 50.4127
17968 1 7.28789 106.599 51.7043
23546 2 6.38199 104.992 52.9713
23547 2 9.11053 106.592 52.9819
23548 2 10.9225 106.606 50.4232
17718 1 10.0156 105 51.6937
23250 2 11.8382 104.992 52.9713
23270 2 13.6501 105.008 50.4127
17394 1 15.4718 105 51.6937
17719 1 12.7441 106.599 51.7043
23248 2 14.5668 106.592 52.9819
23271 2 16.3787 106.606 50.4232
17392 1 18.2004 106.599 51.7043
22926 2 17.2945 104.992 52.9713
22929 2 19.1064 105.008 50.4127
17067 1 20.928 105 51.6937
22927 2 20.023 106.592 52.9819
23749 2 2.73854 108.205 50.4328
23744 2 0.926567 108.193 52.9917
17969 1 4.56018 108.199 51.714
23549 2 8.19477 108.205 50.4328
23522 2 6.38281 108.193 52.9917
17696 1 10.0164 108.199 51.714
23249 2 11.839 108.193 52.9917
23254 2 13.651 108.205 50.4328
17393 1 15.4727 108.199 51.714
22918 2 17.2953 108.193 52.9917
22928 2 19.1073 108.205 50.4328
17066 1 20.9289 108.199 51.714
18138 1 1.83244 109.798 51.7228
23884 2 0.0108069 109.804 50.4415
23748 2 2.73928 111.402 50.4494
23718 2 0.927264 111.393 53.0084
23746 2 3.65505 109.793 53.0005
23747 2 5.46705 109.804 50.4415
17942 1 4.56091 111.398 51.7306
17971 1 7.28868 109.798 51.7228
23520 2 9.11129 109.793 53.0005
23526 2 8.19552 111.402 50.4494
23521 2 6.3835 111.393 53.0084
23551 2 10.9233 109.804 50.4415
17695 1 10.0171 111.398 51.7306
23226 2 11.8397 111.393 53.0084
17694 1 12.7449 109.798 51.7228
23251 2 14.5675 109.793 53.0005
23253 2 13.6518 111.402 50.4494
17378 1 15.4734 111.398 51.7306
17395 1 18.2012 109.798 51.7228
23252 2 16.3795 109.804 50.4415
22917 2 17.296 111.393 53.0084
22916 2 20.0238 109.793 53.0005
22921 2 19.108 111.402 50.4494
17065 1 20.9296 111.398 51.7306
23867 2 0.011477 113.001 50.4563
23722 2 2.73988 114.6 50.4624
18139 1 1.8331 112.997 51.7376
23717 2 0.92783 114.594 53.0216
23750 2 5.46772 113.001 50.4563
23716 2 3.65568 112.993 53.0155
17941 1 4.5615 114.597 51.7437
23525 2 8.19611 114.6 50.4624
17940 1 7.28934 112.997 51.7376
23523 2 9.11192 112.993 53.0155
23490 2 6.38407 114.594 53.0216
23524 2 10.924 113.001 50.4563
17666 1 10.0177 114.597 51.7437
23225 2 11.8403 114.594 53.0216
23230 2 13.6524 114.6 50.4624
17697 1 12.7456 112.997 51.7376
23224 2 14.5682 112.993 53.0155
17377 1 15.474 114.597 51.7437
23255 2 16.3802 113.001 50.4563
17376 1 18.2018 112.997 51.7376
22902 2 17.2965 114.594 53.0216
22920 2 19.1086 114.6 50.4624
22919 2 20.0244 112.993 53.0155
17058 1 20.9302 114.597 51.7437
23721 2 2.74032 117.797 50.4719
23868 2 0.011997 116.198 50.4676
18114 1 1.83362 116.196 51.7489
23690 2 0.928255 117.794 53.0311
23720 2 5.46824 116.198 50.4676
17907 1 4.56194 117.796 51.7532
23719 2 3.65618 116.194 53.0268
23494 2 8.19656 117.797 50.4719
17943 1 7.28986 116.196 51.7489
23488 2 9.11242 116.194 53.0268
23489 2 6.38449 117.794 53.0311
23527 2 10.9245 116.198 50.4676
17665 1 10.0182 117.796 51.7532
23194 2 11.8407 117.794 53.0311
23229 2 13.6528 117.797 50.4719
17354 1 15.4744 117.796 51.7532
17664 1 12.7461 116.196 51.7489
23227 2 14.5687 116.194 53.0268
23228 2 16.3807 116.198 50.4676
17379 1 18.2023 116.196 51.7489
22901 2 17.297 117.794 53.0311
22905 2 19.109 117.797 50.4719
17057 1 20.9307 117.796 51.7532
22900 2 20.0249 116.194 53.0268
23694 2 2.7406 120.994 50.4777
23851 2 0.0123623 119.395 50.4753
18115 1 1.83398 119.395 51.7566
23689 2 0.928532 120.995 53.0371
23723 2 5.4686 119.395 50.4753
17906 1 4.56222 120.994 51.7591
23688 2 3.65653 119.394 53.0345
23493 2 8.19684 120.994 50.4777
17905 1 7.29022 119.395 51.7566
23451 2 6.38477 120.995 53.0371
23491 2 9.11277 119.394 53.0345
23492 2 10.9248 119.395 50.4753
17628 1 10.0185 120.994 51.7591
23193 2 11.841 120.995 53.0371
23198 2 13.6531 120.994 50.4777
17353 1 15.4747 120.994 51.7591
17667 1 12.7465 119.395 51.7566
23192 2 14.569 119.394 53.0345
23231 2 16.3811 119.395 50.4753
17352 1 18.2027 119.395 51.7566
22878 2 17.2972 120.995 53.0371
22904 2 19.1093 120.994 50.4777
17042 1 20.9309 120.994 51.7591
22903 2 20.0252 119.394 53.0345
23693 2 2.74073 124.191 50.48
23852 2 0.0125691 122.593 50.4793
18090 1 1.83418 122.594 51.7607
23662 2 0.928653 124.195 53.0393
23692 2 5.46881 122.593 50.4793
17871 1 4.56235 124.193 51.7614
23691 2 3.65673 122.595 53.0386
23455 2 8.19697 124.191 50.48
17908 1 7.29042 122.594 51.7607
23449 2 9.11297 122.595 53.0386
23450 2 6.38489 124.195 53.0393
23495 2 10.925 122.593 50.4793
17627 1 10.0186 124.193 51.7614
23154 2 11.8411 124.195 53.0393
23197 2 13.6532 124.191 50.48
17322 1 15.4748 124.193 51.7614
17626 1 12.7467 122.594 51.7607
23195 2 14.5692 122.595 53.0386
23196 2 16.3813 122.593 50.4793
17355 1 18.2029 122.594 51.7607
22877 2 17.2974 124.195 53.0393
22881 2 19.1094 124.191 50.48
17041 1 20.9311 124.193 51.7614
22876 2 20.0254 122.595 53.0386
23666 2 2.7407 127.388 50.4787
23835 2 0.0126148 125.79 50.4798
18091 1 1.83423 125.793 51.7612
23661 2 0.928617 127.396 53.038
23695 2 5.46885 125.79 50.4798
17870 1 4.56231 127.392 51.7601
23660 2 3.65677 125.795 53.0391
23454 2 8.19693 127.388 50.4787
17869 1 7.29047 125.793 51.7612
23411 2 6.38486 127.396 53.038
23452 2 9.11301 125.795 53.0391
23453 2 10.9251 125.79 50.4798
17583 1 10.0185 127.392 51.7601
23153 2 11.8411 127.396 53.038
23158 2 13.6532 127.388 50.4787
17321 1 15.4748 127.392 51.7601
17629 1 12.7467 125.793 51.7612
23152 2 14.5693 125.795 53.0391
23199 2 16.3813 125.79 50.4798
17320 1 18.2029 125.793 51.7612
22846 2 17.2973 127.396 53.038
22880 2 19.1094 127.388 50.4787
17018 1 20.931 127.392 51.7601
22879 2 20.0255 125.795 53.0391
23836 2 0.0124976 128.987 50.4767
18066 1 1.83411 128.992 51.7581
23664 2 5.46874 128.987 50.4767
23663 2 3.65666 128.996 53.036
17872 1 7.29035 128.992 51.7581
23409 2 9.1129 128.996 53.036
23456 2 10.925 128.987 50.4767
17581 1 12.7466 128.992 51.7581
23155 2 14.5691 128.996 53.036
23156 2 16.3812 128.987 50.4767
17323 1 18.2028 128.992 51.7581
22844 2 20.0254 128.996 53.036
23665 2 2.7405 130.586 50.4738
23635 2 0.928422 130.596 53.033
23819 2 0.0122168 132.184 50.47
18067 1 1.83383 132.19 51.7513
17836 1 4.56211 130.591 51.7551
23667 2 5.46846 132.184 50.47
23633 2 3.65638 132.196 53.0292
23415 2 8.19674 130.586 50.4738
23410 2 6.38466 130.596 53.033
17834 1 7.29007 132.19 51.7513
23412 2 9.11262 132.196 53.0292
17582 1 10.0183 130.591 51.7551
23107 2 11.8409 130.596 53.033
23413 2 10.9247 132.184 50.47
23157 2 13.653 130.586 50.4738
17282 1 15.4746 130.591 51.7551
17584 1 12.7463 132.19 51.7513
23105 2 14.5689 132.196 53.0292
22845 2 17.2971 130.596 53.033
23159 2 16.3809 132.184 50.47
17280 1 18.2025 132.19 51.7513
22849 2 19.1092 130.586 50.4738
17017 1 20.9308 130.591 51.7551
22847 2 20.0251 132.196 53.0292
23639 2 2.74013 133.783 50.4652
23820 2 0.0117731 135.382 50.4596
18046 1 1.83339 135.389 51.7409
23634 2 0.928069 133.797 53.0244
23637 2 5.46801 135.382 50.4596
17835 1 4.56175 133.79 51.7466
23636 2 3.65595 135.397 53.0187
23414 2 8.19637 133.783 50.4652
17837 1 7.28962 135.389 51.7409
23373 2 9.11219 135.397 53.0187
23375 2 6.38431 133.797 53.0244
23416 2 10.9242 135.382 50.4596
17539 1 10.018 133.79 51.7466
23106 2 11.8405 133.797 53.0244
23111 2 13.6526 133.783 50.4652
17281 1 15.4742 133.79 51.7466
17537 1 12.7459 135.389 51.7409
23108 2 14.5684 135.397 53.0187
23109 2 16.3805 135.382 50.4596
17283 1 18.2021 135.389 51.7409
22806 2 17.2968 133.797 53.0244
22848 2 19.1088 133.783 50.4652
16986 1 20.9305 133.79 51.7466
22804 2 20.0247 135.397 53.0187
23638 2 2.73961 136.98 50.4531
23807 2 0.0111683 138.579 50.4456
18047 1 1.83279 138.588 51.7269
23615 2 0.927564 136.997 53.0121
23640 2 5.46741 138.579 50.4456
17808 1 4.56123 136.989 51.7344
23613 2 3.65538 138.598 53.0046
23379 2 8.19585 136.98 50.4531
17806 1 7.28902 138.588 51.7269
23374 2 6.3838 136.997 53.0121
23376 2 9.11161 138.598 53.0046
23377 2 10.9236 138.579 50.4456
17538 1 10.0175 136.989 51.7344
23063 2 11.84 136.997 53.0121
23110 2 13.6521 136.98 50.4531
17236 1 15.4737 136.989 51.7344
17540 1 12.7453 138.588 51.7269
23061 2 14.5679 138.598 53.0046
23112 2 16.3799 138.579 50.4456
17234 1 18.2015 138.588 51.7269
22805 2 17.2963 136.997 53.0121
22809 2 19.1083 136.98 50.4531
16985 1 20.9299 136.989 51.7344
22807 2 20.0241 138.598 53.0046
23619 2 2.73893 140.177 50.4373
23808 2 0.010406 141.776 50.4281
18034 1 1.83203 141.787 51.7092
23614 2 0.926913 140.198 52.9962
23617 2 5.46664 141.776 50.4281
17807 1 4.56055 140.188 51.7185
23616 2 3.65466 141.798 52.9868
23378 2 8.19516 140.177 50.4373
17809 1 7.28827 141.787 51.7092
23345 2 9.11089 141.798 52.9868
23347 2 6.38315 140.198 52.9962
23380 2 10.9229 141.776 50.4281
17503 1 10.0168 140.188 51.7185
23062 2 11.8394 140.198 52.9962
23067 2 13.6514 140.177 50.4373
17235 1 15.473 140.188 51.7185
17501 1 12.7445 141.787 51.7092
23064 2 14.5671 141.798 52.9868
23065 2 16.3791 141.776 50.4281
17237 1 18.2008 141.787 51.7092
22762 2 17.2956 140.198 52.9962
22808 2 19.1076 140.177 50.4373
16950 1 20.9293 140.188 51.7185
22760 2 20.0234 141.798 52.9868
23618 2 2.73809 143.375 50.4179
23803 2 0.00949151 144.974 50.4069
18035 1 1.83114 144.986 51.6879
23603 2 0.926128 143.399 52.9765
23620 2 5.46573 144.974 50.4069
17788 1 4.55972 143.387 51.699
23601 2 3.65381 144.999 52.9652
23351 2 8.19433 143.375 50.4179
17786 1 7.28738 144.986 51.6879
23346 2 6.38237 143.399 52.9765
23348 2 9.11005 144.999 52.9652
23349 2 10.922 144.974 50.4069
17502 1 10.016 143.387 51.699
23027 2 11.8386 143.399 52.9765
23066 2 13.6506 143.375 50.4179
17194 1 15.4722 143.387 51.699
17504 1 12.7436 144.986 51.6879
23025 2 14.5663 144.999 52.9652
23068 2 16.3782 144.974 50.4069
17192 1 18.1999 144.986 51.6879
22761 2 17.2948 143.399 52.9765
22765 2 19.1068 143.375 50.4179
16949 1 20.9284 143.387 51.699
22763 2 20.0225 144.999 52.9652
23607 2 2.7371 146.572 50.3949
23804 2 0.00843154 148.171 50.382
18030 1 1.83011 148.186 51.6628
23602 2 0.925223 146.6 52.9531
23605 2 5.46467 148.171 50.382
17787 1 4.55876 146.586 51.6758
23604 2 3.65285 148.2 52.9399
23350 2 8.19334 146.572 50.3949
17789 1 7.28635 148.186 51.6628
23325 2 9.10909 148.2 52.9399
23327 2 6.38146 146.6 52.9531
23352 2 10.9209 148.171 50.382
17475 1 10.015 146.586 51.6758
23026 2 11.8377 146.6 52.9531
23031 2 13.6496 146.572 50.3949
17193 1 15.4712 146.586 51.6758
17473 1 12.7426 148.186 51.6628
23028 2 14.5653 148.2 52.9399
23029 2 16.3771 148.171 50.382
17195 1 18.1988 148.186 51.6628
22722 2 17.2939 146.6 52.9531
22764 2 19.1058 146.572 50.3949
16914 1 20.9275 146.586 51.6758
22720 2 20.0216 148.2 52.9399
23606 2 2.73597 149.77 50.3683
23596 2 0.924215 149.801 52.9259
17773 1 4.55767 149.786 51.6489
23328 2 8.19221 149.77 50.3683
23326 2 6.38045 149.801 52.9259
17474 1 10.0139 149.786 51.6489
22996 2 11.8367 149.801 52.9259
23030 2 13.6484 149.77 50.3683
17157 1 15.4701 149.786 51.6489
22721 2 17.2929 149.801 52.9259
22723 2 19.1047 149.77 50.3683
16913 1 20.9264 149.786 51.6489
18160 1 0.0191858 103.383 54.2401
15929 1 2.74686 101.781 54.2276
23741 2 1.84218 103.374 55.517
17965 1 5.47542 103.383 54.2401
21471 2 4.56989 101.772 55.5043
15599 1 8.2031 101.781 54.2276
23544 2 7.29842 103.374 55.517
17716 1 10.9317 103.383 54.2401
21113 2 10.0261 101.772 55.5043
15256 1 13.6593 101.781 54.2276
23245 2 12.7547 103.374 55.517
20810 2 15.4824 101.772 55.5043
17389 1 16.3879 103.383 54.2401
22924 2 18.2109 103.374 55.517
14993 1 19.1156 101.781 54.2276
20536 2 20.9386 101.772 55.5043
17966 1 2.74773 104.984 54.2518
18136 1 0.0200162 106.585 54.2625
23742 2 1.84296 106.578 55.5396
17967 1 5.47625 106.585 54.2625
23518 2 4.5707 104.976 55.5288
17692 1 8.20397 104.984 54.2518
23516 2 7.2992 106.578 55.5396
17690 1 10.9325 106.585 54.2625
23246 2 10.0269 104.976 55.5288
17390 1 13.6602 104.984 54.2518
22914 2 15.4832 104.976 55.5288
23247 2 12.7554 106.578 55.5396
17391 1 16.3887 106.585 54.2625
22912 2 18.2117 106.578 55.5396
17064 1 19.1164 104.984 54.2518
22602 2 20.9394 104.976 55.5288
17938 1 2.74851 108.186 54.2724
23517 2 4.57144 108.18 55.5495
17691 1 8.20475 108.186 54.2724
23222 2 10.0277 108.18 55.5495
17374 1 13.661 108.186 54.2724
22913 2 15.4839 108.18 55.5495
17063 1 19.1172 108.186 54.2724
22601 2 20.9402 108.18 55.5495
18137 1 0.0207485 109.788 54.2812
23714 2 1.84366 109.782 55.5585
17937 1 2.74919 111.389 54.2892
17936 1 5.47699 109.788 54.2812
23486 2 4.57209 111.384 55.5665
23519 2 7.2999 109.782 55.5585
17662 1 8.20543 111.389 54.2892
17693 1 10.9332 109.788 54.2812
23221 2 10.0283 111.384 55.5665
23220 2 12.7561 109.782 55.5585
17373 1 13.6617 111.389 54.2892
22898 2 15.4846 111.384 55.5665
17372 1 16.3895 109.788 54.2812
22915 2 18.2124 109.782 55.5585
17056 1 19.1179 111.389 54.2892
22600 2 20.9408 111.384 55.5665
18112 1 0.021366 112.99 54.2963
17903 1 2.74975 114.591 54.3024
23715 2 1.84425 112.986 55.5736
17939 1 5.4776 112.99 54.2963
23485 2 4.57263 114.588 55.5798
17661 1 8.20598 114.591 54.3024
23484 2 7.30049 112.986 55.5736
17660 1 10.9338 112.99 54.2963
23190 2 10.0289 114.588 55.5798
17350 1 13.6622 114.591 54.3024
23223 2 12.7567 112.986 55.5736
22897 2 15.4851 114.588 55.5798
17375 1 16.3901 112.99 54.2963
22896 2 18.213 112.986 55.5736
17055 1 19.1185 114.591 54.3024
22593 2 20.9413 114.588 55.5798
17902 1 2.75016 117.793 54.312
18113 1 0.0218541 116.192 54.3077
23686 2 1.84473 116.19 55.5851
17901 1 5.47809 116.192 54.3077
23447 2 4.57303 117.792 55.5894
17624 1 8.2064 117.793 54.312
23487 2 7.30096 116.19 55.5851
17663 1 10.9343 116.192 54.3077
23189 2 10.0293 117.792 55.5894
17349 1 13.6626 117.793 54.312
22874 2 15.4855 117.792 55.5894
23188 2 12.7572 116.19 55.5851
17348 1 16.3906 116.192 54.3077
22899 2 18.2134 116.19 55.5851
17040 1 19.1189 117.793 54.312
22592 2 20.9417 117.792 55.5894
17867 1 2.75044 120.995 54.3179
18088 1 0.0222009 119.394 54.3154
23687 2 1.84506 119.393 55.5928
17904 1 5.47844 119.394 54.3154
23446 2 4.5733 120.995 55.5954
17623 1 8.20668 120.995 54.3179
23445 2 7.3013 119.393 55.5928
17622 1 10.9347 119.394 54.3154
23150 2 10.0295 120.995 55.5954
17318 1 13.6629 120.995 54.3179
22873 2 15.4858 120.995 55.5954
23191 2 12.7575 119.393 55.5928
17351 1 16.3909 119.394 54.3154
22872 2 18.2138 119.393 55.5928
17039 1 19.1192 120.995 54.3179
22577 2 20.942 120.995 55.5954
17866 1 2.75056 124.197 54.3202
18089 1 0.022398 122.596 54.3195
23658 2 1.84526 122.597 55.597
17865 1 5.47864 122.596 54.3195
23407 2 4.57342 124.199 55.5977
17579 1 8.2068 124.197 54.3202
23448 2 7.3015 122.597 55.597
17625 1 10.9349 122.596 54.3195
23149 2 10.0297 124.199 55.5977
17317 1 13.663 124.197 54.3202
22842 2 15.4859 124.199 55.5977
23148 2 12.7577 122.597 55.597
17316 1 16.3911 122.596 54.3195
22875 2 18.214 122.597 55.597
17016 1 19.1193 124.197 54.3202
22576 2 20.9421 124.199 55.5977
17832 1 2.75052 127.399 54.3189
18064 1 0.0224401 125.798 54.32
23659 2 1.8453 125.801 55.5974
17868 1 5.47868 125.798 54.32
23406 2 4.57338 127.403 55.5963
17578 1 8.20676 127.399 54.3189
23405 2 7.30154 125.801 55.5974
17577 1 10.9349 125.798 54.32
23103 2 10.0296 127.403 55.5963
17278 1 13.663 127.399 54.3189
22841 2 15.4859 127.403 55.5963
23151 2 12.7578 125.801 55.5974
17319 1 16.3912 125.798 54.32
22840 2 18.214 125.801 55.5974
17015 1 19.1192 127.399 54.3189
22553 2 20.9421 127.403 55.5963
18065 1 0.0223245 129 54.3169
23631 2 1.84519 129.005 55.5943
17830 1 5.47856 129 54.3169
23408 2 7.30142 129.005 55.5943
17580 1 10.9348 129 54.3169
23101 2 12.7577 129.005 55.5943
17276 1 16.391 129 54.3169
22843 2 18.2139 129.005 55.5943
17831 1 2.75033 130.602 54.3139
18044 1 0.0220516 132.203 54.3101
23632 2 1.84492 132.209 55.5874
23371 2 4.57319 130.607 55.5913
17833 1 5.47829 132.203 54.3101
17535 1 8.20657 130.602 54.3139
23369 2 7.30116 132.209 55.5874
23102 2 10.0294 130.607 55.5913
17533 1 10.9345 132.203 54.3101
17277 1 13.6628 130.602 54.3139
22802 2 15.4857 130.607 55.5913
23104 2 12.7574 132.209 55.5874
17279 1 16.3908 132.203 54.3101
22800 2 18.2136 132.209 55.5874
16984 1 19.119 130.602 54.3139
22552 2 20.9419 130.607 55.5913
17804 1 2.74998 133.804 54.3053
18045 1 0.021626 135.405 54.2996
23611 2 1.84451 135.413 55.5769
17802 1 5.47786 135.405 54.2996
23370 2 4.57285 133.811 55.5826
17534 1 8.20622 133.804 54.3053
23372 2 7.30074 135.413 55.5769
17536 1 10.9341 135.405 54.2996
23059 2 10.0291 133.811 55.5826
17232 1 13.6625 133.804 54.3053
22801 2 15.4853 133.811 55.5826
23057 2 12.757 135.413 55.5769
17230 1 16.3903 135.405 54.2996
22803 2 18.2132 135.413 55.5769
16983 1 19.1187 133.804 54.3053
22522 2 20.9416 133.811 55.5826
17803 1 2.74948 137.006 54.2929
18032 1 0.0210561 138.607 54.2854
23612 2 1.84395 138.616 55.5626
17805 1 5.47729 138.607 54.2854
23343 2 4.57237 137.014 55.5702
17499 1 8.20572 137.006 54.2929
23341 2 7.30019 138.616 55.5626
17497 1 10.9335 138.607 54.2854
23058 2 10.0286 137.014 55.5702
17231 1 13.662 137.006 54.2929
22758 2 15.4848 137.014 55.5702
23060 2 12.7564 138.616 55.5626
17233 1 16.3898 138.607 54.2854
22756 2 18.2127 138.616 55.5626
16948 1 19.1182 137.006 54.2929
22521 2 20.9411 137.014 55.5702
17784 1 2.74884 140.208 54.2769
18033 1 0.0203541 141.809 54.2674
23599 2 1.84328 141.821 55.5445
17782 1 5.47659 141.809 54.2674
23342 2 4.57175 140.219 55.554
17498 1 8.20508 140.208 54.2769
23344 2 7.29952 141.821 55.5445
17500 1 10.9328 141.809 54.2674
23023 2 10.028 140.219 55.554
17190 1 13.6613 140.208 54.2769
22757 2 15.4842 140.219 55.554
23021 2 12.7558 141.821 55.5445
17188 1 16.3891 141.809 54.2674
22759 2 18.212 141.821 55.5445
16947 1 19.1176 140.208 54.2769
22490 2 20.9405 140.219 55.554
17783 1 2.74808 143.411 54.2571
18028 1 0.0195361 145.012 54.2457
23600 2 1.84251 145.025 55.5226
17785 1 5.47577 145.012 54.2457
23323 2 4.57102 143.423 55.534
17471 1 8.20432 143.411 54.2571
23321 2 7.29874 145.025 55.5226
17469 1 10.932 145.012 54.2457
23022 2 10.0273 143.423 55.534
17189 1 13.6606 143.411 54.2571
22718 2 15.4835 143.423 55.534
23024 2 12.755 145.025 55.5226
17191 1 16.3883 145.012 54.2457
22716 2 18.2112 145.025 55.5226
16912 1 19.1168 143.411 54.2571
22489 2 20.9397 143.423 55.534
17772 1 2.74721 146.614 54.2334
18029 1 0.0186214 148.215 54.2202
23595 2 1.84165 148.23 55.4967
17770 1 5.47486 148.215 54.2202
23322 2 4.5702 146.627 55.5101
17470 1 8.20345 146.614 54.2334
23324 2 7.29789 148.23 55.4967
17472 1 10.9311 148.215 54.2202
22995 2 10.0264 146.627 55.5101
17156 1 13.6597 146.614 54.2334
22717 2 15.4827 146.627 55.5101
22993 2 12.7541 148.23 55.4967
17154 1 16.3873 148.215 54.2202
22719 2 18.2104 148.23 55.4967
16911 1 19.1159 146.614 54.2334
22458 2 20.9389 146.627 55.5101
17771 1 2.74625 149.817 54.2059
23308 2 4.56932 149.832 55.4823
17448 1 8.20249 149.817 54.2059
22994 2 10.0256 149.832 55.4823
17155 1 13.6587 149.817 54.2059
22683 2 15.4818 149.832 55.4823
16878 1 19.115 149.817 54.2059
22457 2 20.938 149.832 55.4823
15927 1 0.935972 101.762 56.7842
23740 2 0.0315134 103.356 58.0734
21457 2 2.75927 101.752 58.0605
17964 1 3.66448 103.365 56.797
23513 2 5.48775 103.356 58.0734
17687 1 9.12072 103.365 56.797
15577 1 6.39221 101.762 56.7842
21111 2 8.21551 101.752 58.0605
15254 1 11.8484 101.762 56.7842
23244 2 10.944 103.356 58.0734
17388 1 14.577 103.365 56.797
20776 2 13.6717 101.752 58.0605
14960 1 17.3047 101.762 56.7842
22909 2 16.4002 103.356 58.0734
17060 1 20.0332 103.365 56.797
20534 2 19.128 101.752 58.0605
17934 1 0.936735 104.968 56.8089
23514 2 2.75999 104.96 58.0854
23712 2 0.032214 106.564 58.0963
17932 1 3.66522 106.571 56.8198
23515 2 5.48845 106.564 58.0963
17688 1 6.39297 104.968 56.8089
17689 1 9.12146 106.571 56.8198
23218 2 8.21623 104.96 58.0854
17370 1 11.8492 104.968 56.8089
23216 2 10.9447 106.564 58.0963
17368 1 14.5777 106.571 56.8198
22910 2 13.6725 104.96 58.0854
17061 1 17.3055 104.968 56.8089
22911 2 16.4009 106.564 58.0963
17062 1 20.0339 106.571 56.8198
22599 2 19.1287 104.96 58.0854
17933 1 0.937442 108.174 56.8297
23482 2 2.76066 108.167 58.1064
17658 1 6.39368 108.174 56.8297
23217 2 8.2169 108.167 58.1064
17369 1 11.8499 108.174 56.8297
22894 2 13.6731 108.167 58.1064
17053 1 17.3062 108.174 56.8297
22598 2 19.1294 108.167 58.1064
23713 2 0.0328564 109.771 58.1154
17899 1 0.938069 111.379 56.8468
23481 2 2.76127 111.375 58.1236
17935 1 3.66589 109.777 56.8387
23480 2 5.48909 109.771 58.1154
17656 1 9.12212 109.777 56.8387
17657 1 6.39431 111.379 56.8468
23186 2 8.21751 111.375 58.1236
23219 2 10.9453 109.771 58.1154
17346 1 11.8505 111.379 56.8468
17371 1 14.5784 109.777 56.8387
22893 2 13.6737 111.375 58.1236
22892 2 16.4016 109.771 58.1154
17052 1 17.3068 111.379 56.8468
17051 1 20.0346 109.777 56.8387
22591 2 19.13 111.375 58.1236
17898 1 0.938591 114.585 56.8602
23684 2 0.0334148 112.978 58.1307
23443 2 2.76177 114.582 58.137
17897 1 3.66646 112.982 56.8539
23483 2 5.48965 112.978 58.1307
17659 1 9.1227 112.982 56.8539
17620 1 6.39483 114.585 56.8602
23185 2 8.21801 114.582 58.137
17345 1 11.8511 114.585 56.8602
23184 2 10.9459 112.978 58.1307
17344 1 14.5789 112.982 56.8539
22870 2 13.6743 114.582 58.137
17037 1 17.3073 114.585 56.8602
22895 2 16.4021 112.978 58.1307
17054 1 20.0352 112.982 56.8539
22590 2 19.1305 114.582 58.137
17863 1 0.938991 117.79 56.8698
23442 2 2.76217 117.789 58.1467
23685 2 0.0338662 116.185 58.1423
17900 1 3.66693 116.188 56.8654
23441 2 5.4901 116.185 58.1423
17618 1 9.12317 116.188 56.8654
17619 1 6.39523 117.79 56.8698
23146 2 8.2184 117.789 58.1467
17314 1 11.8515 117.79 56.8698
23187 2 10.9463 116.185 58.1423
17347 1 14.5794 116.188 56.8654
22869 2 13.6746 117.789 58.1467
17036 1 17.3077 117.79 56.8698
22868 2 16.4026 116.185 58.1423
17035 1 20.0356 116.188 56.8654
22575 2 19.1309 117.789 58.1467
17862 1 0.939254 120.996 56.8758
23403 2 2.76242 120.996 58.1527
23656 2 0.0341924 119.393 58.1501
17861 1 3.66726 119.393 56.8733
23444 2 5.49043 119.393 58.1501
17575 1 6.39549 120.996 56.8758
17621 1 9.1235 119.393 56.8733
23145 2 8.21866 120.996 58.1527
17313 1 11.8517 120.996 56.8758
23144 2 10.9467 119.393 58.1501
17312 1 14.5797 119.393 56.8733
22838 2 13.6749 120.996 58.1527
17013 1 17.308 120.996 56.8758
22871 2 16.4029 119.393 58.1501
17038 1 20.036 119.393 56.8733
22574 2 19.1311 120.996 58.1527
17828 1 0.939371 124.201 56.8781
23402 2 2.76254 124.203 58.155
23657 2 0.0343802 122.6 58.1543
17864 1 3.66745 122.599 56.8774
23401 2 5.49062 122.6 58.1543
17573 1 9.12369 122.599 56.8774
17574 1 6.39561 124.201 56.8781
23099 2 8.21878 124.203 58.155
17274 1 11.8518 124.201 56.8781
23147 2 10.9469 122.6 58.1543
17315 1 14.5799 122.599 56.8774
22837 2 13.675 124.203 58.155
17012 1 17.3081 124.201 56.8781
22836 2 16.4031 122.6 58.1543
17011 1 20.0362 122.599 56.8774
22551 2 19.1313 124.203 58.155
17827 1 0.939336 127.407 56.8767
23367 2 2.7625 127.41 58.1536
23629 2 0.0344213 125.807 58.1548
17826 1 3.66749 125.804 56.8779
23404 2 5.49066 125.807 58.1548
17531 1 6.39557 127.407 56.8767
17576 1 9.12373 125.804 56.8779
23098 2 8.21874 127.41 58.1536
17273 1 11.8518 127.407 56.8767
23097 2 10.9469 125.807 58.1548
17272 1 14.58 125.804 56.8779
22798 2 13.675 127.41 58.1536
16981 1 17.3081 127.407 56.8767
22839 2 16.4031 125.807 58.1548
17014 1 20.0362 125.804 56.8779
22550 2 19.1312 127.41 58.1536
23630 2 0.0343114 129.014 58.1516
17829 1 3.66738 129.009 56.8747
23365 2 5.49055 129.014 58.1516
17529 1 9.12362 129.009 56.8747
23100 2 10.9468 129.014 58.1516
17275 1 14.5799 129.009 56.8747
22796 2 16.403 129.014 58.1516
16979 1 20.0361 129.009 56.8747
17800 1 0.939147 130.612 56.8717
23366 2 2.76232 130.617 58.1486
23609 2 0.0340522 132.221 58.1446
17798 1 3.66712 132.215 56.8678
23368 2 5.49029 132.221 58.1446
17530 1 6.39539 130.612 56.8717
23055 2 8.21856 130.617 58.1486
17532 1 9.12335 132.215 56.8678
17228 1 11.8516 130.612 56.8717
23053 2 10.9465 132.221 58.1446
22797 2 13.6748 130.617 58.1486
17226 1 14.5796 132.215 56.8678
16980 1 17.3079 130.612 56.8717
22799 2 16.4028 132.221 58.1446
22520 2 19.131 130.617 58.1486
16982 1 20.0358 132.215 56.8678
17799 1 0.938809 133.818 56.863
23339 2 2.76199 133.825 58.1398
23610 2 0.0336517 135.428 58.134
17801 1 3.66671 135.42 56.8572
23337 2 5.48989 135.428 58.134
17493 1 9.12295 135.42 56.8572
17495 1 6.39505 133.818 56.863
23054 2 8.21823 133.825 58.1398
17227 1 11.8513 133.818 56.863
23056 2 10.9461 135.428 58.134
17229 1 14.5792 135.42 56.8572
22754 2 13.6745 133.825 58.1398
16945 1 17.3075 133.818 56.863
22752 2 16.4024 135.428 58.134
16943 1 20.0354 135.42 56.8572
22519 2 19.1307 133.825 58.1398
17780 1 0.938332 137.023 56.8505
23338 2 2.76152 137.032 58.1272
23597 2 0.033124 138.635 58.1195
17778 1 3.66617 138.626 56.8428
23340 2 5.48936 138.635 58.1195
17494 1 6.39457 137.023 56.8505
17496 1 9.1224 138.626 56.8428
23019 2 8.21776 137.032 58.1272
17186 1 11.8508 137.023 56.8505
23017 2 10.9456 138.635 58.1195
17184 1 14.5786 138.626 56.8428
22753 2 13.674 137.032 58.1272
16944 1 17.307 137.023 56.8505
22755 2 16.4018 138.635 58.1195
16946 1 20.0349 138.626 56.8428
22488 2 19.1302 137.032 58.1272
17779 1 0.937731 140.229 56.8342
23319 2 2.76094 140.239 58.1108
23598 2 0.0324892 141.843 58.1012
17781 1 3.66551 141.832 56.8246
23317 2 5.48873 141.843 58.1012
17465 1 9.12175 141.832 56.8246
17467 1 6.39397 140.229 56.8342
23018 2 8.21718 140.239 58.1108
17185 1 11.8502 140.229 56.8342
23020 2 10.945 141.843 58.1012
17187 1 14.578 141.832 56.8246
22714 2 13.6734 140.239 58.1108
16909 1 17.3064 140.229 56.8342
22712 2 16.4012 141.843 58.1012
16907 1 20.0342 141.832 56.8246
22487 2 19.1297 140.239 58.1108
17768 1 0.937028 143.435 56.8141
23318 2 2.76026 143.447 58.0905
23593 2 0.031773 145.051 58.0789
17766 1 3.66476 145.038 56.8025
23320 2 5.48801 145.051 58.0789
17466 1 6.39327 143.435 56.8141
17468 1 9.121 145.038 56.8025
22991 2 8.2165 143.447 58.0905
17152 1 11.8495 143.435 56.8141
22989 2 10.9442 145.051 58.0789
17150 1 14.5772 145.038 56.8025
22713 2 13.6727 143.447 58.0905
16908 1 17.3057 143.435 56.8141
22715 2 16.4005 145.051 58.0789
16910 1 20.0335 145.038 56.8025
22456 2 19.129 143.447 58.0905
17767 1 0.936247 146.641 56.79
23307 2 2.75951 146.655 58.0662
23594 2 0.0310061 148.259 58.0525
17769 1 3.66396 148.244 56.7765
23305 2 5.48724 148.259 58.0525
17445 1 9.1202 148.244 56.7765
17447 1 6.39249 146.641 56.79
22990 2 8.21575 146.655 58.0662
17151 1 11.8487 146.641 56.79
22992 2 10.9435 148.259 58.0525
17153 1 14.5764 148.244 56.7765
22682 2 13.672 146.655 58.0662
16877 1 17.305 146.641 56.79
22680 2 16.3997 148.259 58.0525
16875 1 20.0327 148.244 56.7765
22455 2 19.1282 146.655 58.0662
17761 1 0.93542 149.848 56.7619
23306 2 2.75873 149.863 58.0378
17446 1 6.39166 149.848 56.7619
22968 2 8.21497 149.863 58.0378
17123 1 11.8479 149.848 56.7619
22681 2 13.6712 149.863 58.0378
16876 1 17.3041 149.848 56.7619
22426 2 19.1274 149.863 58.0378
17930 1 1.85408 103.347 59.3529
21455 2 0.949161 101.733 60.6156
23512 2 3.67761 103.338 60.6288
15575 1 4.58186 101.743 59.3399
17686 1 7.31031 103.347 59.3529
23213 2 9.13384 103.338 60.6288
21089 2 6.4054 101.733 60.6156
15226 1 10.0381 101.743 59.3399
20774 2 11.8616 101.733 60.6156
17365 1 12.7666 103.347 59.3529
22908 2 14.5901 103.338 60.6288
14958 1 15.4943 101.743 59.3399
17059 1 18.2228 103.347 59.3529
20505 2 17.3179 101.733 60.6156
22595 2 20.0463 103.338 60.6288
14752 1 20.9506 101.743 59.3399
17931 1 1.85474 106.557 59.376
23478 2 0.94981 104.944 60.6409
17654 1 4.58253 104.952 59.365
23476 2 3.67825 106.549 60.6521
17652 1 7.31098 106.557 59.376
23214 2 6.40605 104.944 60.6409
23215 2 9.13449 106.549 60.6521
17366 1 10.0388 104.952 59.365
22890 2 11.8623 104.944 60.6409
17049 1 15.495 104.952 59.365
17367 1 12.7672 106.557 59.376
22888 2 14.5907 106.549 60.6521
17047 1 18.2235 106.557 59.376
22596 2 17.3185 104.944 60.6409
16797 1 20.9512 104.952 59.365
22597 2 20.047 106.549 60.6521
17895 1 1.85536 109.766 59.3953
23477 2 0.950438 108.155 60.6622
17653 1 4.58317 108.161 59.3861
23479 2 3.67885 109.76 60.6714
17655 1 7.3116 109.766 59.3953
23180 2 9.13509 109.76 60.6714
23182 2 6.40668 108.155 60.6622
17342 1 10.0394 108.161 59.3861
22889 2 11.8629 108.155 60.6622
17048 1 15.4957 108.161 59.3861
17340 1 12.7678 109.766 59.3953
22891 2 14.5913 109.76 60.6714
17050 1 18.2241 109.766 59.3953
22588 2 17.3192 108.155 60.6622
16796 1 20.9519 108.161 59.3861
22586 2 20.0476 109.76 60.6714
23439 2 0.951011 111.365 60.6796
17616 1 4.58376 111.37 59.4034
23181 2 6.40725 111.365 60.6796
17341 1 10.04 111.37 59.4034
22866 2 11.8635 111.365 60.6796
17033 1 15.4962 111.37 59.4034
22587 2 17.3197 111.365 60.6796
16795 1 20.9525 111.37 59.4034
17896 1 1.8559 112.975 59.4106
23438 2 0.951501 114.576 60.6932
23437 2 3.67939 112.971 60.6869
17615 1 4.58426 114.579 59.4169
17614 1 7.31214 112.975 59.4106
23183 2 9.13563 112.971 60.6869
23142 2 6.40774 114.576 60.6932
17310 1 10.0405 114.579 59.4169
22865 2 11.864 114.576 60.6932
17343 1 12.7684 112.975 59.4106
22864 2 14.5919 112.971 60.6869
17032 1 15.4967 114.579 59.4169
17031 1 18.2246 112.975 59.4106
22572 2 17.3202 114.576 60.6932
22589 2 20.0481 112.971 60.6869
16788 1 20.953 114.579 59.4169
17859 1 1.85635 116.183 59.4223
23399 2 0.951883 117.786 60.703
17571 1 4.58465 117.788 59.4267
23440 2 3.67983 116.181 60.6985
17617 1 7.31259 116.183 59.4223
23140 2 9.13606 116.181 60.6985
23141 2 6.40812 117.786 60.703
17309 1 10.0409 117.788 59.4267
22834 2 11.8644 117.786 60.703
17009 1 15.4971 117.788 59.4267
17308 1 12.7688 116.183 59.4223
22867 2 14.5923 116.181 60.6985
17034 1 18.2251 116.183 59.4223
22571 2 17.3206 117.786 60.703
16787 1 20.9534 117.788 59.4267
22570 2 20.0485 116.181 60.6985
17860 1 1.85667 119.392 59.4301
23398 2 0.952138 120.997 60.709
17570 1 4.5849 120.996 59.4327
23397 2 3.68015 119.392 60.7064
17569 1 7.31291 119.392 59.4301
23095 2 6.40838 120.997 60.709
23143 2 9.13638 119.392 60.7064
17270 1 10.0411 120.996 59.4327
22833 2 11.8646 120.997 60.709
17008 1 15.4974 120.996 59.4327
17311 1 12.7691 119.392 59.4301
22832 2 14.5926 119.392 60.7064
17007 1 18.2254 119.392 59.4301
22548 2 17.3209 120.997 60.709
16772 1 20.9536 120.996 59.4327
22573 2 20.0489 119.392 60.7064
17824 1 1.85686 122.601 59.4343
23363 2 0.952254 124.207 60.7113
17527 1 4.58502 124.205 59.435
23400 2 3.68033 122.602 60.7106
17572 1 7.3131 122.601 59.4343
23093 2 9.13657 122.602 60.7106
23094 2 6.40849 124.207 60.7113
17269 1 10.0413 124.205 59.435
22794 2 11.8647 124.207 60.7113
16977 1 15.4975 124.205 59.435
17268 1 12.7693 122.601 59.4343
22835 2 14.5928 122.602 60.7106
17010 1 18.2256 122.601 59.4343
22547 2 17.321 124.207 60.7113
16771 1 20.9537 124.205 59.435
22546 2 20.049 122.602 60.7106
17825 1 1.8569 125.81 59.4348
23362 2 0.952221 127.418 60.7099
17526 1 4.58498 127.414 59.4336
23361 2 3.68038 125.812 60.7111
17525 1 7.31314 125.81 59.4348
23051 2 6.40846 127.418 60.7099
23096 2 9.13661 125.812 60.7111
17224 1 10.0412 127.414 59.4336
22793 2 11.8647 127.418 60.7099
16976 1 15.4975 127.414 59.4336
17271 1 12.7694 125.81 59.4348
22792 2 14.5929 125.812 60.7111
16975 1 18.2256 125.81 59.4348
22517 2 17.3209 127.418 60.7099
16749 1 20.9537 127.414 59.4336
22549 2 20.0491 125.812 60.7111
17796 1 1.85679 129.018 59.4315
23364 2 3.68027 129.023 60.7078
17528 1 7.31303 129.018 59.4315
23049 2 9.13651 129.023 60.7078
17222 1 12.7693 129.018 59.4315
22795 2 14.5927 129.023 60.7078
16978 1 18.2255 129.018 59.4315
22515 2 20.049 129.023 60.7078
23335 2 0.952038 130.628 60.7048
17797 1 1.85653 132.227 59.4246
17491 1 4.5848 130.623 59.4285
23333 2 3.68001 132.233 60.7008
23050 2 6.40828 130.628 60.7048
17489 1 7.31277 132.227 59.4246
23052 2 9.13625 132.233 60.7008
17223 1 10.041 130.623 59.4285
22750 2 11.8645 130.628 60.7048
16941 1 15.4973 130.623 59.4285
17225 1 12.769 132.227 59.4246
22748 2 14.5925 132.233 60.7008
22516 2 17.3208 130.628 60.7048
16939 1 18.2252 132.227 59.4246
16748 1 20.9535 130.623 59.4285
22518 2 20.0487 132.233 60.7008
17776 1 1.85614 135.436 59.4139
23334 2 0.951711 133.838 60.6959
17490 1 4.58447 133.832 59.4197
23336 2 3.67962 135.444 60.6901
17492 1 7.31237 135.436 59.4139
23013 2 9.13586 135.444 60.6901
23015 2 6.40795 133.838 60.6959
17182 1 10.0407 133.832 59.4197
22749 2 11.8642 133.838 60.6959
16940 1 15.4969 133.832 59.4197
17180 1 12.7686 135.436 59.4139
22751 2 14.5921 135.444 60.6901
16942 1 18.2249 135.436 59.4139
22485 2 17.3204 133.838 60.6959
16725 1 20.9532 133.832 59.4197
22483 2 20.0483 135.444 60.6901
17777 1 1.85561 138.645 59.3993
23315 2 0.951254 137.049 60.6832
17463 1 4.58401 137.041 59.4071
23313 2 3.6791 138.654 60.6754
17461 1 7.31185 138.645 59.3993
23014 2 6.40749 137.049 60.6832
23016 2 9.13534 138.654 60.6754
17181 1 10.0402 137.041 59.4071
22710 2 11.8637 137.049 60.6832
16905 1 15.4965 137.041 59.4071
17183 1 12.7681 138.645 59.3993
22708 2 14.5916 138.654 60.6754
16903 1 18.2243 138.645 59.3993
22484 2 17.32 137.049 60.6832
16724 1 20.9527 137.041 59.4071
22486 2 20.0478 138.654 60.6754
17764 1 1.85499 141.854 59.3809
23314 2 0.950687 140.26 60.6666
17462 1 4.58343 140.25 59.3906
23316 2 3.67849 141.865 60.6568
17464 1 7.31123 141.854 59.3809
22985 2 9.13473 141.865 60.6568
22987 2 6.40692 140.26 60.6666
17148 1 10.0397 140.25 59.3906
22709 2 11.8632 140.26 60.6666
16904 1 15.4959 140.25 59.3906
17146 1 12.7675 141.854 59.3809
22711 2 14.591 141.865 60.6568
16906 1 18.2237 141.854 59.3809
22453 2 17.3194 140.26 60.6666
16701 1 20.9521 140.25 59.3906
22451 2 20.0472 141.865 60.6568
17765 1 1.8543 145.064 59.3584
23303 2 0.950036 143.471 60.646
17443 1 4.58277 143.459 59.3702
23301 2 3.67781 145.076 60.6342
17441 1 7.31054 145.064 59.3584
22986 2 6.40627 143.471 60.646
22988 2 9.13405 145.076 60.6342
17147 1 10.039 143.459 59.3702
22678 2 11.8625 143.471 60.646
16873 1 15.4953 143.459 59.3702
17149 1 12.7668 145.064 59.3584
22676 2 14.5903 145.076 60.6342
16871 1 18.223 145.064 59.3584
22452 2 17.3188 143.471 60.646
16700 1 20.9515 143.459 59.3702
22454 2 20.0465 145.076 60.6342
17760 1 1.85358 148.273 59.3319
23302 2 0.949336 146.682 60.6213
17442 1 4.58206 146.669 59.3457
23304 2 3.6771 148.288 60.6074
17444 1 7.30981 148.273 59.3319
22965 2 9.13334 148.288 60.6074
22967 2 6.40557 146.682 60.6213
17122 1 10.0383 146.669 59.3457
22677 2 11.8618 146.682 60.6213
16872 1 15.4945 146.669 59.3457
17120 1 12.7661 148.273 59.3319
22679 2 14.5896 148.288 60.6074
16874 1 18.2223 148.273 59.3319
22425 2 17.3181 146.682 60.6213
16677 1 20.9508 146.669 59.3457
22423 2 20.0458 148.288 60.6074
23296 2 0.948626 149.894 60.5924
17428 1 4.58133 149.879 59.317
22966 2 6.40486 149.894 60.5924
17121 1 10.0376 149.879 59.317
22651 2 11.8611 149.894 60.5924
16846 1 15.4938 149.879 59.317
22424 2 17.3173 149.894 60.5924
16676 1 20.95 149.879 59.317
17929 1 0.044165 103.33 61.9081
15561 1 2.77198 101.723 61.8948
23474 2 1.86794 103.321 63.1832
15559 1 0.962492 101.704 64.4493
17649 1 5.5004 103.33 61.9081
21087 2 4.59575 101.714 63.1699
17648 1 3.69091 103.312 64.4627
15224 1 8.22822 101.723 61.8948
23212 2 7.32418 103.321 63.1832
17333 1 9.14715 103.312 64.4627
15204 1 6.41873 101.704 64.4493
17364 1 10.9566 103.33 61.9081
20748 2 10.052 101.714 63.1699
14930 1 11.875 101.704 64.4493
14932 1 13.6845 101.723 61.8948
22885 2 12.7804 103.321 63.1832
20503 2 15.5082 101.714 63.1699
17043 1 14.6034 103.312 64.4627
17044 1 16.4129 103.33 61.9081
22594 2 18.2367 103.321 63.1832
14729 1 17.3312 101.704 64.4493
14750 1 19.1407 101.723 61.8948
20331 2 20.9645 101.714 63.1699
16790 1 20.0596 103.312 64.4627
17650 1 2.77259 104.936 61.9203
17893 1 0.0447826 106.542 61.9315
23475 2 1.86856 106.535 63.2068
17608 1 0.963097 104.92 64.4751
17651 1 5.50102 106.542 61.9315
23178 2 4.59637 104.928 63.1955
17606 1 3.69152 106.528 64.4864
17338 1 8.22883 104.936 61.9203
23176 2 7.3248 106.535 63.2068
17334 1 6.41934 104.92 64.4751
17335 1 9.14776 106.528 64.4864
17336 1 10.9573 106.542 61.9315
22886 2 10.0526 104.928 63.1955
17025 1 11.8756 104.92 64.4751
17045 1 13.6851 104.936 61.9203
22584 2 15.5088 104.928 63.1955
22887 2 12.781 106.535 63.2068
17023 1 14.604 106.528 64.4864
17046 1 16.4135 106.542 61.9315
22582 2 18.2373 106.535 63.2068
16791 1 17.3318 104.92 64.4751
16794 1 19.1413 104.936 61.9203
22362 2 20.9651 104.928 63.1955
16792 1 20.0602 106.528 64.4864
17612 1 2.7732 108.149 61.9417
17894 1 0.0453713 109.755 61.9509
23435 2 1.86915 109.749 63.2263
17607 1 0.963704 108.136 64.4967
17610 1 5.50161 109.755 61.9509
23177 2 4.59698 108.142 63.217
17609 1 3.69211 109.744 64.506
17337 1 8.22944 108.149 61.9417
23179 2 7.32538 109.749 63.2263
17300 1 9.14835 109.744 64.506
17302 1 6.41994 108.136 64.4967
17339 1 10.9578 109.755 61.9509
22862 2 10.0532 108.142 63.217
17024 1 11.8762 108.136 64.4967
17029 1 13.6857 108.149 61.9417
22583 2 15.5095 108.142 63.217
22860 2 12.7816 109.749 63.2263
17026 1 14.6046 109.744 64.506
17027 1 16.4141 109.755 61.9509
22585 2 18.2379 109.749 63.2263
16783 1 17.3324 108.136 64.4967
16793 1 19.1419 108.149 61.9417
22361 2 20.9657 108.142 63.217
16781 1 20.0608 109.744 64.506
17611 1 2.77376 111.361 61.9592
17563 1 0.964268 111.352 64.5144
23138 2 4.59754 111.356 63.2346
17306 1 8.23 111.361 61.9592
17301 1 6.42051 111.352 64.5144
22861 2 10.0538 111.356 63.2346
17001 1 11.8767 111.352 64.5144
17028 1 13.6862 111.361 61.9592
22568 2 15.51 111.356 63.2346
16782 1 17.333 111.352 64.5144
16786 1 19.1425 111.361 61.9592
22360 2 20.9663 111.356 63.2346
17857 1 0.0458992 112.967 61.9665
23436 2 1.86967 112.963 63.2419
17567 1 2.77425 114.573 61.9728
17562 1 0.964765 114.567 64.5281
17613 1 5.50214 112.967 61.9665
17561 1 3.69264 112.959 64.5217
23137 2 4.59803 114.57 63.2483
23136 2 7.32591 112.963 63.2419
17303 1 9.14888 112.959 64.5217
17305 1 8.23049 114.573 61.9728
17262 1 6.421 114.567 64.5281
17304 1 10.9584 112.967 61.9665
22830 2 10.0543 114.57 63.2483
17000 1 11.8772 114.567 64.5281
22863 2 12.7821 112.963 63.2419
16999 1 14.6051 112.959 64.5217
17005 1 13.6867 114.573 61.9728
22567 2 15.5105 114.57 63.2483
17030 1 16.4146 112.967 61.9665
22566 2 18.2384 112.963 63.2419
16767 1 17.3335 114.567 64.5281
16784 1 20.0614 112.959 64.5217
16785 1 19.143 114.573 61.9728
22353 2 20.9667 114.57 63.2483
17566 1 2.77463 117.785 61.9826
17858 1 0.046337 116.179 61.9782
23395 2 1.87011 116.177 63.2537
17565 1 5.50258 116.179 61.9782
23091 2 4.59841 117.784 63.2581
17564 1 3.69309 116.175 64.5336
17266 1 8.23087 117.785 61.9826
23139 2 7.32635 116.177 63.2537
17260 1 9.14933 116.175 64.5336
17307 1 10.9588 116.179 61.9782
22829 2 10.0546 117.784 63.2581
17004 1 13.6871 117.785 61.9826
22544 2 15.5109 117.784 63.2581
22828 2 12.7826 116.177 63.2537
17002 1 14.6056 116.175 64.5336
17003 1 16.4151 116.179 61.9782
22569 2 18.2388 116.177 63.2537
16770 1 19.1433 117.785 61.9826
22352 2 20.9671 117.784 63.2581
16765 1 20.0618 116.175 64.5336
17523 1 2.77489 120.997 61.9887
17822 1 0.0466577 119.391 61.9861
23396 2 1.87043 119.391 63.2617
17568 1 5.5029 119.391 61.9861
23090 2 4.59867 120.997 63.2642
17265 1 8.23113 120.997 61.9887
23089 2 7.32667 119.391 63.2617
17264 1 10.9591 119.391 61.9861
22790 2 10.0549 120.997 63.2642
16973 1 13.6874 120.997 61.9887
22543 2 15.5111 120.997 63.2642
22831 2 12.7829 119.391 63.2617
17006 1 16.4154 119.391 61.9861
22542 2 18.2391 119.391 63.2617
16769 1 19.1436 120.997 61.9887
22337 2 20.9674 120.997 63.2642
17522 1 2.77501 124.209 61.991
17823 1 0.0468479 122.603 61.9903
23359 2 1.87063 122.604 63.2659
17521 1 5.50309 122.603 61.9903
23047 2 4.59879 124.211 63.2666
17220 1 8.23125 124.209 61.991
23092 2 7.32686 122.604 63.2659
17267 1 10.9593 122.603 61.9903
22789 2 10.055 124.211 63.2666
16972 1 13.6875 124.209 61.991
22513 2 15.5113 124.211 63.2666
22788 2 12.7831 122.604 63.2659
16971 1 16.4156 122.603 61.9903
22545 2 18.2393 122.604 63.2659
16747 1 19.1437 124.209 61.991
22336 2 20.9675 124.211 63.2666
17487 1 2.77497 127.421 61.9896
17794 1 0.0468912 125.815 61.9908
23360 2 1.87067 125.818 63.2663
17524 1 5.50313 125.815 61.9908
23046 2 4.59875 127.425 63.2652
17219 1 8.23121 127.421 61.9896
23045 2 7.32691 125.818 63.2663
17218 1 10.9594 125.815 61.9908
22746 2 10.055 127.425 63.2652
16937 1 13.6875 127.421 61.9896
22512 2 15.5112 127.425 63.2652
22791 2 12.7831 125.818 63.2663
16974 1 16.4156 125.815 61.9908
22511 2 18.2394 125.818 63.2663
16746 1 19.1437 127.421 61.9896
22317 2 20.9675 127.425 63.2652
17795 1 0.0467821 129.027 61.9875
23331 2 1.87056 129.032 63.263
17485 1 5.50302 129.027 61.9875
23048 2 7.3268 129.032 63.263
17221 1 10.9593 129.027 61.9875
22744 2 12.783 129.032 63.263
16935 1 16.4155 129.027 61.9875
22514 2 18.2393 129.032 63.263
17486 1 2.77479 130.633 61.9845
17774 1 0.0465241 132.24 61.9805
23332 2 1.8703 132.245 63.256
23011 2 4.59857 130.639 63.26
17488 1 5.50276 132.24 61.9805
17178 1 8.23103 130.633 61.9845
23009 2 7.32654 132.245 63.256
22745 2 10.0548 130.639 63.26
17176 1 10.959 132.24 61.9805
22481 2 15.511 130.639 63.26
16936 1 13.6873 130.633 61.9845
22747 2 12.7828 132.245 63.256
16938 1 16.4152 132.24 61.9805
22479 2 18.239 132.245 63.256
22316 2 20.9673 130.639 63.26
16723 1 19.1435 130.633 61.9845
17459 1 2.77446 133.846 61.9756
17775 1 0.0461279 135.452 61.9697
23311 2 1.86991 135.459 63.2451
17457 1 5.50237 135.452 61.9697
23010 2 4.59824 133.852 63.251
17177 1 8.2307 133.846 61.9756
23012 2 7.32614 135.459 63.2451
17179 1 10.9586 135.452 61.9697
22706 2 10.0545 133.852 63.251
16901 1 13.6869 133.846 61.9756
22480 2 15.5107 133.852 63.251
22704 2 12.7824 135.459 63.2451
16899 1 16.4148 135.452 61.9697
22482 2 18.2386 135.459 63.2451
16722 1 19.1432 133.846 61.9756
22297 2 20.967 133.852 63.251
17458 1 2.774 137.058 61.9628
17762 1 0.0456122 138.664 61.955
23312 2 1.86939 138.673 63.2303
17460 1 5.50185 138.664 61.955
22983 2 4.59778 137.066 63.2382
17144 1 8.23024 137.058 61.9628
22981 2 7.32562 138.673 63.2303
17142 1 10.9581 138.664 61.955
22705 2 10.054 137.066 63.2382
16900 1 13.6865 137.058 61.9628
22449 2 15.5103 137.066 63.2382
22707 2 12.7819 138.673 63.2303
16902 1 16.4143 138.664 61.955
22447 2 18.2381 138.673 63.2303
16699 1 19.1427 137.058 61.9628
22296 2 20.9665 137.066 63.2382
17439 1 2.77344 140.27 61.9461
17763 1 0.0450035 141.877 61.9363
23299 2 1.86877 141.888 63.2115
17437 1 5.50124 141.877 61.9363
22982 2 4.59721 140.28 63.2214
17143 1 8.22968 140.27 61.9461
22984 2 7.32501 141.888 63.2115
17145 1 10.9575 141.877 61.9363
22674 2 10.0534 140.28 63.2214
16869 1 13.6859 140.27 61.9461
22448 2 15.5097 140.28 63.2214
22672 2 12.7812 141.888 63.2115
16867 1 16.4137 141.877 61.9363
22450 2 18.2375 141.888 63.2115
16698 1 19.1422 140.27 61.9461
22277 2 20.9659 140.28 63.2214
17438 1 2.77279 143.483 61.9254
17758 1 0.0443362 145.09 61.9135
23300 2 1.8681 145.102 63.1885
17440 1 5.50057 145.09 61.9135
22963 2 4.59656 143.495 63.2005
17118 1 8.22903 143.483 61.9254
22961 2 7.32434 145.102 63.1885
17116 1 10.9568 145.09 61.9135
22673 2 10.0528 143.495 63.2005
16868 1 13.6853 143.483 61.9254
22421 2 15.509 143.495 63.2005
22675 2 12.7806 145.102 63.1885
16870 1 16.4131 145.09 61.9135
22419 2 18.2368 145.102 63.1885
16675 1 19.1415 143.483 61.9254
22276 2 20.9653 143.495 63.2005
17427 1 2.77211 146.696 61.9005
17759 1 0.0436517 148.303 61.8865
23295 2 1.8674 148.317 63.1613
17425 1 5.49989 148.303 61.8865
22962 2 4.59587 146.709 63.1755
17117 1 8.22835 146.696 61.9005
22964 2 7.32364 148.317 63.1613
17119 1 10.9561 148.303 61.8865
22650 2 10.0521 146.709 63.1755
16845 1 13.6846 146.696 61.9005
22420 2 15.5083 146.709 63.1755
22648 2 12.7799 148.317 63.1613
16843 1 16.4124 148.303 61.8865
22422 2 18.2361 148.317 63.1613
16674 1 19.1408 146.696 61.9005
22257 2 20.9646 146.709 63.1755
17426 1 2.77144 149.909 61.8713
17416 1 0.961881 149.94 64.4253
22948 2 4.59518 149.925 63.1461
17097 1 8.22767 149.909 61.8713
17095 1 6.41812 149.94 64.4253
22649 2 10.0514 149.925 63.1461
16822 1 11.8744 149.94 64.4253
16844 1 13.6839 149.909 61.8713
22398 2 15.5077 149.925 63.1461
16651 1 17.3306 149.94 64.4253
16653 1 19.1402 149.909 61.8713
22256 2 20.9639 149.925 63.1461
23473 2 0.058702 103.303 65.7364
21073 2 2.78651 101.694 65.723
17604 1 1.88165 103.295 67.0178
23173 2 5.51494 103.303 65.7364
15202 1 4.60945 101.685 67.0043
20746 2 8.24275 101.694 65.723
17332 1 7.33788 103.295 67.0178
22884 2 10.9712 103.303 65.7364
14912 1 10.0657 101.685 67.0043
20481 2 13.699 101.694 65.723
17020 1 12.7941 103.295 67.0178
14727 1 15.5219 101.685 67.0043
22579 2 16.4274 103.303 65.7364
16789 1 18.2504 103.295 67.0178
20329 2 19.1552 101.694 65.723
14623 1 20.9782 101.685 67.0043
23174 2 2.78714 104.912 65.7488
23433 2 0.059333 106.521 65.7602
17605 1 1.8823 106.514 67.0417
23175 2 5.51557 106.521 65.7602
17298 1 4.61009 104.904 67.0303
22858 2 8.24338 104.912 65.7488
17296 1 7.33854 106.514 67.0417
22856 2 10.9718 106.521 65.7602
17021 1 10.0663 104.904 67.0303
22580 2 13.6996 104.912 65.7488
16779 1 15.5226 104.904 67.0303
17022 1 12.7948 106.514 67.0417
22581 2 16.428 106.521 65.7602
16777 1 18.251 106.514 67.0417
22359 2 19.1559 104.912 65.7488
16617 1 20.9788 104.904 67.0303
23134 2 2.78776 108.13 65.7706
23434 2 0.0599386 109.738 65.7799
17559 1 1.88293 109.733 67.0615
23132 2 5.51618 109.738 65.7799
17297 1 4.61074 108.124 67.0521
22857 2 8.244 108.13 65.7706
17299 1 7.33916 109.733 67.0615
22859 2 10.9724 109.738 65.7799
16997 1 10.067 108.124 67.0521
22564 2 13.7002 108.13 65.7706
16778 1 15.5232 108.124 67.0521
16995 1 12.7954 109.733 67.0615
22562 2 16.4287 109.738 65.7799
16780 1 18.2516 109.733 67.0615
22358 2 19.1565 108.13 65.7706
16616 1 20.9795 108.124 67.0521
23133 2 2.78834 111.347 65.7883
17258 1 4.61134 111.343 67.0699
22826 2 8.24457 111.347 65.7883
16996 1 10.0676 111.343 67.0699
22563 2 13.7008 111.347 65.7883
16763 1 15.5238 111.343 67.0699
22351 2 19.1571 111.347 65.7883
16615 1 20.9801 111.343 67.0699
23393 2 0.0604765 112.955 65.7957
17560 1 1.88349 112.952 67.0773
23087 2 2.78883 114.564 65.8021
23135 2 5.51671 112.955 65.7957
17257 1 4.61186 114.562 67.0837
17256 1 7.33973 112.952 67.0773
22825 2 8.24506 114.564 65.8021
22824 2 10.973 112.955 65.7957
16965 1 10.0681 114.562 67.0837
16998 1 12.796 112.952 67.0773
22540 2 13.7013 114.564 65.8021
16762 1 15.5243 114.562 67.0837
22565 2 16.4292 112.955 65.7957
16761 1 18.2522 112.952 67.0773
22350 2 19.1575 114.564 65.8021
16608 1 20.9806 114.562 67.0837
17519 1 0.96514 117.783 64.538
23086 2 2.78923 117.781 65.812
23394 2 0.0609181 116.173 65.8075
17515 1 1.88395 116.172 67.0892
23085 2 5.51716 116.173 65.8075
17212 1 4.61226 117.781 67.0937
17261 1 6.42138 117.783 64.538
22786 2 8.24547 117.781 65.812
17259 1 7.34019 116.172 67.0892
16969 1 11.8776 117.783 64.538
22827 2 10.9734 116.173 65.8075
16964 1 10.0685 117.781 67.0937
22539 2 13.7017 117.781 65.812
16740 1 15.5247 117.781 67.0937
16963 1 12.7964 116.172 67.0892
16766 1 17.3339 117.783 64.538
22538 2 16.4296 116.173 65.8075
16764 1 18.2527 116.172 67.0892
22335 2 19.1579 117.781 65.812
16607 1 20.981 117.781 67.0937
17518 1 0.965409 120.998 64.5441
23043 2 2.7895 120.998 65.8181
23357 2 0.0612638 119.39 65.8156
17516 1 1.88429 119.39 67.0972
17517 1 3.69341 119.39 64.5415
23088 2 5.5175 119.39 65.8156
17211 1 4.61253 121 67.0998
17216 1 6.42165 120.998 64.5441
17263 1 9.14965 119.39 64.5415
22785 2 8.24574 120.998 65.8181
17210 1 7.34053 119.39 67.0972
16968 1 11.8779 120.998 64.5441
22784 2 10.9737 119.39 65.8156
16929 1 10.0688 121 67.0998
16967 1 14.6059 119.39 64.5415
22509 2 13.702 120.998 65.8181
16739 1 15.525 121 67.0998
16966 1 12.7968 119.39 67.0972
16744 1 17.3341 120.998 64.5441
22541 2 16.43 119.39 65.8156
16738 1 18.253 119.39 67.0972
16768 1 20.0621 119.39 64.5415
22334 2 19.1582 120.998 65.8181
16596 1 20.9812 121 67.0998
17483 1 0.965529 124.214 64.5464
23042 2 2.78962 124.215 65.8205
23358 2 0.0614627 122.607 65.8198
17479 1 1.88449 122.609 67.1015
17520 1 3.69361 122.606 64.5457
23041 2 5.5177 122.607 65.8198
17170 1 4.61265 124.218 67.1022
17214 1 9.14985 122.606 64.5457
17215 1 6.42177 124.214 64.5464
22742 2 8.24586 124.215 65.8205
17213 1 7.34073 122.609 67.1015
16933 1 11.878 124.214 64.5464
22787 2 10.9739 122.607 65.8198
16928 1 10.0689 124.218 67.1022
16970 1 14.6061 122.606 64.5457
22508 2 13.7021 124.215 65.8205
16716 1 15.5251 124.218 67.1022
16927 1 12.797 122.609 67.1015
16743 1 17.3342 124.214 64.5464
22507 2 16.4302 122.607 65.8198
16741 1 18.2532 122.609 67.1015
16742 1 20.0623 122.606 64.5457
22315 2 19.1583 124.215 65.8205
16595 1 20.9814 124.218 67.1022
17482 1 0.965495 127.429 64.545
23007 2 2.78959 127.432 65.8191
23329 2 0.0615067 125.824 65.8203
17480 1 1.88453 125.828 67.102
17481 1 3.69365 125.821 64.5462
23044 2 5.51775 125.824 65.8203
17169 1 4.61261 127.437 67.1008
17174 1 6.42173 127.429 64.545
17217 1 9.14989 125.821 64.5462
22741 2 8.24583 127.432 65.8191
17168 1 7.34077 125.828 67.102
16932 1 11.878 127.429 64.545
22740 2 10.974 125.824 65.8203
16893 1 10.0688 127.437 67.1008
16931 1 14.6061 125.821 64.5462
22477 2 13.7021 127.432 65.8191
16715 1 15.5251 127.437 67.1008
16930 1 12.797 125.828 67.102
16720 1 17.3342 127.429 64.545
22510 2 16.4302 125.824 65.8203
16714 1 18.2532 125.828 67.102
16745 1 20.0624 125.821 64.5462
22314 2 19.1583 127.432 65.8191
16584 1 20.9813 127.437 67.1008
23330 2 0.0613938 129.041 65.817
17451 1 1.88441 129.046 67.0987
17484 1 3.69354 129.037 64.5429
23005 2 5.51763 129.041 65.817
17172 1 9.14978 129.037 64.5429
17171 1 7.34065 129.046 67.0987
22743 2 10.9739 129.041 65.817
16934 1 14.606 129.037 64.5429
16891 1 12.7969 129.046 67.0987
22475 2 16.4301 129.041 65.817
16717 1 18.2531 129.046 67.0987
16718 1 20.0623 129.037 64.5429
17455 1 0.965305 130.644 64.5399
23006 2 2.7894 130.649 65.8139
23309 2 0.061127 132.258 65.8098
17452 1 1.88413 132.265 67.0915
17136 1 4.61241 130.656 67.0956
17453 1 3.69327 132.252 64.5358
23008 2 5.51737 132.258 65.8098
17173 1 6.42154 130.644 64.5399
22702 2 8.24564 130.649 65.8139
17175 1 9.14951 132.252 64.5358
17134 1 7.34037 132.265 67.0915
16897 1 11.8778 130.644 64.5399
16892 1 10.0686 130.656 67.0956
22700 2 10.9736 132.258 65.8098
22476 2 13.7019 130.649 65.8139
16692 1 15.5249 130.656 67.0956
16895 1 14.6058 132.252 64.5358
16894 1 12.7966 132.265 67.0915
16719 1 17.334 130.644 64.5399
22478 2 16.4298 132.258 65.8098
16690 1 18.2528 132.265 67.0915
22295 2 19.1581 130.649 65.8139
16583 1 20.9811 130.656 67.0956
16721 1 20.062 132.252 64.5358
17454 1 0.964968 133.86 64.5309
22979 2 2.78906 133.866 65.8048
23310 2 0.0607154 135.475 65.7988
17431 1 1.8837 135.484 67.0805
17456 1 3.69287 135.468 64.5249
22977 2 5.51695 135.475 65.7988
17135 1 4.61205 133.875 67.0865
17138 1 9.14911 135.468 64.5249
17140 1 6.42121 133.86 64.5309
22701 2 8.2453 133.866 65.8048
17137 1 7.33994 135.484 67.0805
16896 1 11.8774 133.86 64.5309
22703 2 10.9732 135.475 65.7988
16861 1 10.0683 133.875 67.0865
16898 1 14.6053 135.468 64.5249
22445 2 13.7015 133.866 65.8048
16691 1 15.5245 133.875 67.0865
16859 1 12.7962 135.484 67.0805
16696 1 17.3337 133.86 64.5309
22443 2 16.4294 135.475 65.7988
16693 1 18.2524 135.484 67.0805
16694 1 20.0616 135.468 64.5249
22294 2 19.1578 133.866 65.8048
16572 1 20.9808 133.875 67.0865
17435 1 0.964498 137.075 64.518
22978 2 2.78858 137.084 65.7919
23297 2 0.060176 138.692 65.7839
17432 1 1.88314 138.703 67.0655
17433 1 3.69234 138.683 64.51
22980 2 5.51641 138.692 65.7839
17110 1 4.61155 137.094 67.0735
17139 1 6.42074 137.075 64.518
17141 1 9.14858 138.683 64.51
22670 2 8.24482 137.084 65.7919
17108 1 7.33937 138.703 67.0655
16865 1 11.877 137.075 64.518
22668 2 10.9727 138.692 65.7839
16860 1 10.0678 137.094 67.0735
16863 1 14.6048 138.683 64.51
22444 2 13.7011 137.084 65.7919
16668 1 15.524 137.094 67.0735
16862 1 12.7956 138.703 67.0655
16695 1 17.3332 137.075 64.518
22446 2 16.4289 138.692 65.7839
16666 1 18.2519 138.703 67.0655
16697 1 20.0611 138.683 64.51
22275 2 19.1573 137.084 65.7919
16571 1 20.9803 137.094 67.0735
17434 1 0.963918 140.291 64.5011
22959 2 2.78799 140.301 65.7749
23298 2 0.0595343 141.91 65.7649
17419 1 1.88247 141.922 67.0464
17436 1 3.69172 141.899 64.4912
22957 2 5.51577 141.91 65.7649
17109 1 4.61093 140.313 67.0565
17112 1 9.14795 141.899 64.4912
17114 1 6.42016 140.291 64.5011
22669 2 8.24422 140.301 65.7749
17111 1 7.3387 141.922 67.0464
16864 1 11.8764 140.291 64.5011
22671 2 10.972 141.91 65.7649
16837 1 10.0672 140.313 67.0565
16866 1 14.6042 141.899 64.4912
22417 2 13.7005 140.301 65.7749
16667 1 15.5234 140.313 67.0565
16835 1 12.7949 141.922 67.0464
16672 1 17.3326 140.291 64.5011
22415 2 16.4282 141.91 65.7649
16669 1 18.2512 141.922 67.0464
16670 1 20.0604 141.899 64.4912
22274 2 19.1567 140.301 65.7749
16560 1 20.9796 140.313 67.0565
17423 1 0.96326 143.507 64.4801
22958 2 2.7873 143.519 65.7538
23293 2 0.0588247 145.128 65.7417
17420 1 1.88172 145.142 67.0231
17421 1 3.69103 145.115 64.4681
22960 2 5.51506 145.128 65.7417
17092 1 4.61022 143.532 67.0353
17113 1 6.4195 143.507 64.4801
17115 1 9.14727 145.115 64.4681
22646 2 8.24354 143.519 65.7538
17090 1 7.33796 145.142 67.0231
16841 1 11.8757 143.507 64.4801
22644 2 10.9713 145.128 65.7417
16836 1 10.0665 143.532 67.0353
16839 1 14.6035 145.115 64.4681
22416 2 13.6998 143.519 65.7538
16648 1 15.5227 143.532 67.0353
16838 1 12.7942 145.142 67.0231
16671 1 17.332 143.507 64.4801
22418 2 16.4275 145.128 65.7417
16646 1 18.2504 145.142 67.0231
16673 1 20.0597 145.115 64.4681
22255 2 19.156 143.519 65.7538
16559 1 20.9789 143.532 67.0353
17422 1 0.962565 146.724 64.4549
22947 2 2.78658 146.737 65.7285
17424 1 3.69034 148.332 64.4407
17091 1 4.60946 146.752 67.0099
17094 1 9.14658 148.332 64.4407
17096 1 6.4188 146.724 64.4549
22645 2 8.24282 146.737 65.7285
16840 1 11.875 146.724 64.4549
16821 1 10.0657 146.752 67.0099
16842 1 14.6028 148.332 64.4407
22397 2 13.6991 146.737 65.7285
16647 1 15.5219 146.752 67.0099
16652 1 17.3313 146.724 64.4549
16650 1 20.0591 148.332 64.4407
22254 2 19.1553 146.737 65.7285
16548 1 20.9782 146.752 67.0099
23294 2 0.0580898 148.346 65.7142
17415 1 1.88096 148.362 66.9954
22946 2 2.78585 149.955 65.6987
22945 2 5.51433 148.346 65.7142
17079 1 4.6087 149.972 66.9799
17093 1 7.3372 148.362 66.9954
22627 2 8.24209 149.955 65.6987
22647 2 10.9706 148.346 65.7142
16820 1 10.0649 149.972 66.9799
16819 1 12.7934 148.362 66.9954
22396 2 13.6983 149.955 65.6987
16633 1 15.5212 149.972 66.9799
22395 2 16.4268 148.346 65.7142
16649 1 18.2497 148.362 66.9954
22237 2 19.1546 149.955 65.6987
16547 1 20.9774 149.972 66.9799
17603 1 0.0718483 103.278 69.5769
15190 1 2.7996 101.667 69.5633
21071 2 0.977556 101.675 68.2741
17293 1 5.52809 103.278 69.5769
23172 2 3.70601 103.286 68.2877
22853 2 9.16225 103.286 68.2877
14910 1 8.25584 101.667 69.5633
20728 2 6.43379 101.675 68.2741
17019 1 10.9843 103.278 69.5769
20479 2 11.89 101.675 68.2741
22578 2 14.6185 103.286 68.2877
14713 1 13.7121 101.667 69.5633
16774 1 16.4406 103.278 69.5769
20312 2 17.3463 101.675 68.2741
22355 2 20.0747 103.286 68.2877
14621 1 19.1683 101.667 69.5633
17294 1 2.80034 104.89 69.5894
17557 1 0.0725894 106.501 69.6009
23130 2 0.978238 104.896 68.3002
17295 1 5.52883 106.501 69.6009
23128 2 3.7067 106.507 68.3116
16993 1 8.25658 104.89 69.5894
22854 2 6.43448 104.896 68.3002
22855 2 9.16294 106.507 68.3116
16991 1 10.9851 106.501 69.6009
22560 2 11.8907 104.896 68.3002
16775 1 13.7128 104.89 69.5894
22558 2 14.6192 106.507 68.3116
16776 1 16.4413 106.501 69.6009
22356 2 17.347 104.896 68.3002
16614 1 19.1691 104.89 69.5894
22357 2 20.0754 106.507 68.3116
17254 1 2.80107 108.112 69.6114
17558 1 0.0732968 109.723 69.6208
23129 2 0.978915 108.117 68.3221
17252 1 5.52954 109.723 69.6208
23131 2 3.70736 109.727 68.3315
16992 1 8.25731 108.112 69.6114
22820 2 9.1636 109.727 68.3315
22822 2 6.43515 108.117 68.3221
16994 1 10.9858 109.723 69.6208
22559 2 11.8914 108.117 68.3221
16759 1 13.7135 108.112 69.6114
22561 2 14.6198 109.727 68.3315
16757 1 16.442 109.723 69.6208
22348 2 17.3476 108.117 68.3221
16613 1 19.1698 108.112 69.6114
22346 2 20.0761 109.727 68.3315
17253 1 2.80174 111.334 69.6292
23083 2 0.979546 111.338 68.3399
16961 1 8.25798 111.334 69.6292
22821 2 6.43578 111.338 68.3399
22536 2 11.892 111.338 68.3399
16758 1 13.7142 111.334 69.6292
22347 2 17.3483 111.338 68.3399
16606 1 19.1705 111.334 69.6292
17513 1 0.0739282 112.945 69.6367
17208 1 2.80231 114.556 69.6431
23082 2 0.980097 114.558 68.3537
17255 1 5.53017 112.945 69.6367
23081 2 3.70795 112.948 68.3473
22823 2 9.16419 112.948 68.3473
16960 1 8.25854 114.556 69.6431
22782 2 6.43634 114.558 68.3537
16959 1 10.9864 112.945 69.6367
22535 2 11.8926 114.558 68.3537
22534 2 14.6204 112.948 68.3473
16736 1 13.7148 114.556 69.6431
16760 1 16.4426 112.945 69.6367
22332 2 17.3488 114.558 68.3537
22349 2 20.0767 112.948 68.3473
16605 1 19.171 114.556 69.6431
17207 1 2.80276 117.779 69.6532
17514 1 0.0744239 116.167 69.6486
23039 2 0.980503 117.778 68.3638
17206 1 5.53066 116.167 69.6486
23084 2 3.70844 116.168 68.3592
16925 1 8.259 117.779 69.6532
22780 2 9.16468 116.168 68.3592
22781 2 6.43674 117.778 68.3638
16962 1 10.9869 116.167 69.6486
22505 2 11.893 117.778 68.3638
16735 1 13.7152 117.779 69.6532
22537 2 14.6209 116.168 68.3592
16734 1 16.4431 116.167 69.6486
22331 2 17.3492 117.778 68.3638
16594 1 19.1715 117.779 69.6532
22330 2 20.0772 116.168 68.3592
17166 1 2.80304 121 69.6594
17477 1 0.0747949 119.39 69.6568
23038 2 0.980771 120.999 68.3699
17209 1 5.53103 119.39 69.6568
23037 2 3.70877 119.389 68.3673
16924 1 8.25928 121 69.6594
22738 2 6.43701 120.999 68.3699
22783 2 9.16501 119.389 68.3673
16923 1 10.9873 119.39 69.6568
22504 2 11.8932 120.999 68.3699
16712 1 13.7155 121 69.6594
22503 2 14.6213 119.389 68.3673
16737 1 16.4435 119.39 69.6568
22312 2 17.3495 120.999 68.3699
16593 1 19.1718 121 69.6594
22333 2 20.0775 119.389 68.3673
17165 1 2.80316 124.222 69.6618
17478 1 0.0750005 122.611 69.6611
23003 2 0.980892 124.219 68.3723
17164 1 5.53124 122.611 69.6611
23040 2 3.70897 122.609 68.3716
16889 1 8.2594 124.222 69.6618
22736 2 9.16521 122.609 68.3716
22737 2 6.43713 124.219 68.3723
16926 1 10.9875 122.611 69.6611
22473 2 11.8934 124.219 68.3723
16711 1 13.7156 124.222 69.6618
22506 2 14.6214 122.609 68.3716
16710 1 16.4437 122.611 69.6611
22311 2 17.3496 124.219 68.3723
16582 1 19.1719 124.222 69.6618
22310 2 20.0777 122.609 68.3716
17132 1 2.80312 127.444 69.6604
17449 1 0.0750412 125.833 69.6616
23002 2 0.980854 127.439 68.3709
17167 1 5.53128 125.833 69.6616
23001 2 3.70901 125.829 68.3721
16888 1 8.25936 127.444 69.6604
22698 2 6.43709 127.439 68.3709
22739 2 9.16525 125.829 68.3721
16887 1 10.9875 125.833 69.6616
22472 2 11.8933 127.439 68.3709
16688 1 13.7156 127.444 69.6604
22471 2 14.6215 125.829 68.3721
16713 1 16.4438 125.833 69.6616
22292 2 17.3496 127.439 68.3709
16581 1 19.1718 127.444 69.6604
22313 2 20.0777 125.829 68.3721
17450 1 0.074912 129.055 69.6582
17130 1 5.53115 129.055 69.6582
23004 2 3.70889 129.049 68.3688
22696 2 9.16513 129.049 68.3688
16890 1 10.9874 129.055 69.6582
22474 2 14.6214 129.049 68.3688
16686 1 16.4436 129.055 69.6582
22290 2 20.0776 129.049 68.3688
17131 1 2.8029 130.666 69.6551
22975 2 0.980654 130.659 68.3657
17429 1 0.0746118 132.277 69.651
17133 1 5.53085 132.277 69.651
22973 2 3.70861 132.27 68.3616
16857 1 8.25914 130.666 69.6551
22697 2 6.43689 130.659 68.3657
22699 2 9.16485 132.27 68.3616
22441 2 11.8931 130.659 68.3657
16855 1 10.9871 132.277 69.651
16687 1 13.7154 130.666 69.6551
22439 2 14.6211 132.27 68.3616
22291 2 17.3494 130.659 68.3657
16689 1 16.4433 132.277 69.651
16570 1 19.1716 130.666 69.6551
22293 2 20.0773 132.27 68.3616
17106 1 2.80252 133.888 69.646
17430 1 0.0741453 135.5 69.6399
22974 2 0.980295 133.88 68.3565
17104 1 5.53038 135.5 69.6399
22976 2 3.70818 135.49 68.3505
16856 1 8.25876 133.888 69.646
22664 2 9.16442 135.49 68.3505
22666 2 6.43653 133.88 68.3565
16858 1 10.9866 135.5 69.6399
22440 2 11.8928 133.88 68.3565
16664 1 13.715 133.888 69.646
22442 2 14.6207 135.49 68.3505
16662 1 16.4429 135.5 69.6399
22272 2 17.349 133.88 68.3565
16569 1 19.1712 133.888 69.646
22270 2 20.0769 135.49 68.3505
17105 1 2.80197 137.111 69.6329
17417 1 0.0735248 138.722 69.6248
22955 2 0.979786 137.1 68.3435
17107 1 5.52976 138.722 69.6248
22953 2 3.7076 138.711 68.3354
16833 1 8.25821 137.111 69.6329
22665 2 6.43602 137.1 68.3435
22667 2 9.16384 138.711 68.3354
16831 1 10.986 138.722 69.6248
22413 2 11.8923 137.1 68.3435
16663 1 13.7144 137.111 69.6329
22411 2 14.6201 138.711 68.3354
16665 1 16.4422 138.722 69.6248
22271 2 17.3485 137.1 68.3435
16558 1 19.1707 137.111 69.6329
22273 2 20.0763 138.711 68.3354
17088 1 2.80128 140.333 69.6157
17418 1 0.072772 141.945 69.6056
22954 2 0.979146 140.321 68.3264
17086 1 5.52901 141.945 69.6056
22956 2 3.7069 141.932 68.3163
16832 1 8.25752 140.333 69.6157
22640 2 9.16314 141.932 68.3163
22642 2 6.43538 140.321 68.3264
16834 1 10.9852 141.945 69.6056
22412 2 11.8916 140.321 68.3264
16644 1 13.7138 140.333 69.6157
22414 2 14.6194 141.932 68.3163
16642 1 16.4415 141.945 69.6056
22252 2 17.3479 140.321 68.3264
16557 1 19.17 140.333 69.6157
22250 2 20.0756 141.932 68.3163
17087 1 2.80048 143.556 69.5944
17413 1 0.07192 145.167 69.5821
22943 2 0.978403 143.542 68.3051
17089 1 5.52816 145.167 69.5821
22941 2 3.70612 145.153 68.2929
16817 1 8.25671 143.556 69.5944
22641 2 6.43464 143.542 68.3051
22643 2 9.16236 145.153 68.2929
16815 1 10.9844 145.167 69.5821
22393 2 11.8909 143.542 68.3051
16643 1 13.713 143.556 69.5944
22391 2 14.6186 145.153 68.2929
16645 1 16.4406 145.167 69.5821
22251 2 17.3471 143.542 68.3051
16546 1 19.1692 143.556 69.5944
22253 2 20.0748 145.153 68.2929
17078 1 2.79959 146.779 69.5687
22942 2 0.977593 146.764 68.2795
16816 1 8.25583 146.779 69.5687
22626 2 6.43383 146.764 68.2795
22392 2 11.8901 146.764 68.2795
16632 1 13.7121 146.779 69.5687
22236 2 17.3463 146.764 68.2795
16545 1 19.1683 146.779 69.5687
17414 1 0.071014 148.391 69.5542
17077 1 2.79868 150.002 69.5385
22936 2 0.976765 149.985 68.2495
17076 1 5.52725 148.391 69.5542
22944 2 3.7053 148.374 68.2651
22624 2 9.16154 148.374 68.2651
16806 1 8.25492 150.002 69.5385
22625 2 6.433 149.985 68.2495
16818 1 10.9835 148.391 69.5542
22378 2 11.8892 149.985 68.2495
22394 2 14.6178 148.374 68.2651
16631 1 13.7112 150.002 69.5385
16630 1 16.4397 148.391 69.5542
22235 2 17.3455 149.985 68.2495
22234 2 20.074 148.374 68.2651
16536 1 19.1674 150.002 69.5385
23126 2 1.89705 103.268 70.8341
15188 1 0.984923 101.648 72.1389
17292 1 3.71349 103.261 72.1526
20726 2 4.62478 101.656 70.8205
16988 1 9.16973 103.261 72.1526
22852 2 7.35329 103.268 70.8341
14900 1 6.44116 101.648 72.1389
14711 1 11.8974 101.648 72.1389
20465 2 10.081 101.656 70.8205
16773 1 14.626 103.261 72.1526
22555 2 12.8095 103.268 70.8341
20310 2 15.5373 101.656 70.8205
22354 2 18.2658 103.268 70.8341
14612 1 17.3536 101.648 72.1389
16610 1 20.0822 103.261 72.1526
20240 2 20.9935 101.656 70.8205
17250 1 0.985825 104.874 72.1652
23127 2 1.89782 106.492 70.8582
17248 1 3.71438 106.487 72.1767
22818 2 4.62556 104.88 70.8467
16989 1 6.44206 104.874 72.1652
16990 1 9.17062 106.487 72.1767
22816 2 7.35406 106.492 70.8582
16755 1 11.8983 104.874 72.1652
22556 2 10.0818 104.88 70.8467
16753 1 14.6269 106.487 72.1767
22344 2 15.538 104.88 70.8467
22557 2 12.8103 106.492 70.8582
16611 1 17.3545 104.874 72.1652
22342 2 18.2665 106.492 70.8582
16612 1 20.0831 106.487 72.1767
22212 2 20.9943 104.88 70.8467
17249 1 0.986691 108.1 72.1872
23079 2 1.89855 109.716 70.8781
17251 1 3.71522 109.712 72.1967
22817 2 4.62632 108.104 70.8687
16955 1 9.17145 109.712 72.1967
16957 1 6.44293 108.1 72.1872
22819 2 7.35479 109.716 70.8781
16754 1 11.8992 108.1 72.1872
22532 2 10.0826 108.104 70.8687
16756 1 14.6277 109.712 72.1967
22343 2 15.5388 108.104 70.8687
22530 2 12.811 109.716 70.8781
16603 1 17.3554 108.1 72.1872
22345 2 18.2673 109.716 70.8781
16601 1 20.0839 109.712 72.1967
22211 2 20.995 108.104 70.8687
17204 1 0.987473 111.325 72.2052
22778 2 4.62701 111.328 70.8866
16956 1 6.44371 111.325 72.2052
16732 1 11.9 111.325 72.2052
22531 2 10.0832 111.328 70.8866
22328 2 15.5395 111.328 70.8866
16602 1 17.3562 111.325 72.2052
22210 2 20.9957 111.328 70.8866
23080 2 1.8992 112.94 70.894
17203 1 0.988127 114.551 72.2191
17202 1 3.71594 112.938 72.2126
22777 2 4.62759 114.551 70.9005
16958 1 9.17218 112.938 72.2126
22776 2 7.35544 112.94 70.894
16921 1 6.44437 114.551 72.2191
16731 1 11.9006 114.551 72.2191
22501 2 10.0838 114.551 70.9005
16730 1 14.6284 112.938 72.2126
22533 2 12.8117 112.94 70.894
22327 2 15.5401 114.551 70.9005
22326 2 18.2679 112.94 70.894
16591 1 17.3568 114.551 72.2191
16604 1 20.0847 112.938 72.2126
22204 2 20.9963 114.551 70.9005
17162 1 0.988626 117.776 72.2292
23035 2 1.89972 116.163 70.906
17205 1 3.71652 116.163 72.2246
22734 2 4.62805 117.775 70.9106
16919 1 9.17275 116.163 72.2246
16920 1 6.44486 117.776 72.2292
22779 2 7.35596 116.163 70.906
16708 1 11.9011 117.776 72.2292
22500 2 10.0843 117.775 70.9106
16733 1 14.629 116.163 72.2246
22308 2 15.5405 117.775 70.9106
22499 2 12.8122 116.163 70.906
16590 1 17.3573 117.776 72.2292
22329 2 18.2684 116.163 70.906
16589 1 20.0852 116.163 72.2246
22203 2 20.9968 117.775 70.9106
17161 1 0.988949 121.001 72.2355
23036 2 1.90009 119.387 70.9142
17160 1 3.71693 119.389 72.2328
22733 2 4.62834 120.998 70.9168
16885 1 6.44519 121.001 72.2355
16922 1 9.17317 119.389 72.2328
22732 2 7.35633 119.387 70.9142
16707 1 11.9014 121.001 72.2355
22469 2 10.0846 120.998 70.9168
16706 1 14.6294 119.389 72.2328
22307 2 15.5408 120.998 70.9168
22502 2 12.8126 119.387 70.9142
16579 1 17.3577 121.001 72.2355
22306 2 18.2688 119.387 70.9142
16592 1 20.0856 119.389 72.2328
22196 2 20.9971 120.998 70.9168
17128 1 0.989088 124.226 72.2379
22999 2 1.90031 122.61 70.9185
17163 1 3.71716 122.614 72.2372
22694 2 4.62847 124.222 70.9192
16883 1 9.1734 122.614 72.2372
16884 1 6.44533 124.226 72.2379
22735 2 7.35654 122.61 70.9185
16684 1 11.9016 124.226 72.2379
22468 2 10.0847 124.222 70.9192
16709 1 14.6296 122.614 72.2372
22288 2 15.5409 124.222 70.9192
22467 2 12.8128 122.61 70.9185
16578 1 17.3578 124.226 72.2379
22309 2 18.269 122.61 70.9185
16577 1 20.0859 122.614 72.2372
22195 2 20.9972 124.222 70.9192
17127 1 0.989041 127.452 72.2365
23000 2 1.90035 125.833 70.919
17126 1 3.71721 125.839 72.2377
22693 2 4.62843 127.445 70.9178
16853 1 6.44528 127.452 72.2365
16886 1 9.17345 125.839 72.2377
22692 2 7.35659 125.833 70.919
16683 1 11.9015 127.452 72.2365
22437 2 10.0847 127.445 70.9178
16682 1 14.6297 125.839 72.2377
22287 2 15.5409 127.445 70.9178
22470 2 12.8128 125.833 70.919
16567 1 17.3578 127.452 72.2365
22286 2 18.2691 125.833 70.919
16580 1 20.0859 125.839 72.2377
22188 2 20.9971 127.445 70.9178
22971 2 1.90023 129.057 70.9156
17129 1 3.71706 129.064 72.2343
16851 1 9.1733 129.064 72.2343
22695 2 7.35647 129.057 70.9156
16685 1 14.6295 129.064 72.2343
22435 2 12.8127 129.057 70.9156
22289 2 18.2689 129.057 70.9156
16565 1 20.0858 129.064 72.2343
17102 1 0.988802 130.677 72.2312
22972 2 1.89993 132.28 70.9084
22662 2 4.62822 130.668 70.9125
17100 1 3.71673 132.29 72.2271
16852 1 6.44504 130.677 72.2312
16854 1 9.17297 132.29 72.2271
22660 2 7.35617 132.28 70.9084
16660 1 11.9013 130.677 72.2312
22436 2 10.0845 130.668 70.9125
22268 2 15.5407 130.668 70.9125
16658 1 14.6292 132.29 72.2271
22438 2 12.8124 132.28 70.9084
16566 1 17.3575 130.677 72.2312
22266 2 18.2686 132.28 70.9084
22187 2 20.9969 130.668 70.9125
16568 1 20.0854 132.29 72.2271
17101 1 0.988368 133.902 72.222
22951 2 1.89946 135.504 70.8972
17103 1 3.7162 135.515 72.2159
22661 2 4.62784 133.892 70.9033
16827 1 9.17244 135.515 72.2159
16829 1 6.44461 133.902 72.222
22663 2 7.3557 135.504 70.8972
16659 1 11.9008 133.902 72.222
22409 2 10.0841 133.892 70.9033
16661 1 14.6287 135.515 72.2159
22267 2 15.5403 133.892 70.9033
22407 2 12.8119 135.504 70.8972
16555 1 17.3571 133.902 72.222
22269 2 18.2682 135.504 70.8972
16553 1 20.0849 135.515 72.2159
22180 2 20.9966 133.892 70.9033
17084 1 0.987744 137.128 72.2088
22952 2 1.89884 138.728 70.882
17082 1 3.71548 138.741 72.2007
22638 2 4.62729 137.116 70.8901
16828 1 6.44398 137.128 72.2088
16830 1 9.17172 138.741 72.2007
22636 2 7.35507 138.728 70.882
16640 1 11.9002 137.128 72.2088
22408 2 10.0835 137.116 70.8901
16638 1 14.628 138.741 72.2007
22248 2 15.5398 137.116 70.8901
22410 2 12.8113 138.728 70.882
16554 1 17.3565 137.128 72.2088
22246 2 18.2676 138.728 70.882
16556 1 20.0842 138.741 72.2007
22179 2 20.996 137.116 70.8901
17083 1 0.986938 140.354 72.1915
22939 2 1.89806 141.952 70.8627
17085 1 3.71459 141.967 72.1813
22637 2 4.62658 140.34 70.8729
16811 1 9.17083 141.967 72.1813
16813 1 6.44318 140.354 72.1915
22639 2 7.3543 141.952 70.8627
16639 1 11.8994 140.354 72.1915
22389 2 10.0828 140.34 70.8729
16641 1 14.6271 141.967 72.1813
22247 2 15.5391 140.34 70.8729
22387 2 12.8105 141.952 70.8627
16543 1 17.3557 140.354 72.1915
22249 2 18.2668 141.952 70.8627
16541 1 20.0833 141.967 72.1813
22172 2 20.9953 140.34 70.8729
17074 1 0.985973 143.58 72.17
22940 2 1.89717 145.177 70.8392
17072 1 3.71356 145.193 72.1576
22622 2 4.62575 143.564 70.8515
16812 1 6.44221 143.58 72.17
16814 1 9.1698 145.193 72.1576
22620 2 7.35341 145.177 70.8392
16628 1 11.8984 143.58 72.17
22388 2 10.082 143.564 70.8515
16626 1 14.626 145.193 72.1576
22232 2 15.5382 143.564 70.8515
22390 2 12.8096 145.177 70.8392
16542 1 17.3547 143.58 72.17
22230 2 18.2659 145.177 70.8392
16544 1 20.0823 145.193 72.1576
22171 2 20.9945 143.564 70.8515
17073 1 0.984886 146.806 72.1442
22621 2 4.62482 146.789 70.8258
16805 1 6.44112 146.806 72.1442
16627 1 11.8974 146.806 72.1442
22377 2 10.0811 146.789 70.8258
22231 2 15.5373 146.789 70.8258
16535 1 17.3536 146.806 72.1442
22164 2 20.9935 146.789 70.8258
22935 2 1.89621 148.401 70.8112
17069 1 0.983729 150.033 72.1138
17075 1 3.71243 148.42 72.1296
22611 2 4.62383 150.014 70.7955
16803 1 9.16867 148.42 72.1296
22623 2 7.35245 148.401 70.8112
16804 1 6.43997 150.033 72.1138
16621 1 11.8962 150.033 72.1138
22376 2 10.0801 150.014 70.7955
16629 1 14.6249 148.42 72.1296
22375 2 12.8087 148.401 70.8112
22221 2 15.5363 150.014 70.7955
22233 2 18.2649 148.401 70.8112
16534 1 17.3524 150.033 72.1138
16533 1 20.0811 148.42 72.1296
22163 2 20.9926 150.014 70.7955
23125 2 0.0863105 103.249 73.3659
20716 2 2.81397 101.635 73.3523
17246 1 1.83994 103.248 74.8039
20714 2 0.975729 101.62 75.8267
22813 2 5.54255 103.249 73.3659
22812 2 3.70443 103.235 75.8404
14898 1 4.56746 101.634 74.7902
20463 2 8.27021 101.635 73.3523
16987 1 7.29617 103.248 74.8039
22523 2 9.16067 103.235 75.8404
20457 2 6.43197 101.62 75.8267
22554 2 10.9988 103.249 73.3659
14705 1 10.0237 101.634 74.7902
20298 2 11.8882 101.62 75.8267
20300 2 13.7264 101.635 73.3523
16750 1 12.7524 103.248 74.8039
22338 2 14.6169 103.235 75.8404
14610 1 15.4799 101.634 74.7902
22339 2 16.455 103.249 73.3659
16609 1 18.2087 103.248 74.8039
20233 2 17.3444 101.62 75.8267
20238 2 19.1827 101.635 73.3523
22205 2 20.0731 103.235 75.8404
14593 1 20.9362 101.634 74.7902
22814 2 2.81488 104.863 73.3786
23077 2 0.0872085 106.477 73.3901
17247 1 1.84111 106.477 74.828
22770 2 0.976881 104.85 75.853
22815 2 5.54345 106.477 73.3901
16953 1 4.56865 104.862 74.8165
22768 2 3.70555 106.465 75.8646
22528 2 8.27112 104.863 73.3786
16951 1 7.29735 106.477 74.828
22524 2 6.43312 104.85 75.853
22525 2 9.16179 106.465 75.8646
22526 2 10.9997 106.477 73.3901
16751 1 10.0249 104.862 74.8165
22320 2 11.8894 104.85 75.853
22340 2 13.7274 104.863 73.3786
16599 1 15.4811 104.862 74.8165
16752 1 12.7536 106.477 74.828
22318 2 14.618 106.465 75.8646
22341 2 16.4559 106.477 73.3901
16597 1 18.2098 106.477 74.828
22206 2 17.3456 104.85 75.853
22209 2 19.1836 104.863 73.3786
16527 1 20.9374 104.862 74.8165
22207 2 20.0743 106.465 75.8646
22774 2 2.81575 108.09 73.4006
17200 1 1.84221 109.706 74.848
22769 2 0.977966 108.081 75.8752
23078 2 0.0880403 109.704 73.4101
16952 1 4.56979 108.091 74.8385
22771 2 3.70658 109.696 75.8847
22772 2 5.54428 109.704 73.4101
22527 2 8.27199 108.09 73.4006
16954 1 7.29845 109.706 74.848
22491 2 9.16282 109.696 75.8847
22493 2 6.4342 108.081 75.8752
16728 1 10.026 108.091 74.8385
22319 2 11.8904 108.081 75.8752
22529 2 11.0005 109.704 73.4101
22324 2 13.7282 108.09 73.4006
16598 1 15.4823 108.091 74.8385
16726 1 12.7547 109.706 74.848
22321 2 14.6191 109.696 75.8847
16600 1 18.2109 109.706 74.848
22199 2 17.3467 108.081 75.8752
22322 2 16.4568 109.704 73.4101
22208 2 19.1845 108.09 73.4006
16526 1 20.9385 108.091 74.8385
22197 2 20.0753 109.696 75.8847
22726 2 0.978928 111.311 75.8932
22773 2 2.81654 111.317 73.4186
16917 1 4.57082 111.32 74.8565
22492 2 6.43517 111.311 75.8932
22497 2 8.27277 111.317 73.4186
16727 1 10.0271 111.32 74.8565
22300 2 11.8914 111.311 75.8932
16587 1 15.4833 111.32 74.8565
22323 2 13.729 111.317 73.4186
22198 2 17.3476 111.311 75.8932
16525 1 20.9395 111.32 74.8565
22202 2 19.1853 111.317 73.4186
17201 1 1.84316 112.935 74.864
23033 2 0.0887612 112.931 73.4261
22725 2 0.979722 114.541 75.9072
22730 2 2.81719 114.544 73.4326
22724 2 3.70747 112.926 75.9007
22775 2 5.545 112.931 73.4261
16916 1 4.57168 114.549 74.8705
16915 1 7.2994 112.935 74.864
22494 2 9.16371 112.926 75.9007
22461 2 6.43596 114.541 75.9072
22496 2 8.27343 114.544 73.4326
22495 2 11.0012 112.931 73.4261
16704 1 10.0279 114.549 74.8705
22299 2 11.8922 114.541 75.9072
16729 1 12.7556 112.935 74.864
22298 2 14.6199 112.926 75.9007
16586 1 15.4842 114.549 74.8705
22304 2 13.7297 114.544 73.4326
16585 1 18.2119 112.935 74.864
22325 2 16.4575 112.931 73.4261
22191 2 17.3484 114.541 75.9072
22200 2 20.0762 112.926 75.9007
16524 1 20.9404 114.549 74.8705
22201 2 19.1859 114.544 73.4326
17158 1 1.84392 116.164 74.876
22686 2 0.980317 117.771 75.9173
22729 2 2.81769 117.771 73.4427
23034 2 0.0893405 116.157 73.4381
16881 1 4.57233 117.779 74.8806
22727 2 3.70817 116.156 75.9127
22728 2 5.54558 116.157 73.4381
16918 1 7.30015 116.164 74.876
22459 2 9.1644 116.156 75.9127
22460 2 6.43656 117.771 75.9173
22465 2 8.27393 117.771 73.4427
16703 1 10.0286 117.779 74.8806
22280 2 11.8928 117.771 75.9173
22498 2 11.0018 116.157 73.4381
16575 1 15.4848 117.779 74.8806
16702 1 12.7564 116.164 74.876
22301 2 14.6206 116.156 75.9127
22303 2 13.7302 117.771 73.4427
16588 1 18.2126 116.164 74.876
22190 2 17.349 117.771 75.9173
22302 2 16.4581 116.157 73.4381
16523 1 20.941 117.779 74.8806
22189 2 20.0769 116.156 75.9127
22194 2 19.1864 117.771 73.4427
17159 1 1.84444 119.393 74.8842
22685 2 0.980698 121.001 75.9236
22690 2 2.81802 120.997 73.449
22997 2 0.0897555 119.384 73.4463
16880 1 4.57274 121.008 74.8869
22684 2 3.70865 119.386 75.9209
22731 2 5.54599 119.384 73.4463
16879 1 7.30068 119.393 74.8842
22429 2 6.43694 121.001 75.9236
22462 2 9.16489 119.386 75.9209
22464 2 8.27425 120.997 73.449
16680 1 10.029 121.008 74.8869
22279 2 11.8932 121.001 75.9236
22463 2 11.0022 119.384 73.4463
16574 1 15.4852 121.008 74.8869
16705 1 12.7569 119.393 74.8842
22278 2 14.6211 119.386 75.9209
22284 2 13.7305 120.997 73.449
16573 1 18.2132 119.393 74.8842
22183 2 17.3494 121.001 75.9236
22305 2 16.4585 119.384 73.4463
16522 1 20.9415 121.008 74.8869
22192 2 20.0774 119.386 75.9209
22193 2 19.1867 120.997 73.449
17124 1 1.84473 122.623 74.8885
22654 2 0.980865 124.231 75.9259
22689 2 2.81816 124.223 73.4514
22998 2 0.0899928 122.61 73.4507
16849 1 4.57291 124.238 74.8893
22687 2 3.70893 122.616 75.9252
22688 2 5.54623 122.61 73.4507
16882 1 7.30097 122.623 74.8885
22427 2 9.16517 122.616 75.9252
22428 2 6.4371 124.231 75.9259
22433 2 8.2744 124.223 73.4514
16679 1 10.0291 124.238 74.8893
22260 2 11.8933 124.231 75.9259
22466 2 11.0025 122.61 73.4507
16563 1 15.4854 124.238 74.8893
16678 1 12.7572 122.623 74.8885
22281 2 14.6214 122.616 75.9252
22283 2 13.7306 124.223 73.4514
16576 1 18.2134 122.623 74.8885
22182 2 17.3496 124.231 75.9259
22282 2 16.4587 122.61 73.4507
16521 1 20.9416 124.238 74.8893
22181 2 20.0776 122.616 75.9252
22186 2 19.1869 124.223 73.4514
17125 1 1.84479 125.852 74.889
22653 2 0.980814 127.461 75.9244
22658 2 2.81813 127.45 73.4499
22969 2 0.0900481 125.837 73.4511
16848 1 4.57285 127.467 74.8878
22652 2 3.70899 125.846 75.9257
22691 2 5.54629 125.837 73.4511
16847 1 7.30103 125.852 74.889
22401 2 6.43705 127.461 75.9244
22430 2 9.16522 125.846 75.9257
22432 2 8.27436 127.45 73.4499
16656 1 10.0291 127.467 74.8878
22259 2 11.8933 127.461 75.9244
22431 2 11.0025 125.837 73.4511
16562 1 15.4853 127.467 74.8878
16681 1 12.7573 125.852 74.889
22258 2 14.6215 125.846 75.9257
22264 2 13.7306 127.45 73.4499
16561 1 18.2135 125.852 74.889
22175 2 17.3495 127.461 75.9244
22285 2 16.4588 125.837 73.4511
16520 1 20.9416 127.467 74.8878
22184 2 20.0777 125.846 75.9257
22185 2 19.1868 127.45 73.4499
17098 1 1.8446 129.082 74.8856
22970 2 0.0899175 129.063 73.4477
22655 2 3.70882 129.076 75.9222
22656 2 5.54616 129.063 73.4477
16850 1 7.30084 129.082 74.8856
22399 2 9.16506 129.076 75.9222
22434 2 11.0024 129.063 73.4477
16654 1 12.7571 129.082 74.8856
22261 2 14.6213 129.076 75.9222
16564 1 18.2133 129.082 74.8856
22262 2 16.4586 129.063 73.4477
22173 2 20.0775 129.076 75.9222
22630 2 0.980537 130.691 75.919
22657 2 2.8179 130.677 73.4446
17099 1 1.84416 132.311 74.8783
22949 2 0.0895962 132.29 73.4404
16825 1 4.57254 130.697 74.8824
22628 2 3.70843 132.306 75.9148
22659 2 5.54583 132.29 73.4404
22400 2 6.43678 130.691 75.919
22405 2 8.27414 130.677 73.4446
16823 1 7.3004 132.311 74.8783
22402 2 9.16467 132.306 75.9148
16655 1 10.0288 130.697 74.8824
22240 2 11.893 130.691 75.919
22403 2 11.0021 132.29 73.4404
16551 1 15.485 130.697 74.8824
22263 2 13.7304 130.677 73.4446
16657 1 12.7566 132.311 74.8783
22238 2 14.6209 132.306 75.9148
22174 2 17.3493 130.691 75.919
16549 1 18.2129 132.311 74.8783
22265 2 16.4583 132.29 73.4404
16519 1 20.9413 130.697 74.8824
22178 2 19.1866 130.677 73.4446
22176 2 20.0771 132.306 75.9148
17080 1 1.84346 135.541 74.867
22629 2 0.980025 133.922 75.9097
22634 2 2.81748 133.903 73.4353
22950 2 0.0890822 135.517 73.4292
16824 1 4.57197 133.926 74.8732
22631 2 3.7078 135.537 75.9035
22632 2 5.54532 135.517 73.4292
16826 1 7.2997 135.541 74.867
22379 2 9.16404 135.537 75.9035
22381 2 6.43626 133.922 75.9097
22404 2 8.27372 133.903 73.4353
16636 1 10.0282 133.926 74.8732
22239 2 11.8925 133.922 75.9097
22406 2 11.0016 135.517 73.4292
16550 1 15.4844 133.926 74.8732
16634 1 12.7559 135.541 74.867
22241 2 14.6203 135.537 75.9035
22244 2 13.73 133.903 73.4353
16552 1 18.2122 135.541 74.867
22167 2 17.3487 133.922 75.9097
22242 2 16.4578 135.517 73.4292
16518 1 20.9407 133.926 74.8732
22165 2 20.0765 135.537 75.9035
22177 2 19.1862 133.903 73.4353
17081 1 1.8425 138.771 74.8517
22614 2 0.979273 137.152 75.8963
22633 2 2.81687 137.13 73.4221
22937 2 0.0883789 138.744 73.4139
16809 1 4.57113 137.156 74.8599
22612 2 3.70693 138.767 75.8881
22635 2 5.54462 138.744 73.4139
16807 1 7.29874 138.771 74.8517
22380 2 6.43551 137.152 75.8963
22382 2 9.16316 138.767 75.8881
22385 2 8.27311 137.13 73.4221
16635 1 10.0274 137.156 74.8599
22224 2 11.8917 137.152 75.8963
22383 2 11.0009 138.744 73.4139
16539 1 15.4836 137.156 74.8599
16637 1 12.755 138.771 74.8517
22222 2 14.6194 138.767 75.8881
22243 2 13.7293 137.13 73.4221
16537 1 18.2112 138.771 74.8517
22166 2 17.348 137.152 75.8963
22245 2 16.4571 138.744 73.4139
16517 1 20.9399 137.156 74.8599
22168 2 20.0756 138.767 75.8881
22170 2 19.1856 137.13 73.4221
17070 1 1.8413 142.001 74.8323
22613 2 0.978282 140.383 75.8789
22618 2 2.81608 140.358 73.4047
22938 2 0.087498 141.971 73.3945
16808 1 4.57005 140.386 74.8425
22615 2 3.70582 141.998 75.8686
22616 2 5.54374 141.971 73.3945
16810 1 7.29754 142.001 74.8323
22367 2 9.16206 141.998 75.8686
22369 2 6.43452 140.383 75.8789
22384 2 8.27232 140.358 73.4047
16624 1 10.0263 140.386 74.8425
22223 2 11.8908 140.383 75.8789
22386 2 11 141.971 73.3945
16538 1 15.4825 140.386 74.8425
16622 1 12.7538 142.001 74.8323
22225 2 14.6183 141.998 75.8686
22228 2 13.7286 140.358 73.4047
16540 1 18.21 142.001 74.8323
22159 2 17.347 140.383 75.8789
22226 2 16.4562 141.971 73.3945
16516 1 20.9388 140.386 74.8425
22157 2 20.0745 141.998 75.8686
22169 2 19.1848 140.358 73.4047
17071 1 1.83989 145.23 74.8086
22606 2 0.977069 143.614 75.8573
22617 2 2.81512 143.585 73.3832
22933 2 0.0864633 145.199 73.3709
16801 1 4.56874 143.615 74.821
22604 2 3.70451 145.229 75.8449
22619 2 5.5427 145.199 73.3709
16799 1 7.29613 145.23 74.8086
22368 2 6.43331 143.614 75.8573
22370 2 9.16075 145.229 75.8449
22373 2 8.27136 143.585 73.3832
16623 1 10.025 143.615 74.821
22216 2 11.8895 143.614 75.8573
22371 2 10.9989 145.199 73.3709
16531 1 15.4812 143.615 74.821
16625 1 12.7524 145.23 74.8086
22214 2 14.617 145.229 75.8449
22227 2 13.7276 143.585 73.3832
16529 1 18.2086 145.23 74.8086
22158 2 17.3458 143.614 75.8573
22229 2 16.4552 145.199 73.3709
16515 1 20.9375 143.615 74.821
22160 2 20.0732 145.229 75.8449
22162 2 19.1838 143.585 73.3832
22605 2 0.975668 146.845 75.8314
22610 2 2.81402 146.813 73.3574
16800 1 4.56725 146.845 74.7951
22365 2 6.43191 146.845 75.8314
22372 2 8.27026 146.813 73.3574
16620 1 10.0235 146.845 74.7951
22215 2 11.8881 146.845 75.8314
16530 1 15.4797 146.845 74.7951
22220 2 13.7265 146.813 73.3574
22155 2 17.3444 146.845 75.8314
16514 1 20.936 146.845 74.7951
22161 2 19.1827 146.813 73.3574
17068 1 1.83834 148.459 74.7805
22934 2 0.0853132 148.427 73.3428
22603 2 0.974141 150.076 75.8011
22609 2 2.81283 150.042 73.3271
22607 2 3.70303 148.46 75.8168
22608 2 5.54155 148.427 73.3428
16798 1 4.56567 150.074 74.7648
16802 1 7.29458 148.459 74.7805
22363 2 9.15927 148.46 75.8168
22366 2 8.26907 150.042 73.3271
22364 2 6.43038 150.076 75.8011
22374 2 10.9978 148.427 73.3428
22213 2 11.8866 150.076 75.8011
16619 1 10.0219 150.074 74.7648
16618 1 12.7508 148.459 74.7805
22217 2 14.6155 148.46 75.8168
22219 2 13.7253 150.042 73.3271
16528 1 15.4781 150.074 74.7648
16532 1 18.2071 148.459 74.7805
22218 2 16.454 148.427 73.3428
22154 2 17.3429 150.076 75.8011
22153 2 20.0717 148.46 75.8168
22156 2 19.1815 150.042 73.3271
16513 1 20.9344 150.074 74.7648
