ITEM: TIMESTEP
4190
ITEM: NUMBER OF ATOMS
23952
ITEM: BOX BOUNDS pp pp ss
0.0000000000000000e+00 2.1824953608198122e+01
0.0000000000000000e+00 1.5120771408893131e+02
-4.0898448515449841e+00 7.5935000891987713e+01
ITEM: ATOMS id type x y z
8175 2 2.72248 1.0737 -3.54959
2048 1 1.8053 2.65883 -2.5062
2014 1 4.53081 1.08933 -2.48666
8176 2 5.45239 2.64227 -3.5689
8078 2 8.17872 1.07371 -3.54954
2012 1 7.26154 2.65881 -2.5062
1887 1 9.98702 1.08938 -2.48665
8076 2 10.9086 2.6423 -3.56884
1662 1 15.4433 1.08935 -2.48665
7887 2 13.635 1.07365 -3.54962
1888 1 12.7177 2.65886 -2.50618
1660 1 18.174 2.65888 -2.50618
7888 2 16.3649 2.64227 -3.56889
1344 1 20.8995 1.08931 -2.48666
7600 2 19.0912 1.07364 -3.54966
8190 2 21.8211 2.64224 -3.56895
8171 2 2.7261 4.21134 -3.58893
2044 1 1.811 5.79914 -2.54774
2013 1 4.53618 4.22876 -2.52657
8169 2 5.45611 5.78095 -3.60973
8077 2 8.18233 4.21133 -3.58895
2015 1 7.26723 5.79915 -2.54774
1883 1 9.99244 4.22873 -2.52657
8079 2 10.9124 5.78094 -3.60976
1661 1 15.4487 4.22877 -2.52657
7883 2 13.6386 4.21137 -3.58891
1881 1 12.7235 5.79913 -2.54776
7881 2 16.3686 5.78095 -3.60974
1663 1 18.1797 5.79913 -2.54776
1343 1 20.9049 4.2288 -2.52657
7599 2 19.0948 4.21137 -3.58889
8191 2 21.8248 5.78096 -3.60971
8170 2 2.72991 7.35111 -3.63134
2006 1 4.54221 7.37007 -2.56963
8070 2 8.18614 7.3511 -3.63135
1882 1 9.99846 7.37009 -2.56964
1654 1 15.4547 7.37008 -2.56965
7882 2 13.6424 7.35107 -3.63136
1342 1 20.9109 7.37006 -2.56965
7594 2 19.0987 7.35107 -3.63135
8160 2 2.7339 10.4935 -3.67646
2045 1 1.81723 8.94167 -2.59218
8172 2 5.46003 8.92191 -3.6536
2005 1 4.54859 10.514 -2.61531
8069 2 8.19013 10.4935 -3.67643
2004 1 7.27347 8.94169 -2.59219
8068 2 10.9163 8.92192 -3.65357
1871 1 10.0048 10.514 -2.61533
1653 1 15.4611 10.514 -2.61531
1884 1 12.7297 8.94171 -2.59219
7871 2 13.6463 10.4935 -3.67637
1652 1 18.1859 8.9417 -2.59219
7884 2 16.3725 8.92187 -3.6536
8188 2 21.8288 8.92186 -3.65362
1335 1 20.9173 10.514 -2.61529
7593 2 19.1026 10.4935 -3.6764
8159 2 2.73771 13.6392 -3.72335
2040 1 1.82376 12.0871 -2.63899
8158 2 5.4639 12.0659 -3.69969
1991 1 4.55525 13.661 -2.66315
2007 1 7.28001 12.0871 -2.63898
8054 2 8.19395 13.6392 -3.72335
8071 2 10.9201 12.0659 -3.69972
1870 1 10.0115 13.661 -2.66314
1638 1 15.4677 13.661 -2.66315
1869 1 12.7363 12.0871 -2.63899
7870 2 13.6502 13.6392 -3.72339
1655 1 18.1925 12.0871 -2.639
7869 2 16.3764 12.0659 -3.6997
8189 2 21.8326 12.066 -3.69967
1334 1 20.924 13.661 -2.66317
7580 2 19.1064 13.6392 -3.72338
8148 2 2.74148 16.7885 -3.7714
2041 1 1.83056 15.2357 -2.68762
8186 2 0.0114662 15.2133 -3.74735
8143 2 0.921898 16.8224 -1.2698
8161 2 5.46771 15.2133 -3.74738
1990 1 4.56204 16.8114 -2.71227
1989 1 7.2868 15.2357 -2.68761
8053 2 8.19772 16.7885 -3.77145
8027 2 6.37806 16.8223 -1.26977
1851 1 10.0183 16.8113 -2.71227
8052 2 10.9239 15.2134 -3.74737
7846 2 11.8343 16.8223 -1.26975
1637 1 15.4745 16.8113 -2.71229
1872 1 12.743 15.2357 -2.68762
7851 2 13.654 16.7885 -3.77143
1636 1 18.1993 15.2357 -2.68762
7872 2 16.3802 15.2134 -3.74734
7555 2 17.2906 16.8224 -1.26978
1319 1 20.9308 16.8114 -2.71229
7579 2 19.1102 16.7885 -3.77139
8147 2 2.74527 19.9421 -3.81988
2036 1 1.83734 18.3879 -2.737
8187 2 0.0152285 18.3648 -3.79563
8132 2 0.924211 19.9747 -1.31926
8146 2 5.4715 18.3648 -3.79563
1975 1 4.5689 19.9654 -2.76167
8145 2 3.65118 18.398 -1.29462
1992 1 7.29357 18.3879 -2.73702
8031 2 8.20148 19.9421 -3.81985
8025 2 9.10746 18.398 -1.29462
8026 2 6.38046 19.9748 -1.31935
1850 1 10.0251 19.9654 -2.76166
8055 2 10.9277 18.3648 -3.79564
7819 2 11.8367 19.9748 -1.31939
1614 1 15.4814 19.9654 -2.76164
1849 1 12.7498 18.3879 -2.73702
7850 2 13.6577 19.9421 -3.81983
7848 2 14.5637 18.3981 -1.29464
1639 1 18.2061 18.3879 -2.737
7849 2 16.3839 18.3648 -3.79565
7554 2 17.2929 19.9747 -1.31929
1318 1 20.9376 19.9654 -2.76165
7558 2 19.114 19.9421 -3.81987
7553 2 20.0199 18.398 -1.29464
8136 2 2.74887 23.1002 -3.86716
2037 1 1.84415 21.544 -2.78609
8184 2 0.0189868 21.5206 -3.84372
8131 2 0.926544 23.1309 -1.36799
8149 2 5.47522 21.5206 -3.8437
1974 1 4.57565 23.1235 -2.81016
8130 2 3.65355 21.5525 -1.34378
1973 1 7.30038 21.544 -2.78609
8030 2 8.20512 23.1003 -3.8672
8003 2 6.38278 23.1309 -1.36793
8028 2 9.10978 21.5524 -1.34371
1824 1 10.0319 23.1235 -2.81014
8029 2 10.9315 21.5206 -3.84372
7818 2 11.839 23.131 -1.36797
1613 1 15.4882 23.1235 -2.81013
1852 1 12.7566 21.544 -2.78608
7823 2 13.6613 23.1002 -3.86726
7817 2 14.566 21.5524 -1.34368
1612 1 18.2129 21.544 -2.78608
7852 2 16.3877 21.5206 -3.84375
7525 2 17.2952 23.131 -1.36803
1295 1 20.9444 23.1235 -2.81015
7557 2 19.1176 23.1002 -3.86721
7556 2 20.0223 21.5524 -1.34375
2032 1 1.85091 24.7039 -2.83372
8135 2 2.75251 26.2628 -3.91249
8120 2 0.928646 26.2912 -1.41441
8185 2 0.022548 24.681 -3.89016
8134 2 5.47879 24.681 -3.8902
1959 1 4.58228 26.2853 -2.85657
8133 2 3.65579 24.7105 -1.3916
1976 1 7.30715 24.7039 -2.83371
8007 2 8.20877 26.2628 -3.9125
8001 2 9.11203 24.7105 -1.39162
8002 2 6.38485 26.2912 -1.41437
8032 2 10.935 24.681 -3.89018
1823 1 10.0385 26.2853 -2.85656
7784 2 11.8411 26.2912 -1.41438
1822 1 12.7634 24.7039 -2.8337
1582 1 15.4948 26.2853 -2.85658
7822 2 13.665 26.2629 -3.91251
7820 2 14.5683 24.7105 -1.39158
1615 1 18.2196 24.7039 -2.83371
7821 2 16.3913 24.681 -3.89015
7524 2 17.2974 26.2912 -1.41442
1294 1 20.951 26.2853 -2.85658
7528 2 19.1212 26.2628 -3.9125
7523 2 20.0245 24.7105 -1.39156
2033 1 1.85737 27.8676 -2.87857
8124 2 2.75593 29.4301 -3.95444
8119 2 0.930431 29.4553 -1.45755
8182 2 0.0261271 27.8459 -3.93395
8137 2 5.48239 27.8459 -3.93397
1958 1 4.58863 29.4508 -2.8996
8118 2 3.65766 27.8728 -1.43641
1957 1 7.31361 27.8676 -2.87858
8006 2 8.21218 29.4301 -3.95437
8004 2 9.11388 27.8728 -1.43647
7979 2 6.38668 29.4553 -1.45763
8005 2 10.9386 27.8459 -3.93397
1796 1 10.0448 29.4508 -2.89961
7783 2 11.843 29.4553 -1.45756
1825 1 12.7699 27.8676 -2.87858
1581 1 15.501 29.4508 -2.89961
7788 2 13.6684 29.4301 -3.95432
7782 2 14.5701 27.8728 -1.43651
1580 1 18.2261 27.8676 -2.87856
7824 2 16.3948 27.8459 -3.93395
7487 2 17.2992 29.4553 -1.45748
1263 1 20.9573 29.4508 -2.89961
7527 2 19.1247 29.4301 -3.95439
7526 2 20.0264 27.8728 -1.43645
2028 1 1.86351 31.0348 -2.91948
8183 2 0.0293953 31.0153 -3.97377
8123 2 2.75904 32.6015 -3.99181
8122 2 5.48566 31.0153 -3.97374
8121 2 3.65944 31.0389 -1.47745
1960 1 7.31973 31.0348 -2.91947
7977 2 9.11557 31.0389 -1.47743
7983 2 8.21532 32.6015 -3.9918
8008 2 10.9419 31.0153 -3.97381
1794 1 12.776 31.0348 -2.91946
7785 2 14.5718 31.0389 -1.47755
7787 2 13.6716 32.6015 -3.99173
1583 1 18.2323 31.0348 -2.91946
7786 2 16.3981 31.0153 -3.97384
7485 2 20.0281 31.0389 -1.47756
7490 2 19.1278 32.6015 -3.99175
2029 1 1.86894 34.2052 -2.95506
8180 2 0.0323728 34.1887 -4.0084
8108 2 0.931968 32.6235 -1.49598
8125 2 5.48858 34.1888 -4.00839
1943 1 4.59446 32.6197 -2.938
8106 2 3.66089 34.2088 -1.51311
1941 1 7.32519 34.2052 -2.95506
7978 2 6.38826 32.6234 -1.49599
7980 2 9.11706 34.2089 -1.51319
1795 1 10.0507 32.6197 -2.93802
7981 2 10.9448 34.1887 -4.00841
7748 2 11.8446 32.6235 -1.49598
1543 1 15.5069 32.6197 -2.93802
1797 1 12.7815 34.2052 -2.95503
7746 2 14.5732 34.2088 -1.51318
1541 1 18.2377 34.2052 -2.95503
7789 2 16.401 34.1887 -4.00843
7486 2 17.3008 32.6235 -1.49597
1262 1 20.9631 32.6197 -2.938
7488 2 20.0295 34.2088 -1.5131
8181 2 0.0348552 37.3657 -4.03684
8112 2 2.76176 35.7768 -4.02353
2024 1 1.87347 37.3783 -2.9842
8107 2 0.933351 35.7951 -1.52878
8110 2 5.4911 37.3657 -4.03688
1942 1 4.5995 35.7914 -2.97051
8109 2 3.66208 37.3821 -1.54241
1944 1 7.32973 37.3783 -2.9842
7982 2 8.21803 35.7768 -4.02345
7953 2 9.11824 37.3821 -1.54239
7955 2 6.38967 35.7951 -1.5288
1768 1 10.0557 35.7914 -2.9705
7984 2 10.9473 37.3658 -4.03696
7747 2 11.8459 35.795 -1.52868
1542 1 15.5119 35.7914 -2.9705
1766 1 12.786 37.3783 -2.9842
7752 2 13.6743 35.7769 -4.02345
7749 2 14.5745 37.3821 -1.54247
1544 1 18.2422 37.3783 -2.9842
7750 2 16.4036 37.3658 -4.03691
7442 2 17.3021 35.795 -1.52866
1223 1 20.9682 35.7915 -2.9705
7489 2 19.1305 35.7768 -4.02353
7440 2 20.0309 37.3821 -1.54249
8178 2 0.0367141 40.5456 -4.05812
8111 2 2.76397 38.9554 -4.04845
2025 1 1.87691 40.5535 -3.00595
8096 2 0.934458 38.9698 -1.55438
8113 2 5.49295 40.5456 -4.05811
1927 1 4.60348 38.9657 -2.99606
8094 2 3.66302 40.5581 -1.56439
1925 1 7.33314 40.5535 -3.00595
7959 2 8.22023 38.9554 -4.04842
7954 2 6.39075 38.9698 -1.55437
7956 2 9.11927 40.5581 -1.56441
1767 1 10.0597 38.9657 -2.99605
7957 2 10.9492 40.5456 -4.0581
7712 2 11.847 38.9699 -1.55438
1503 1 15.5159 38.9657 -2.99604
1769 1 12.7894 40.5535 -3.00593
7751 2 13.6765 38.9554 -4.04843
7710 2 14.5755 40.5581 -1.56436
1501 1 18.2456 40.5535 -3.00593
7753 2 16.4054 40.5456 -4.05811
7441 2 17.3032 38.9699 -1.55438
1222 1 20.9722 38.9657 -2.99605
7445 2 19.1327 38.9553 -4.04845
7443 2 20.0317 40.5581 -1.56434
8179 2 0.0378746 43.7275 -4.07149
8100 2 2.76553 42.1363 -4.06583
8095 2 0.935242 42.1469 -1.57228
2020 1 1.87902 43.7302 -3.01957
8098 2 5.49414 43.7275 -4.07147
8097 2 3.66355 43.7361 -1.57804
1926 1 4.60623 42.1417 -3.01381
1928 1 7.33524 43.7302 -3.01957
7930 2 9.11978 43.7361 -1.57808
7932 2 6.39147 42.1469 -1.57225
7958 2 8.22178 42.1363 -4.06585
1740 1 10.0625 42.1417 -3.0138
7711 2 11.8477 42.1469 -1.57229
7960 2 10.9503 43.7275 -4.07149
1502 1 15.5187 42.1417 -3.0138
1738 1 12.7915 43.7301 -3.01955
7713 2 14.576 43.7361 -1.57808
7716 2 13.678 42.1364 -4.06584
1504 1 18.2477 43.7301 -3.01955
7396 2 17.304 42.1469 -1.57231
7714 2 16.4066 43.7275 -4.07151
1176 1 20.9749 42.1417 -3.01381
7394 2 20.0322 43.7361 -1.57804
7444 2 19.1342 42.1363 -4.06582
8177 2 0.0381504 46.9104 -4.0764
8099 2 2.76624 45.3189 -4.07497
8088 2 0.93553 45.3255 -1.58173
2021 1 1.87972 46.9076 -3.02466
8101 2 5.49442 46.9104 -4.07638
8086 2 3.66362 46.915 -1.58317
1912 1 4.60765 45.3188 -3.02319
1910 1 7.33595 46.9076 -3.02467
7931 2 6.39176 45.3255 -1.58173
7933 2 9.11985 46.9151 -1.58322
7936 2 8.22248 45.3189 -4.07496
1739 1 10.0639 45.3188 -3.02319
7680 2 11.848 45.3255 -1.58168
7934 2 10.9506 46.9104 -4.0764
1464 1 15.5201 45.3188 -3.02319
1741 1 12.7922 46.9076 -3.02464
7678 2 14.576 46.9151 -1.58323
7715 2 13.6788 45.3189 -4.07499
1462 1 18.2485 46.9076 -3.02463
7395 2 17.3043 45.3255 -1.58167
7717 2 16.4068 46.9104 -4.07643
1175 1 20.9764 45.3188 -3.02319
7397 2 20.0323 46.9151 -1.58318
7399 2 19.135 45.3189 -4.075
8089 2 2.76613 48.502 -4.07571
8087 2 0.935318 48.5047 -1.58234
10368 2 0.0376242 50.0935 -4.07287
4095 1 1.87898 50.0852 -3.02105
1911 1 4.60764 48.4964 -3.02393
10350 2 5.4939 50.0935 -4.07281
10349 2 3.66312 50.0942 -1.57936
7913 2 6.39155 48.5047 -1.58243
7935 2 8.22238 48.502 -4.0757
10249 2 9.11934 50.0942 -1.57942
4064 1 7.33519 50.0852 -3.02105
1713 1 10.0639 48.4964 -3.02394
7679 2 11.8478 48.5046 -1.58243
10256 2 10.9501 50.0935 -4.07283
1463 1 15.5201 48.4964 -3.02394
7681 2 13.6786 48.502 -4.07567
3934 1 12.7915 50.0852 -3.02104
10061 2 14.5756 50.0941 -1.57948
7353 2 17.3041 48.5046 -1.58234
3712 1 18.2477 50.0852 -3.02104
10062 2 16.4063 50.0935 -4.07288
1128 1 20.9763 48.4964 -3.02393
7398 2 19.1349 48.502 -4.07569
9772 2 20.0318 50.0941 -1.57941
8167 2 0.90928 1.10318 -1.04361
2010 1 2.72534 1.11859 0.178999
8164 2 1.8185 2.7049 1.49097
8165 2 3.63866 2.67286 -1.06312
2011 1 5.45497 2.68883 0.159263
8062 2 4.54523 1.13423 1.5107
8074 2 6.36555 1.10321 -1.04361
1879 1 8.18157 1.11858 0.178999
8075 2 9.09492 2.67282 -1.06317
8060 2 7.27477 2.70486 1.49094
7879 2 11.8217 1.10331 -1.04356
1877 1 10.9112 2.68883 0.15926
7875 2 10.0014 1.1343 1.51072
1658 1 13.6378 1.1186 0.178993
7877 2 14.5511 2.67286 -1.06311
7587 2 15.4577 1.13433 1.5107
7876 2 12.731 2.70492 1.49096
7597 2 17.2779 1.10328 -1.04355
1659 1 16.3675 2.68882 0.159263
7585 2 18.1872 2.70496 1.49099
1341 1 19.094 1.1186 0.178993
7598 2 20.0073 2.6729 -1.06306
2042 1 21.8237 2.68883 0.159267
7232 2 20.914 1.13427 1.51069
8166 2 0.911804 4.24279 -1.08351
2002 1 2.72843 4.2594 0.138711
8152 2 1.82137 5.84702 1.44887
8061 2 4.54798 4.27583 1.47031
8168 2 3.64125 5.81302 -1.10471
2000 1 5.4581 5.83036 0.117368
8066 2 6.36803 4.24276 -1.08353
1878 1 8.18466 4.25939 0.138711
8064 2 9.09749 5.81304 -1.10471
8063 2 7.27758 5.84704 1.44888
7878 2 11.8243 4.24269 -1.08353
7863 2 10.0043 4.27576 1.4703
1880 1 10.9143 5.83037 0.117362
1650 1 13.6409 4.25939 0.138704
7586 2 15.4605 4.27576 1.47032
7880 2 14.5537 5.81298 -1.10476
7861 2 12.7338 5.84699 1.44887
7591 2 17.2805 4.24271 -1.08351
1648 1 16.3706 5.83036 0.117364
7588 2 18.1901 5.84698 1.44886
1340 1 19.0971 4.25939 0.138704
7231 2 20.9167 4.27583 1.47033
7589 2 20.01 5.81297 -1.10476
2043 1 21.8268 5.83035 0.117369
8156 2 0.914425 7.38379 -1.12676
2001 1 2.73158 7.40178 0.095313
8046 2 4.55088 7.41865 1.42664
8065 2 6.37064 7.3838 -1.12671
1867 1 8.18781 7.40178 0.0953085
7867 2 11.8269 7.38384 -1.12665
7862 2 10.0071 7.41869 1.42664
1649 1 13.644 7.40179 0.0953043
7573 2 15.4634 7.41868 1.42668
7590 2 17.2831 7.38383 -1.12671
1333 1 19.1003 7.40179 0.0953091
7230 2 20.9196 7.41865 1.42668
8155 2 0.916932 10.5273 -1.17254
1987 1 2.73472 10.5462 0.049215
8153 2 1.82419 8.99069 1.40374
8154 2 3.64386 8.95522 -1.14931
2003 1 5.46125 8.97372 0.0725754
8045 2 4.5537 10.5631 1.38016
8067 2 9.1001 8.95522 -1.14932
8050 2 6.37324 10.5273 -1.17255
1866 1 8.19095 10.5462 0.0492234
8044 2 7.2804 8.9907 1.40376
7866 2 11.8295 10.5273 -1.17262
1865 1 10.9175 8.9737 0.0725786
7843 2 10.0099 10.5632 1.38016
7865 2 14.5563 8.95529 -1.14928
1634 1 13.6472 10.5462 0.0492264
7572 2 15.4661 10.5632 1.38017
7864 2 12.7366 8.99074 1.40377
7577 2 17.2857 10.5272 -1.17261
1651 1 16.3737 8.97372 0.072569
7571 2 18.1929 8.99072 1.40375
7592 2 20.0126 8.9553 -1.14928
2038 1 21.83 8.97374 0.0725663
1332 1 19.1035 10.5462 0.0492178
7223 2 20.9224 10.5632 1.38017
8144 2 0.919553 13.6732 -1.2206
1986 1 2.73789 13.6931 0.000983998
8140 2 1.82695 12.1362 1.35612
8157 2 3.64636 12.0998 -1.19642
1985 1 5.46445 12.1193 0.0253144
8023 2 4.5566 13.7098 1.33161
8048 2 9.10256 12.0999 -1.19641
8049 2 6.3758 13.6731 -1.22057
1847 1 8.19412 13.6931 0.000996863
8047 2 7.28324 12.1362 1.35603
7847 2 11.832 13.6732 -1.22057
1868 1 10.9207 12.1193 0.0253316
7842 2 10.0128 13.7099 1.33163
7868 2 14.5588 12.0998 -1.19638
1633 1 13.6504 13.6931 0.000995731
7551 2 15.4691 13.7098 1.33155
7841 2 12.7395 12.1362 1.35602
7576 2 17.2882 13.6732 -1.22059
1632 1 16.3769 12.1193 0.0253384
7574 2 18.1957 12.1362 1.35611
7575 2 20.0151 12.0998 -1.19639
2039 1 21.8331 12.1193 0.0253208
1317 1 19.1066 13.6931 0.000983311
7222 2 20.9254 13.7098 1.33154
1971 1 2.74115 16.8426 -0.0486256
8141 2 1.83 15.2839 1.30662
2034 1 0.0114023 15.2675 -0.0236894
8142 2 3.64873 15.2475 -1.24508
1988 1 5.46764 15.2675 -0.0236819
8022 2 4.55966 16.8588 1.28159
8051 2 9.10502 15.2474 -1.2451
1846 1 8.19739 16.8426 -0.0485996
8021 2 7.28623 15.284 1.30666
1845 1 10.9239 15.2675 -0.0236775
7815 2 10.0159 16.8588 1.28159
7845 2 14.5613 15.2474 -1.24511
1610 1 13.6536 16.8426 -0.0485874
7550 2 15.4721 16.8588 1.28163
7844 2 12.7425 15.284 1.30672
1635 1 16.3801 15.2675 -0.0236854
7549 2 18.1987 15.284 1.30668
7578 2 20.0175 15.2474 -1.24509
1316 1 19.1099 16.8426 -0.0486137
7207 2 20.9283 16.8588 1.28163
8128 2 1.83292 18.4344 1.2565
1970 1 2.74435 19.9951 -0.0984671
2035 1 0.0146625 18.4184 -0.0735819
1969 1 5.47089 18.4184 -0.0735755
7999 2 4.56248 20.0106 1.23151
1820 1 8.20061 19.9951 -0.0984777
8024 2 7.28917 18.4343 1.25653
1848 1 10.9271 18.4184 -0.0735839
7814 2 10.0187 20.0107 1.23149
1609 1 13.6569 19.9951 -0.0984954
7521 2 15.475 20.0107 1.23145
7813 2 12.7454 18.4343 1.25648
1608 1 16.3834 18.4184 -0.0735901
7552 2 18.2017 18.4344 1.25645
1293 1 19.1131 19.9951 -0.0984842
7206 2 20.9312 20.0106 1.23148
8129 2 1.83575 21.5875 1.20653
1955 1 2.74746 23.1508 -0.147506
2030 1 0.0178022 21.5725 -0.123183
1972 1 5.47405 21.5725 -0.123184
7998 2 4.56519 23.1653 1.18194
1819 1 8.2037 23.1508 -0.147523
7997 2 7.292 21.5875 1.20651
1818 1 10.9303 21.5726 -0.123167
7780 2 10.0215 23.1652 1.18195
1578 1 13.6599 23.1508 -0.14752
7520 2 15.4777 23.1653 1.18198
7816 2 12.7482 21.5876 1.20653
1611 1 16.3865 21.5725 -0.123166
7519 2 18.2044 21.5876 1.20655
1292 1 19.1162 23.1508 -0.147504
7183 2 20.9339 23.1653 1.18197
8116 2 1.83825 24.7439 1.15794
1954 1 2.75026 26.31 -0.194387
2031 1 0.0207609 24.7299 -0.171276
1953 1 5.47701 24.7299 -0.171291
7975 2 4.56751 26.3232 1.13455
8000 2 7.29449 24.7439 1.15796
1792 1 8.2065 26.3099 -0.194376
1821 1 10.9333 24.7299 -0.171293
7779 2 10.0237 26.3232 1.13459
7778 2 12.7507 24.7439 1.15794
1577 1 13.6627 26.3099 -0.194371
7483 2 15.48 26.3231 1.13461
1576 1 16.3895 24.7299 -0.171278
7522 2 18.207 24.7439 1.15792
1261 1 19.119 26.3099 -0.194382
7182 2 20.9362 26.3231 1.13458
8117 2 1.84047 27.9033 1.11206
1939 1 2.75274 29.4725 -0.237856
2026 1 0.0234471 27.8908 -0.216649
1956 1 5.47967 27.8908 -0.216637
7974 2 4.56949 29.4843 1.09054
7973 2 7.29672 27.9033 1.11209
1791 1 8.20899 29.4725 -0.237865
1790 1 10.9359 27.8908 -0.216626
7744 2 10.0258 29.4843 1.0905
7781 2 12.7529 27.9033 1.11202
1539 1 13.6652 29.4724 -0.237867
7482 2 15.482 29.4843 1.09054
1579 1 16.3922 27.8908 -0.216638
7481 2 18.2092 27.9033 1.11199
1260 1 19.1214 29.4724 -0.237858
7151 2 20.9382 29.4843 1.09057
8104 2 1.84232 31.0662 1.0703
2027 1 0.0257248 31.055 -0.257905
1937 1 5.48194 31.055 -0.25791
7976 2 7.29856 31.0662 1.07028
1793 1 10.9382 31.055 -0.257906
7742 2 12.7548 31.0661 1.07031
1537 1 16.3945 31.055 -0.257901
7484 2 18.211 31.0661 1.07032
8105 2 1.84399 34.232 1.03373
1938 1 2.75481 32.6384 -0.276602
2022 1 0.02763 34.2224 -0.293869
1940 1 5.48387 34.2224 -0.29386
7951 2 4.57128 32.6487 1.0512
1764 1 8.21104 32.6384 -0.276613
7949 2 7.30019 34.232 1.03374
1762 1 10.9401 34.2225 -0.293873
7743 2 10.0275 32.6487 1.05123
1538 1 13.6673 32.6384 -0.276617
7438 2 15.4837 32.6487 1.05119
7745 2 12.7565 34.232 1.03372
1540 1 16.3964 34.2225 -0.293882
7436 2 18.2127 34.232 1.03371
1221 1 19.1235 32.6384 -0.276606
7150 2 20.94 32.6487 1.05116
8092 2 1.8453 37.4008 1.00389
1923 1 2.75658 35.8073 -0.309456
2023 1 0.0292158 37.3927 -0.323351
1921 1 5.48545 37.3928 -0.323345
7950 2 4.57273 35.8161 1.01795
1763 1 8.21282 35.8073 -0.30947
7952 2 7.30157 37.4008 1.00385
1765 1 10.9417 37.3927 -0.323337
7708 2 10.029 35.8161 1.01787
1499 1 13.669 35.8073 -0.309465
7437 2 15.4852 35.8161 1.01785
7706 2 12.7578 37.4008 1.00387
1497 1 16.3979 37.3927 -0.323344
7439 2 18.214 37.4008 1.00391
1220 1 19.1253 35.8072 -0.309451
7111 2 20.9414 35.8161 1.01792
8093 2 1.84634 40.5718 0.981493
1922 1 2.75796 38.9787 -0.335343
2018 1 0.0304039 40.5652 -0.345399
1924 1 5.48665 40.5652 -0.345386
7928 2 4.57399 38.986 0.991671
1736 1 8.21419 38.9787 -0.335332
7926 2 7.30257 40.5718 0.981478
1734 1 10.9429 40.5652 -0.345401
7707 2 10.0302 38.986 0.991644
1498 1 13.6704 38.9787 -0.335333
7392 2 15.4865 38.986 0.991626
7709 2 12.7588 40.5718 0.981453
1500 1 16.3991 40.5652 -0.345414
7390 2 18.2151 40.5718 0.981469
1174 1 19.1267 38.9788 -0.335344
7110 2 20.9427 38.9861 0.991651
8084 2 1.84694 43.7444 0.967565
1908 1 2.75894 42.1521 -0.35336
2019 1 0.0310738 43.7393 -0.359225
1906 1 5.48732 43.7393 -0.359227
7927 2 4.57476 42.158 0.973428
1735 1 8.21517 42.1521 -0.353355
7929 2 7.30317 43.7444 0.967528
1737 1 10.9436 43.7393 -0.359229
7676 2 10.031 42.158 0.973451
1460 1 13.6714 42.1521 -0.353356
7391 2 15.4872 42.158 0.973504
7674 2 12.7594 43.7444 0.967486
1458 1 16.3998 43.7394 -0.359227
7393 2 18.2157 43.7444 0.967524
1173 1 19.1277 42.1521 -0.353361
7064 2 20.9435 42.158 0.973481
8085 2 1.84701 46.9179 0.962341
1907 1 2.75938 45.3267 -0.362903
2017 1 0.0311911 46.9143 -0.36438
1909 1 5.48742 46.9143 -0.364359
7912 2 4.5751 45.3311 0.963737
1712 1 8.2156 45.3267 -0.362885
7910 2 7.30322 46.9179 0.962297
1710 1 10.9437 46.9143 -0.364361
7675 2 10.0314 45.3311 0.963796
1459 1 13.6718 45.3267 -0.362894
7352 2 15.4876 45.3311 0.963782
7677 2 12.7595 46.9179 0.962301
1461 1 16.3999 46.9143 -0.364382
7350 2 18.2157 46.9179 0.962346
1127 1 19.1281 45.3267 -0.362912
7063 2 20.9438 45.3311 0.963722
1897 1 2.75918 48.5018 -0.363624
10339 2 1.84657 50.0914 0.966128
4094 1 0.0307117 50.0892 -0.360683
7911 2 4.57491 48.5047 0.963151
4057 1 5.48693 50.0892 -0.36066
1711 1 8.21542 48.5018 -0.363618
10248 2 7.30276 50.0915 0.966115
7649 2 10.0312 48.5047 0.96315
3933 1 10.9432 50.0892 -0.36065
1425 1 13.6717 48.5018 -0.363617
7351 2 15.4874 48.5047 0.963155
10050 2 12.759 50.0915 0.966165
3705 1 16.3994 50.0893 -0.360673
9771 2 18.2153 50.0914 0.966179
1126 1 19.1279 48.5018 -0.363623
7016 2 20.9436 48.5047 0.963158
1998 1 0.906618 1.14968 2.77685
8058 2 2.72486 1.16554 4.07809
1996 1 3.63619 2.72086 2.75694
8059 2 5.45445 2.7371 4.05825
1875 1 6.36286 1.14967 2.77684
7859 2 8.18114 1.16543 4.07803
1876 1 9.09244 2.72084 2.75691
1646 1 11.8191 1.14969 2.77686
7857 2 10.9108 2.73701 4.05816
7583 2 13.6373 1.16549 4.07807
1644 1 14.5487 2.72085 2.75693
1338 1 17.2753 1.1497 2.77687
7584 2 16.367 2.73701 4.05815
7229 2 19.0935 1.1656 4.07812
8150 2 21.8232 2.7371 4.05824
1339 1 20.0049 2.72087 2.75696
1997 1 0.909584 4.29225 2.73616
8042 2 2.72788 4.3088 4.03739
1999 1 3.63921 5.86393 2.71456
8040 2 5.45755 5.88083 4.01577
1863 1 6.36582 4.29226 2.73616
7858 2 8.18411 4.30887 4.03741
1861 1 9.09545 5.86393 2.71458
1645 1 11.8221 4.29224 2.73615
7860 2 10.9138 5.88085 4.01578
7569 2 13.6404 4.30879 4.03736
1647 1 14.5517 5.86393 2.71457
1330 1 17.2783 4.29223 2.73615
7567 2 16.37 5.88082 4.01575
7228 2 19.0966 4.30873 4.03734
8151 2 21.8263 5.8808 4.01574
1328 1 20.0079 5.86392 2.71456
1983 1 0.912636 7.43595 2.69222
8041 2 2.73098 7.45305 3.99328
1862 1 6.36888 7.43596 2.69223
7839 2 8.18721 7.4531 3.99332
1630 1 11.8251 7.43598 2.69224
7568 2 13.6434 7.45314 3.99337
1329 1 17.2813 7.43596 2.69223
7221 2 19.0997 7.45308 3.99333
1982 1 0.915784 10.5812 2.64554
8019 2 2.73406 10.5986 3.94645
1981 1 3.64233 9.00838 2.66918
8043 2 5.46067 9.02563 3.97014
1843 1 6.37203 10.5812 2.64553
1864 1 9.09855 9.00838 2.6692
7838 2 8.19032 10.5985 3.94643
1629 1 11.8283 10.5812 2.64551
7837 2 10.9169 9.02558 3.97014
1628 1 14.5548 9.00839 2.66921
7547 2 13.6466 10.5984 3.94635
1314 1 17.2845 10.5812 2.64552
7570 2 16.3731 9.02563 3.97022
8138 2 21.8293 9.02568 3.97022
1331 1 20.011 9.00839 2.66919
7220 2 19.1029 10.5985 3.94637
1967 1 0.91901 13.7283 2.59656
8018 2 2.73751 13.7454 3.89737
8139 2 0.00771465 12.1717 3.9221
1984 1 3.6455 12.1545 2.6213
8017 2 5.46389 12.1718 3.92215
1841 1 9.10174 12.1545 2.62129
1842 1 6.37524 13.7283 2.59657
7811 2 8.19374 13.7454 3.89739
1606 1 11.8315 13.7283 2.59659
7840 2 10.9201 12.1718 3.92217
1631 1 14.558 12.1545 2.62127
7546 2 13.6499 13.7455 3.89743
1313 1 17.2877 13.7283 2.59659
7545 2 16.3764 12.1718 3.92212
1312 1 20.0142 12.1545 2.62129
7205 2 19.1061 13.7455 3.89741
1966 1 0.922289 16.8774 2.54619
7995 2 2.74092 16.8942 3.84684
8126 2 0.0110623 15.3196 3.8723
1965 1 3.64877 15.3026 2.5715
8020 2 5.4673 15.3195 3.87223
1816 1 6.37854 16.8774 2.54617
1844 1 9.10501 15.3026 2.57148
7810 2 8.19717 16.8942 3.84683
1605 1 11.8348 16.8774 2.54617
7809 2 10.9236 15.3195 3.8722
1604 1 14.5612 15.3026 2.5715
7517 2 13.6534 16.8941 3.84681
1290 1 17.291 16.8774 2.54619
7548 2 16.3798 15.3196 3.87228
1315 1 20.0175 15.3026 2.57151
7204 2 19.1096 16.8941 3.84681
1951 1 0.92558 20.0288 2.49535
7994 2 2.74419 20.0449 3.79587
8127 2 0.0144549 18.4692 3.82131
1968 1 3.65208 18.4528 2.52076
7993 2 5.47066 18.4692 3.82133
1814 1 9.10831 18.4528 2.52077
1815 1 6.38181 20.0288 2.49537
7776 2 8.20043 20.0449 3.79587
1574 1 11.838 20.0288 2.49537
7812 2 10.9269 18.4692 3.82136
1607 1 14.5646 18.4528 2.52076
7516 2 13.6567 20.0449 3.79588
1289 1 17.2943 20.0288 2.49536
7515 2 16.3831 18.4692 3.82134
1288 1 20.0208 18.4528 2.52075
7181 2 19.1129 20.0449 3.79588
1950 1 0.928628 23.1828 2.44529
7971 2 2.74711 23.1979 3.74563
8114 2 0.0175026 21.621 3.77051
1949 1 3.65528 21.6055 2.47016
7996 2 5.4738 21.621 3.77052
1788 1 6.38488 23.1828 2.44531
1817 1 9.11153 21.6055 2.47015
7775 2 8.20331 23.1979 3.74562
1573 1 11.8411 23.1828 2.44529
7774 2 10.93 21.621 3.77052
1572 1 14.5678 21.6055 2.47016
7479 2 13.6596 23.1979 3.74562
1258 1 17.2973 23.1828 2.44527
7518 2 16.3862 21.621 3.77051
1291 1 20.024 21.6055 2.47017
7180 2 19.1159 23.1979 3.74563
1935 1 0.931294 26.3397 2.39732
7970 2 2.74966 26.3535 3.6972
8115 2 0.0202008 24.7754 3.72109
1952 1 3.65816 24.7609 2.42098
7969 2 5.47651 24.7754 3.72115
1786 1 9.11439 24.7609 2.42098
1787 1 6.38754 26.3396 2.39732
7740 2 8.20589 26.3534 3.69717
7777 2 10.9328 24.7754 3.72111
1535 1 11.8438 26.3396 2.39732
1575 1 14.5706 24.7609 2.42097
7478 2 13.6621 26.3534 3.69724
7477 2 16.3889 24.7754 3.72105
1257 1 17.3 26.3396 2.39731
1256 1 20.0269 24.7609 2.42097
7149 2 19.1184 26.3534 3.69727
1934 1 0.933563 29.4993 2.35274
7947 2 2.75191 29.5117 3.65227
8102 2 0.0227529 27.9321 3.67419
1933 1 3.66059 27.9191 2.3745
7972 2 5.47899 27.9321 3.67421
1789 1 9.11683 27.9191 2.37449
1760 1 6.3898 29.4993 2.35274
7739 2 8.20816 29.5117 3.65228
7738 2 10.9352 27.9321 3.67422
1534 1 11.846 29.4993 2.35274
1533 1 14.5731 27.9191 2.37449
7434 2 13.6643 29.5117 3.65224
7480 2 16.3915 27.9322 3.67421
1218 1 17.3023 29.4993 2.35274
1259 1 20.0293 27.9191 2.37449
7148 2 19.1206 29.5116 3.65223
8103 2 0.0249679 31.0918 3.63144
1936 1 3.66269 31.0802 2.33215
7945 2 5.4811 31.0919 3.63141
1758 1 9.11891 31.0803 2.33216
7741 2 10.9374 31.0918 3.63148
1536 1 14.5751 31.0802 2.33212
7432 2 16.3937 31.0918 3.63151
1216 1 20.0314 31.0802 2.33211
1919 1 0.935541 32.6618 2.31291
7946 2 2.75404 32.6726 3.61204
8090 2 0.0268198 34.2541 3.59416
1917 1 3.66453 34.2441 2.2952
7948 2 5.483 34.2541 3.59412
1759 1 6.39176 32.6618 2.31291
1761 1 9.12076 34.2441 2.29519
7704 2 8.21027 32.6726 3.61204
1495 1 11.848 32.6618 2.31292
7702 2 10.9394 34.2541 3.5941
1493 1 14.577 34.2441 2.29518
7433 2 13.6664 32.6726 3.61194
1217 1 17.3043 32.6618 2.31292
7435 2 16.3957 34.2541 3.59414
1219 1 20.0332 34.2441 2.29518
7109 2 19.1227 32.6727 3.61195
8091 2 0.0284986 37.4187 3.56351
1918 1 0.937266 35.8269 2.27914
7924 2 2.75586 35.8361 3.57797
1920 1 3.66609 37.4103 2.2649
7922 2 5.48476 37.4186 3.5635
1730 1 9.12232 37.4103 2.26489
1732 1 6.3935 35.8269 2.27916
7703 2 8.21204 35.8361 3.57795
1494 1 11.8498 35.8269 2.27916
7705 2 10.9411 37.4186 3.56356
1496 1 14.5786 37.4103 2.26488
7388 2 13.6683 35.8361 3.57792
1171 1 17.306 35.8269 2.27915
7386 2 16.3973 37.4187 3.56356
1169 1 20.0348 37.4103 2.2649
7108 2 19.1245 35.8361 3.57795
8082 2 0.0297425 40.5852 3.54067
1904 1 0.938709 38.9942 2.25255
7923 2 2.7573 39.0017 3.55107
1902 1 3.66731 40.5785 2.24227
7925 2 5.486 40.5851 3.54073
1731 1 6.39495 38.9942 2.25256
1733 1 9.12354 40.5785 2.24227
7672 2 8.2135 39.0017 3.55104
1456 1 11.8512 38.9942 2.25257
7670 2 10.9423 40.5851 3.54073
1454 1 14.5798 40.5785 2.24227
7387 2 13.6697 39.0017 3.55112
1170 1 17.3074 38.9942 2.25255
7389 2 16.3985 40.5851 3.54067
1172 1 20.036 40.5785 2.24227
7062 2 19.126 39.0017 3.55116
8083 2 0.0305411 43.7529 3.5264
1903 1 0.939669 42.1631 2.23408
7908 2 2.75829 42.1689 3.53244
1905 1 3.66799 43.748 2.22809
7906 2 5.48679 43.7529 3.52636
1706 1 9.12423 43.748 2.22809
1708 1 6.39592 42.1631 2.23409
7671 2 8.21452 42.1689 3.53244
1455 1 11.8522 42.1631 2.23408
7673 2 10.943 43.7529 3.52638
1457 1 14.5805 43.748 2.22809
7348 2 13.6708 42.1689 3.53241
1124 1 17.3084 42.1631 2.23407
7346 2 16.3992 43.7529 3.52641
1122 1 20.0367 43.748 2.22809
7061 2 19.1271 42.1689 3.53241
8081 2 0.0306918 46.9215 3.52106
1896 1 0.940099 45.3331 2.22432
7907 2 2.75873 45.3371 3.52252
1894 1 3.6681 46.9183 2.22285
7909 2 5.48685 46.9215 3.52112
1707 1 6.39633 45.3331 2.22431
1709 1 9.12434 46.9183 2.22286
7648 2 8.21502 45.3371 3.52253
1424 1 11.8526 45.3331 2.22431
7646 2 10.9431 46.9214 3.52112
1422 1 14.5806 46.9184 2.22285
7347 2 13.6712 45.3371 3.52259
1123 1 17.3088 45.3331 2.22433
7349 2 16.3994 46.9214 3.52105
1125 1 20.0368 46.9184 2.22284
7015 2 19.1274 45.3371 3.52257
1895 1 0.939873 48.5036 2.22363
7897 2 2.75861 48.5058 3.52183
10338 2 0.0302393 50.0901 3.52499
4056 1 3.66762 50.0887 2.22671
10233 2 5.48645 50.0901 3.52496
1689 1 6.39611 48.5036 2.22363
7647 2 8.21488 48.5058 3.52186
3922 1 9.12387 50.0887 2.22674
1423 1 11.8524 48.5036 2.22363
10049 2 10.9427 50.0901 3.52497
7313 2 13.6711 48.5058 3.52181
3704 1 14.5801 50.0887 2.22673
1081 1 17.3086 48.5036 2.22363
9758 2 16.399 50.0901 3.525
7014 2 19.1273 48.5058 3.52177
3385 1 20.0363 50.0887 2.22671
8038 2 0.904573 1.19663 6.6502
1995 1 1.81616 2.75323 5.33903
1859 1 4.54277 1.18124 5.35908
8036 2 3.63421 2.76903 6.63023
7855 2 6.36079 1.19659 6.65021
1857 1 7.27239 2.75323 5.33903
7856 2 9.09043 2.76901 6.6303
1642 1 9.99903 1.1812 5.35907
7565 2 11.817 1.19648 6.65016
1326 1 15.4553 1.18121 5.35907
1643 1 12.7286 2.75322 5.33901
7563 2 14.5467 2.76897 6.63025
7226 2 17.2733 1.19651 6.65015
1324 1 18.1849 2.75322 5.33901
960 1 20.9115 1.18125 5.35908
7227 2 20.0029 2.769 6.63019
8037 2 0.907627 4.34152 6.60932
1979 1 1.81931 5.89771 5.29633
1858 1 4.54584 4.32538 5.31811
8039 2 3.6374 5.91417 6.58754
7835 2 6.36384 4.34159 6.60935
1860 1 7.27555 5.89773 5.29635
7833 2 9.09356 5.91425 6.58756
1626 1 10.0021 4.3254 5.31811
7564 2 11.8201 4.3416 6.60934
1325 1 15.4583 4.32539 5.3181
1624 1 12.7318 5.89774 5.29636
7566 2 14.5498 5.91429 6.58757
7218 2 17.2764 4.34154 6.60931
1327 1 18.188 5.89773 5.29634
959 1 20.9146 4.32537 5.31811
7216 2 20.0061 5.91421 6.58754
8015 2 0.910862 7.48707 6.56498
1839 1 4.54908 7.47029 5.27378
7834 2 6.36717 7.48698 6.56496
1625 1 10.0053 7.4703 5.27379
7543 2 11.8234 7.48702 6.56494
1310 1 15.4615 7.47032 5.2738
7217 2 17.2796 7.4871 6.56496
958 1 20.9178 7.47031 5.2738
1980 1 1.82261 9.04316 5.25051
8014 2 0.914446 10.6331 6.51784
1838 1 4.55247 10.6163 5.22653
8013 2 3.64072 9.06004 6.54172
1837 1 7.27888 9.04314 5.25049
7807 2 6.37065 10.6331 6.51788
7836 2 9.09697 9.05999 6.54169
1602 1 10.0087 10.6163 5.22653
7542 2 11.8268 10.6331 6.51794
1309 1 15.4649 10.6163 5.22652
1627 1 12.7351 9.04312 5.25049
7541 2 14.5532 9.05991 6.54166
1308 1 18.1913 9.04313 5.25051
7202 2 17.2831 10.6331 6.5179
951 1 20.9212 10.6162 5.22651
7219 2 20.0095 9.05996 6.54169
1963 1 1.8261 12.1897 5.20195
7991 2 0.918155 13.7801 6.46846
1812 1 4.55603 13.7634 5.17689
8016 2 3.64437 12.2065 6.49348
1840 1 7.28234 12.1897 5.20195
7805 2 9.10065 12.2065 6.49343
7806 2 6.37439 13.7801 6.46847
1601 1 10.0123 13.7634 5.17688
7513 2 11.8306 13.7801 6.46847
1286 1 15.4685 13.7634 5.17689
1600 1 12.7386 12.1897 5.20195
7544 2 14.5569 12.2065 6.49343
1311 1 18.1948 12.1897 5.20195
7201 2 17.2869 13.7801 6.46846
950 1 20.9248 13.7634 5.1769
7200 2 20.0131 12.2065 6.49349
1964 1 1.82976 15.3375 5.15147
7990 2 0.921751 16.9283 6.41735
1811 1 4.55973 16.912 5.12579
7989 2 3.64811 15.354 6.44306
1810 1 7.286 15.3375 5.15147
7772 2 6.37803 16.9283 6.41732
7808 2 9.10433 15.354 6.44305
1570 1 10.016 16.912 5.12578
7512 2 11.8343 16.9283 6.41729
1285 1 15.4722 16.9119 5.12579
1603 1 12.7422 15.3375 5.15145
7511 2 14.5606 15.354 6.44307
1284 1 18.1985 15.3375 5.15145
7178 2 17.2905 16.9283 6.41733
935 1 20.9285 16.9119 5.1258
7203 2 20.0168 15.354 6.44308
1947 1 1.83341 18.4869 5.1
7967 2 0.925367 20.0778 6.36545
1784 1 4.56326 20.0622 5.07418
7992 2 3.65172 18.5029 6.39139
1813 1 7.28966 18.4869 5.09999
7770 2 9.10794 18.5029 6.39141
7771 2 6.38156 20.0778 6.36552
1569 1 10.0195 20.0622 5.07418
7475 2 11.8378 20.0778 6.36554
1254 1 15.4757 20.0622 5.07416
1568 1 12.7459 18.4868 5.09999
7514 2 14.5642 18.5028 6.39141
1287 1 18.2021 18.4868 5.09999
7177 2 17.2941 20.0778 6.36547
934 1 20.932 20.0622 5.07416
7176 2 20.0204 18.5028 6.39139
1948 1 1.83681 21.6381 5.04852
7966 2 0.928462 23.2291 6.31431
1783 1 4.56641 23.2145 5.02316
7965 2 3.65501 21.6532 6.33976
1782 1 7.29304 21.6381 5.04851
7736 2 6.38467 23.2291 6.31427
7773 2 9.1113 21.6532 6.33974
1531 1 10.0227 23.2145 5.02315
7474 2 11.8409 23.229 6.31426
1253 1 15.4789 23.2145 5.02312
1571 1 12.7493 21.6381 5.0485
7473 2 14.5675 21.6532 6.33976
1252 1 18.2055 21.6381 5.04852
7146 2 17.2972 23.229 6.31429
911 1 20.9351 23.2145 5.02313
7179 2 20.0237 21.6532 6.33978
1931 1 1.83972 24.7914 4.99824
7943 2 0.931389 26.3823 6.26486
7968 2 3.65811 24.8053 6.28925
1756 1 4.56916 26.369 4.97397
1785 1 7.29594 24.7914 4.99823
7734 2 9.11434 24.8054 6.28929
7735 2 6.38762 26.3823 6.26483
1530 1 10.0254 26.369 4.97397
7430 2 11.8438 26.3823 6.26485
1529 1 12.7522 24.7914 4.99822
7476 2 14.5706 24.8054 6.28925
1214 1 15.4816 26.369 4.97397
1255 1 18.2084 24.7914 4.99823
7145 2 17.3001 26.3823 6.26488
7144 2 20.0268 24.8054 6.28921
910 1 20.9379 26.369 4.97397
1932 1 1.84224 27.9472 4.95055
7942 2 0.934152 29.5378 6.2188
7941 2 3.66092 27.9598 6.24133
1755 1 4.57152 29.5259 4.92816
1754 1 7.29846 27.9472 4.95055
7737 2 9.11715 27.9598 6.24134
7700 2 6.39038 29.5378 6.21883
1491 1 10.0278 29.5259 4.92814
7429 2 11.8466 29.5378 6.21879
1532 1 12.7547 27.9472 4.95053
7428 2 14.5734 27.9598 6.24133
1213 1 15.484 29.5259 4.92815
1212 1 18.2109 27.9472 4.95053
7106 2 17.3029 29.5378 6.21876
7147 2 20.0297 27.9598 6.24132
879 1 20.9403 29.5259 4.92816
1915 1 1.84453 31.1053 4.90695
7944 2 3.66352 31.1163 6.19737
1757 1 7.30078 31.1053 4.90696
7698 2 9.11977 31.1163 6.19736
1489 1 12.757 31.1053 4.90696
7431 2 14.576 31.1163 6.1974
1215 1 18.2132 31.1053 4.90696
7104 2 20.0323 31.1163 6.1974
1916 1 1.84668 34.2657 4.86899
7920 2 0.936661 32.6955 6.17751
1728 1 4.57379 32.6852 4.88715
7918 2 3.66584 34.2752 6.1591
1726 1 7.3029 34.2657 4.86899
7699 2 6.39291 32.6955 6.17747
7701 2 9.12208 34.2751 6.15917
1490 1 10.03 32.6852 4.88715
7384 2 11.8492 32.6954 6.17749
1167 1 15.4863 32.6852 4.88717
1492 1 12.7591 34.2657 4.86897
7382 2 14.5783 34.2751 6.15921
1165 1 18.2154 34.2657 4.86897
7105 2 17.3054 32.6954 6.17752
878 1 20.9425 32.6852 4.88718
7107 2 20.0345 34.2751 6.15914
1900 1 1.84855 37.4281 4.83786
7919 2 0.938848 35.8552 6.14246
1727 1 4.5758 35.8466 4.85246
7921 2 3.66781 37.4358 6.12769
1729 1 7.30478 37.4281 4.83785
7666 2 9.12404 37.4358 6.12772
7668 2 6.39506 35.8552 6.14243
1452 1 10.032 35.8466 4.85246
7383 2 11.8513 35.8552 6.14251
1166 1 15.4883 35.8467 4.85246
1450 1 12.761 37.4281 4.83785
7385 2 14.5803 37.4358 6.12767
1168 1 18.2173 37.4281 4.83786
7059 2 17.3076 35.8552 6.14254
839 1 20.9445 35.8467 4.85247
7057 2 20.0365 37.4358 6.12764
1901 1 1.84997 40.5922 4.81466
7904 2 0.940506 39.0168 6.11492
1704 1 4.57744 39.0099 4.82522
7902 2 3.66931 40.5982 6.10418
1702 1 7.30619 40.5922 4.81466
7667 2 6.39674 39.0169 6.11497
7669 2 9.1255 40.5982 6.1042
1451 1 10.0337 39.0099 4.82521
7344 2 11.8531 39.0168 6.11495
1120 1 15.4899 39.0099 4.82521
1453 1 12.7624 40.5921 4.81467
7342 2 14.5817 40.5982 6.10424
1118 1 18.2187 40.5921 4.81467
7058 2 17.3093 39.0168 6.11491
838 1 20.9461 39.0099 4.82522
7060 2 20.038 40.5982 6.10422
1892 1 1.85082 43.7574 4.80008
7903 2 0.941701 42.1798 6.09567
1703 1 4.57852 42.1747 4.80626
7905 2 3.67015 43.7617 6.0895
1705 1 7.30707 43.7574 4.80009
7642 2 9.12637 43.7617 6.08948
7644 2 6.398 42.1798 6.09568
1420 1 10.0348 42.1747 4.80626
7343 2 11.8542 42.1798 6.09571
1119 1 15.491 42.1747 4.80627
1418 1 12.7633 43.7574 4.80009
7345 2 14.5827 43.7617 6.08945
1121 1 18.2195 43.7574 4.80008
7012 2 17.3104 42.1799 6.0957
793 1 20.9472 42.1747 4.80627
7010 2 20.0389 43.7617 6.08947
1893 1 1.85106 46.9234 4.79466
7896 2 0.942324 45.3438 6.08555
1688 1 4.57903 45.3404 4.79622
7894 2 3.67037 46.926 6.08399
1686 1 7.3073 46.9234 4.79466
7643 2 6.39856 45.3438 6.08559
7645 2 9.12665 46.926 6.084
1419 1 10.0353 45.3404 4.79621
7312 2 11.8548 45.3438 6.08555
1080 1 15.4915 45.3403 4.79622
1421 1 12.7635 46.9233 4.79466
7310 2 14.5829 46.9261 6.08409
1078 1 18.2198 46.9233 4.79466
7011 2 17.311 45.3438 6.08551
792 1 20.9477 45.3403 4.79623
7013 2 20.0391 46.9261 6.08408
7895 2 0.942191 48.5082 6.08488
4042 1 1.85059 50.0893 4.79863
1687 1 4.57889 48.5064 4.79548
10232 2 3.66989 50.0902 6.08812
7625 2 6.39842 48.5082 6.08486
3921 1 7.30683 50.0893 4.79862
10030 2 9.12616 50.0903 6.08817
1393 1 10.0351 48.5064 4.79548
7311 2 11.8546 48.5082 6.08481
1079 1 15.4914 48.5064 4.7955
3689 1 12.7631 50.0893 4.7986
9757 2 14.5824 50.0903 6.08814
6969 2 17.3109 48.5082 6.08484
3384 1 18.2193 50.0893 4.79861
747 1 20.9476 48.5064 4.7955
9401 2 20.0386 50.0902 6.08809
1855 1 2.72239 1.212 7.93622
8035 2 1.81377 2.8004 9.20405
7831 2 4.54039 1.22713 9.224
1856 1 5.45205 2.78484 7.91617
1622 1 8.17864 1.21201 7.93622
7829 2 7.27 2.80045 9.20409
7561 2 9.99661 1.22716 9.22397
1620 1 10.9083 2.78483 7.91617
1322 1 13.6349 1.21199 7.93621
7214 2 15.4529 1.22711 9.22398
7562 2 12.7263 2.80043 9.20408
1323 1 16.3645 2.78482 7.91616
7212 2 18.1825 2.80037 9.20404
957 1 19.0911 1.21198 7.93621
6848 2 20.9091 1.22708 9.22401
1977 1 21.8208 2.78483 7.91616
1835 1 2.72555 4.3577 7.89521
7830 2 4.54345 4.37368 9.18309
1621 1 8.18178 4.35772 7.89522
7539 2 9.99964 4.37373 9.18316
1306 1 13.638 4.35772 7.89522
7213 2 15.4559 4.37374 9.18317
956 1 19.0943 4.3577 7.8952
6847 2 20.9122 4.37368 9.1831
1834 1 2.72894 7.50372 7.85072
8011 2 1.81699 5.94699 9.16134
1833 1 5.45534 5.93064 7.87337
7803 2 4.54686 7.52026 9.13878
1598 1 8.18519 7.50371 7.8507
7832 2 7.27325 5.94695 9.16129
1623 1 10.9116 5.93066 7.87339
7538 2 10.0031 7.52026 9.13878
1305 1 13.6414 7.50371 7.8507
7198 2 15.4594 7.5203 9.13875
7537 2 12.7295 5.947 9.16133
1304 1 16.3678 5.93067 7.87339
7215 2 18.1857 5.94704 9.16138
1978 1 21.824 5.93066 7.87338
949 1 19.0977 7.50373 7.85072
6846 2 20.9156 7.52031 9.13875
1808 1 2.7326 10.6503 7.80308
8012 2 1.82057 9.09363 9.11554
1836 1 5.45887 9.07694 7.82725
7802 2 4.55062 10.6671 9.0916
1597 1 8.18885 10.6503 7.80308
7801 2 7.27683 9.09362 9.11547
1596 1 10.9151 9.07694 7.82725
7509 2 10.0069 10.667 9.09159
1282 1 13.6451 10.6503 7.8031
7197 2 15.4631 10.6669 9.09155
7540 2 12.7331 9.09364 9.11549
1307 1 16.3713 9.07693 7.82725
7196 2 18.1893 9.09365 9.11556
1961 1 21.8276 9.07692 7.82725
948 1 19.1013 10.6503 7.8031
6839 2 20.9193 10.667 9.09156
1807 1 2.73656 13.7973 7.75302
7987 2 1.82454 12.2404 9.06692
1806 1 5.46266 12.2237 7.77831
7768 2 4.5546 13.814 9.04173
1566 1 8.19279 13.7973 7.75304
7804 2 7.28071 12.2405 9.06701
1599 1 10.9189 12.2237 7.77832
7508 2 10.0108 13.814 9.04175
1281 1 13.649 13.7973 7.75304
7174 2 15.467 13.8141 9.04181
7507 2 12.7369 12.2405 9.06703
1280 1 16.3752 12.2237 7.7783
7199 2 18.1932 12.2404 9.06694
1962 1 21.8314 12.2237 7.77829
933 1 19.1053 13.7973 7.75302
6838 2 20.9233 13.8141 9.0418
1780 1 2.74055 16.9451 7.7014
7988 2 1.82838 15.3878 9.01615
1945 1 0.0104478 15.3711 7.72737
1809 1 5.46669 15.3711 7.72736
7767 2 4.55847 16.9616 8.99019
1565 1 8.19679 16.9451 7.70139
7766 2 7.28467 15.3877 9.01615
1564 1 10.9229 15.3711 7.72735
7471 2 10.0147 16.9616 8.99018
1250 1 13.653 16.9451 7.70136
7173 2 15.4711 16.9616 8.99009
7510 2 12.7409 15.3877 9.01604
1283 1 16.3792 15.3711 7.72736
7172 2 18.1971 15.3878 9.01604
932 1 19.1093 16.9451 7.70137
6823 2 20.9273 16.9615 8.99011
1779 1 2.74429 20.0941 7.64892
7963 2 1.83232 18.5355 8.9639
1946 1 0.0143774 18.5194 7.67519
1778 1 5.47061 18.5194 7.67519
7732 2 4.56235 20.1098 8.93761
1527 1 8.20052 20.0941 7.64893
7769 2 7.28856 18.5356 8.96392
1567 1 10.9268 18.5195 7.6752
7470 2 10.0186 20.1097 8.93761
1249 1 13.6568 20.0941 7.64894
7142 2 15.4747 20.1098 8.93767
7469 2 12.7448 18.5356 8.96396
1248 1 16.3831 18.5194 7.67519
7175 2 18.201 18.5355 8.96394
909 1 19.113 20.0941 7.64893
6822 2 20.931 20.1098 8.93768
1752 1 2.74757 23.2445 7.59684
7964 2 1.83602 21.6843 8.91139
1929 1 0.0178437 21.6691 7.62276
1747 1 0.928304 23.2735 10.1698
1781 1 5.47408 21.6691 7.62277
7731 2 4.56591 23.2591 8.88527
1526 1 8.2038 23.2445 7.59685
7730 2 7.29225 21.6843 8.91134
1483 1 6.38452 23.2736 10.1698
1525 1 10.9303 21.6691 7.62275
7426 2 10.0221 23.2591 8.88529
1205 1 11.8408 23.2736 10.1698
1210 1 13.66 23.2444 7.59684
7141 2 15.4784 23.259 8.88524
7472 2 12.7485 21.6842 8.91133
1251 1 16.3865 21.6691 7.62275
7140 2 18.2048 21.6843 8.91137
874 1 17.297 23.2735 10.1698
908 1 19.1163 23.2444 7.59683
6799 2 20.9346 23.2591 8.88522
7939 2 1.83958 24.8342 8.85955
1751 1 2.75052 26.3965 7.54638
1930 1 0.0209335 24.8203 7.57131
1720 1 0.931795 26.4232 10.118
1750 1 5.47715 24.8203 7.5713
7696 2 4.56939 26.4098 8.83458
1749 1 3.65817 24.8481 10.1436
7733 2 7.29578 24.8341 8.85957
1487 1 8.20676 26.3965 7.54636
1481 1 9.11442 24.8482 10.1436
1482 1 6.38803 26.4232 10.118
1528 1 10.9334 24.8203 7.57131
7425 2 10.0257 26.4098 8.83458
1159 1 11.8443 26.4232 10.118
7424 2 12.752 24.8342 8.85963
1209 1 13.663 26.3965 7.54639
7102 2 15.4818 26.4099 8.83461
1207 1 14.5706 24.8482 10.1436
1208 1 16.3896 24.8203 7.57131
7143 2 18.2083 24.8343 8.85961
873 1 17.3005 26.4232 10.118
877 1 19.1192 26.3965 7.54641
6798 2 20.9381 26.4099 8.83461
872 1 20.0269 24.8482 10.1436
7940 2 1.84281 27.986 8.81037
1724 1 2.75335 29.5506 7.49929
1913 1 0.0237957 27.9733 7.52232
1719 1 0.935258 29.5742 10.0694
1753 1 5.48003 27.9733 7.52231
7695 2 4.57248 29.5624 8.78718
1718 1 3.66173 27.9985 10.0932
7694 2 7.29902 27.986 8.81039
1486 1 8.20958 29.5506 7.49929
1484 1 9.11797 27.9985 10.0932
1444 1 6.3915 29.5742 10.0695
1485 1 10.9363 27.9733 7.52232
7380 2 10.0287 29.5625 8.78715
1158 1 11.8477 29.5742 10.0695
7427 2 12.7553 27.9859 8.81037
1163 1 13.6658 29.5506 7.49929
7101 2 15.485 29.5624 8.78715
1157 1 14.5742 27.9985 10.0932
1211 1 16.3925 27.9733 7.52233
7100 2 18.2116 27.9859 8.81034
834 1 17.304 29.5742 10.0694
876 1 19.122 29.5506 7.4993
6767 2 20.9413 29.5624 8.78719
875 1 20.0304 27.9985 10.0932
7916 2 1.84582 31.1394 8.76515
1914 1 0.0266236 31.1284 7.4775
1722 1 5.48284 31.1284 7.47748
1721 1 3.66511 31.1503 10.047
7697 2 7.30216 31.1394 8.76519
1442 1 9.12132 31.1503 10.047
1488 1 10.9391 31.1284 7.47749
7378 2 12.7583 31.1395 8.76523
1160 1 14.5775 31.1504 10.047
1161 1 16.3953 31.1284 7.47751
7103 2 18.2145 31.1394 8.76519
832 1 20.0338 31.1503 10.047
1723 1 2.75598 32.7066 7.45711
7917 2 1.84843 34.2947 8.72577
1898 1 0.0291572 34.2854 7.4384
1696 1 0.938408 32.727 10.026
1725 1 5.48539 34.2854 7.43839
7664 2 4.57539 32.7169 8.74461
1694 1 3.66798 34.3039 10.0064
1448 1 8.21224 32.7066 7.45712
7662 2 7.30474 34.2948 8.72583
1443 1 6.39466 32.727 10.026
1445 1 9.12419 34.3039 10.0064
1446 1 10.9416 34.2854 7.4384
7379 2 10.0316 32.7168 8.74457
1112 1 11.8509 32.727 10.026
1162 1 13.6685 32.7067 7.45713
7055 2 15.4879 32.7169 8.74465
7381 2 12.761 34.2947 8.72573
1110 1 14.5805 34.3039 10.0064
1164 1 16.3979 34.2854 7.43842
7053 2 18.2171 34.2947 8.72568
833 1 17.3071 32.727 10.026
837 1 19.1247 32.7067 7.45711
6766 2 20.9442 32.7169 8.74469
835 1 20.0367 34.3039 10.0064
1700 1 2.75831 35.8646 7.42141
1899 1 0.0312846 37.4442 7.40629
7900 2 1.85078 37.4518 8.6932
1695 1 0.941093 35.8814 9.98873
1698 1 5.48751 37.4442 7.40629
7663 2 4.57779 35.873 8.70842
1697 1 3.67033 37.4594 9.97299
1447 1 8.21455 35.8646 7.42142
7665 2 7.30701 37.4518 8.69316
1410 1 9.12658 37.4594 9.97299
1412 1 6.39733 35.8814 9.98874
1449 1 10.9438 37.4442 7.4063
7340 2 10.034 35.873 8.70843
1111 1 11.8536 35.8814 9.98874
1116 1 13.6708 35.8646 7.42142
7054 2 15.4903 35.873 8.70843
7338 2 12.7632 37.4518 8.69312
1113 1 14.5828 37.4594 9.97299
1114 1 16.4 37.4442 7.4063
7056 2 18.2194 37.4518 8.69317
788 1 17.3098 35.8814 9.98873
836 1 19.127 35.8646 7.4214
6728 2 20.9466 35.873 8.70842
786 1 20.039 37.4594 9.97299
1699 1 2.76011 39.0242 7.39325
1890 1 0.0328227 40.6046 7.38225
7901 2 1.85253 40.6104 8.66877
1680 1 0.943306 39.0377 9.95933
1701 1 5.48909 40.6045 7.38225
7640 2 4.57978 39.031 8.67987
1678 1 3.67217 40.6163 9.94782
1416 1 8.21632 39.0242 7.39325
7638 2 7.30872 40.6104 8.6687
1411 1 6.39953 39.0377 9.95931
1413 1 9.1284 40.6163 9.94784
1414 1 10.9453 40.6045 7.38226
7339 2 10.0361 39.031 8.67988
1072 1 11.8558 39.0376 9.95927
1115 1 13.6725 39.0242 7.39325
7008 2 15.4923 39.031 8.67991
7341 2 12.765 40.6104 8.66871
1070 1 14.5846 40.6163 9.94781
1117 1 16.4016 40.6046 7.38226
7006 2 18.2213 40.6104 8.66878
787 1 17.312 39.0377 9.95929
791 1 19.1288 39.0242 7.39325
6727 2 20.9485 39.031 8.6799
789 1 20.0409 40.6162 9.94779
1684 1 2.76142 42.1852 7.37359
1891 1 0.033811 43.766 7.36715
7892 2 1.85361 43.7703 8.65344
1679 1 0.944941 42.1951 9.93872
1682 1 5.49006 43.766 7.36715
7639 2 4.58127 42.1903 8.65996
1681 1 3.67337 43.7742 9.93219
1415 1 8.21763 42.1852 7.37357
7641 2 7.30982 43.7703 8.65343
1386 1 9.1296 43.7742 9.9322
1388 1 6.40118 42.1951 9.93872
1417 1 10.9463 43.766 7.36714
7308 2 10.0375 42.1903 8.65998
1071 1 11.8574 42.1951 9.93874
1076 1 13.6739 42.1852 7.37356
7007 2 15.4937 42.1903 8.65991
7306 2 12.7661 43.7704 8.65349
1073 1 14.5858 43.7743 9.9322
1074 1 16.4025 43.766 7.36714
7009 2 18.2223 43.7704 8.6535
743 1 17.3137 42.1951 9.93875
790 1 19.1302 42.1852 7.37358
6688 2 20.95 42.1903 8.6599
741 1 20.0421 43.7743 9.93219
1683 1 2.76209 45.347 7.36314
1889 1 0.0341447 46.928 7.36152
7893 2 1.854 46.9306 8.64782
1672 1 0.945888 45.3534 9.92797
1685 1 5.49039 46.928 7.36153
7624 2 4.58212 45.3504 8.64942
1670 1 3.67376 46.9328 9.92645
1392 1 8.21833 45.347 7.36313
7622 2 7.31023 46.9306 8.64781
1387 1 6.40214 45.3534 9.92796
1389 1 9.12999 46.9328 9.92646
1390 1 10.9466 46.928 7.36152
7307 2 10.0384 45.3504 8.64941
1040 1 11.8584 45.3534 9.92793
1075 1 13.6746 45.347 7.36315
6968 2 15.4946 45.3504 8.64943
7309 2 12.7665 46.9306 8.64778
1038 1 14.5862 46.9328 9.92645
1077 1 16.4029 46.928 7.36152
6966 2 18.2227 46.9306 8.6478
742 1 17.3146 45.3534 9.92794
746 1 19.1308 45.347 7.36315
6687 2 20.9508 45.3504 8.64943
744 1 20.0425 46.9328 9.92644
1673 1 2.76212 48.5091 7.36235
4041 1 0.0337672 50.0901 7.36562
10210 2 1.85346 50.0911 8.65212
1671 1 0.945839 48.5121 9.92728
7623 2 4.58203 48.5109 8.64881
3902 1 5.49001 50.0901 7.36561
3901 1 3.67335 50.0912 9.93084
1391 1 8.21835 48.5091 7.36234
3665 1 9.12958 50.0912 9.93087
10029 2 7.30977 50.091 8.65208
1369 1 6.40211 48.5121 9.92728
7281 2 10.0382 48.5109 8.64885
3688 1 10.9462 50.0901 7.3656
1039 1 11.8583 48.5121 9.9273
1041 1 13.6746 48.5091 7.36234
6967 2 15.4945 48.5109 8.64886
3368 1 14.5858 50.0913 9.93086
9736 2 12.766 50.0911 8.65208
3369 1 16.4025 50.0901 7.36561
9400 2 18.2222 50.0911 8.65211
702 1 17.3145 48.5121 9.9273
745 1 19.1309 48.5091 7.36235
6648 2 20.9508 48.5109 8.64882
3001 1 20.0421 50.0913 9.93084
1831 1 0.901878 1.24241 10.5117
7827 2 2.71979 1.25761 11.7984
1829 1 3.63153 2.81612 10.4918
7828 2 5.44943 2.8317 11.7785
1618 1 6.35812 1.24243 10.5117
7535 2 8.176 1.25769 11.7984
1619 1 9.08776 2.81614 10.4918
1302 1 11.8144 1.24243 10.5117
7533 2 10.9056 2.83177 11.7785
7210 2 13.6323 1.25768 11.7984
1300 1 14.544 2.81613 10.4918
954 1 17.2706 1.24241 10.5117
7211 2 16.3618 2.83174 11.7786
6845 2 19.0885 1.25759 11.7984
955 1 20.0003 2.81611 10.4918
8009 2 21.8181 2.83167 11.7785
1830 1 0.90505 4.38974 10.4709
7799 2 2.72283 4.40569 11.7577
1594 1 6.36129 4.38973 10.4709
7534 2 8.1791 4.40567 11.7577
1301 1 11.8175 4.38974 10.4709
7194 2 13.6353 4.40567 11.7577
946 1 17.2737 4.38975 10.4709
6844 2 19.0915 4.40569 11.7577
1804 1 0.908549 7.53685 10.4264
7798 2 2.72636 7.55352 11.7137
1800 1 1.81414 5.99608 13.0245
1832 1 3.63487 5.9633 10.4491
7797 2 5.45267 5.97958 11.736
1558 1 4.54404 7.57019 13.002
1592 1 9.09111 5.96329 10.4491
1593 1 6.36478 7.53683 10.4264
7505 2 8.18264 7.55338 11.7136
1591 1 7.27039 5.99608 13.0245
1278 1 11.821 7.53684 10.4264
7536 2 10.9089 5.97955 11.736
1273 1 10.0003 7.57016 13.002
1303 1 14.5473 5.9633 10.4491
7193 2 13.6388 7.55337 11.7136
926 1 15.4565 7.57015 13.002
1272 1 12.7266 5.99609 13.0245
945 1 17.2773 7.53686 10.4264
7192 2 16.3651 5.97958 11.7361
943 1 18.1828 5.99609 13.0245
944 1 20.0036 5.96331 10.4491
8010 2 21.8214 5.97961 11.7361
6837 2 19.095 7.55351 11.7137
590 1 20.9128 7.57018 13.002
1803 1 0.91243 10.6839 10.3788
7764 2 2.73023 10.7008 11.6665
1801 1 1.81787 9.14409 12.9787
1802 1 3.63853 9.1104 10.403
7800 2 5.45627 9.12729 11.6905
1557 1 4.54803 10.7178 12.9546
1562 1 6.36865 10.6839 10.3788
1595 1 9.0948 9.11039 10.4029
7504 2 8.18641 10.7009 11.6666
1556 1 7.2741 9.14411 12.9787
1277 1 11.8249 10.6839 10.3788
7503 2 10.9126 9.12723 11.6905
1242 1 10.0043 10.7178 12.9547
1276 1 14.551 9.11039 10.4029
7170 2 13.6426 10.701 11.6666
925 1 15.4605 10.7178 12.9547
1275 1 12.7303 9.1441 12.9787
930 1 17.2812 10.6839 10.3787
7195 2 16.3689 9.12717 11.6904
924 1 18.1866 9.14408 12.9787
947 1 20.0072 9.1104 10.4029
7985 2 21.8251 9.12722 11.6905
6836 2 19.0989 10.7008 11.6665
583 1 20.9167 10.7178 12.9547
1776 1 0.916612 13.8308 10.3286
7763 2 2.73429 13.848 11.6165
1772 1 1.82205 12.2913 12.9299
1805 1 3.64262 12.2574 10.3539
7762 2 5.46037 12.2744 11.6418
1519 1 4.55234 13.8646 12.9045
1560 1 9.09885 12.2574 10.3539
1561 1 6.37288 13.8308 10.3286
7467 2 8.19054 13.848 11.6164
1559 1 7.27829 12.2913 12.9299
1246 1 11.8291 13.8308 10.3286
7506 2 10.9166 12.2744 11.6417
1241 1 10.0086 13.8646 12.9045
1279 1 14.5551 12.2574 10.354
7169 2 13.6469 13.8479 11.6164
902 1 15.4648 13.8646 12.9045
1240 1 12.7345 12.2913 12.9299
929 1 17.2853 13.8308 10.3286
7168 2 16.3728 12.2745 11.6418
927 1 18.1908 12.2913 12.9299
928 1 20.0113 12.2574 10.354
7986 2 21.829 12.2745 11.6419
6821 2 19.1031 13.8479 11.6164
582 1 20.9211 13.8646 12.9045
1775 1 0.920816 16.9778 10.2764
7728 2 2.7386 16.9946 11.5644
1773 1 1.82639 15.4377 12.8785
7961 2 0.00834443 15.4213 11.5905
1774 1 3.64685 15.4043 10.3028
7765 2 5.46457 15.4214 11.5906
1518 1 4.55664 17.0108 12.852
1523 1 6.37705 16.9778 10.2765
1563 1 9.10308 15.4042 10.3027
7466 2 8.19478 16.9946 11.5644
1517 1 7.28262 15.4377 12.8785
1245 1 11.8333 16.9778 10.2765
7465 2 10.9208 15.4214 11.5907
1202 1 10.0129 17.0108 12.852
1244 1 14.5593 15.4042 10.3027
7138 2 13.651 16.9946 11.5644
901 1 15.4691 17.0108 12.852
1243 1 12.7389 15.4377 12.8785
906 1 17.2895 16.9778 10.2765
7171 2 16.377 15.4213 11.5906
900 1 18.1951 15.4377 12.8785
931 1 20.0156 15.4042 10.3027
6820 2 19.1073 16.9946 11.5644
567 1 20.9253 17.0108 12.852
1748 1 0.924694 20.1253 10.2232
7727 2 2.7427 20.1415 11.5111
1744 1 1.83058 18.5838 12.8251
7962 2 0.0125377 18.568 11.5379
1777 1 3.65092 18.5514 10.2499
7726 2 5.46883 18.5679 11.5379
1479 1 4.5608 20.1568 12.7979
1521 1 9.10715 18.5514 10.2499
1522 1 6.38094 20.1253 10.2232
7422 2 8.19894 20.1414 11.5111
1520 1 7.28682 18.5838 12.825
1206 1 11.8372 20.1252 10.2232
7468 2 10.9251 18.568 11.5379
1201 1 10.017 20.1568 12.7979
1247 1 14.5634 18.5515 10.2499
7137 2 13.6552 20.1414 11.5111
870 1 15.4733 20.1568 12.7979
1200 1 12.7431 18.5838 12.8251
905 1 17.2934 20.1253 10.2232
7136 2 16.3813 18.568 11.5379
903 1 18.1993 18.5838 12.8251
904 1 20.0196 18.5514 10.2499
6797 2 19.1114 20.1415 11.5112
566 1 20.9295 20.1568 12.7979
7692 2 2.74678 23.2886 11.4577
1745 1 1.83473 21.7298 12.7705
7937 2 0.0166657 21.7149 11.4844
1746 1 3.65462 21.6993 10.1964
7729 2 5.47286 21.7149 11.4844
1478 1 4.56499 23.3029 12.7434
1524 1 9.11087 21.6993 10.1964
7421 2 8.20304 23.2887 11.4577
1477 1 7.29098 21.7298 12.7706
7420 2 10.9291 21.715 11.4844
1155 1 10.0212 23.303 12.7434
1204 1 14.5671 21.6993 10.1964
7098 2 13.6593 23.2887 11.4577
869 1 15.4775 23.303 12.7434
1203 1 12.7472 21.7298 12.7706
7139 2 16.3854 21.715 11.4843
868 1 18.2035 21.7298 12.7705
907 1 20.0233 21.6993 10.1964
6796 2 19.1155 23.2886 11.4576
543 1 20.9337 23.303 12.7434
7691 2 2.75052 26.437 11.4058
1716 1 1.83902 24.8763 12.7165
7938 2 0.0206249 24.8627 11.4315
7690 2 5.47684 24.8626 11.4314
1440 1 4.56927 26.4498 12.6902
7376 2 8.20686 26.437 11.4058
1480 1 7.29527 24.8763 12.7165
7423 2 10.933 24.8626 11.4314
1154 1 10.0255 26.4498 12.6901
7097 2 13.6631 26.4369 11.4057
1153 1 12.7515 24.8763 12.7165
830 1 15.4818 26.4498 12.6901
7096 2 16.3893 24.8627 11.4315
871 1 18.2077 24.8763 12.7165
6765 2 19.1192 26.4369 11.4058
542 1 20.938 26.4498 12.6902
1717 1 1.84332 28.0236 12.6646
7914 2 0.0243303 28.0115 11.3807
7660 2 2.75428 29.5863 11.3567
7693 2 5.48054 28.0115 11.3807
1439 1 4.57341 29.5978 12.64
1438 1 7.29956 28.0236 12.6646
7375 2 8.21044 29.5863 11.3567
7374 2 10.9367 28.0115 11.3807
1108 1 10.0297 29.5977 12.64
1156 1 12.7558 28.0236 12.6646
7051 2 13.6666 29.5864 11.3568
829 1 15.4859 29.5978 12.64
7099 2 16.393 28.0114 11.3807
828 1 18.212 28.0236 12.6646
6764 2 19.1229 29.5864 11.3567
511 1 20.9421 29.5978 12.64
1692 1 1.84711 31.1722 12.6165
7915 2 0.0276383 31.1618 11.334
7658 2 5.48395 31.1617 11.334
1441 1 7.30335 31.1722 12.6165
7377 2 10.9403 31.1617 11.334
1106 1 12.7596 31.1722 12.6165
831 1 18.2158 31.1722 12.6165
7049 2 16.3964 31.1617 11.334
1693 1 1.85048 34.3225 12.574
7659 2 2.75745 32.7375 11.3127
7898 2 0.0309998 34.3134 11.2928
1408 1 4.57707 32.7471 12.5944
7661 2 5.48722 34.3135 11.2928
1406 1 7.30673 34.3225 12.574
7336 2 8.21369 32.7375 11.3127
1107 1 10.0333 32.7471 12.5944
7334 2 10.9434 34.3136 11.2928
784 1 15.4895 32.7471 12.5943
1109 1 12.763 34.3225 12.574
7050 2 13.67 32.7374 11.3126
782 1 18.2192 34.3225 12.574
7052 2 16.3997 34.3135 11.2928
510 1 20.9458 32.7471 12.5944
6726 2 19.1262 32.7374 11.3127
1676 1 1.85349 37.4744 12.5386
7636 2 2.76047 35.8901 11.2747
7899 2 0.033793 37.4673 11.2588
1407 1 4.58033 35.8982 12.5553
7634 2 5.49001 37.4672 11.2587
1409 1 7.30975 37.4744 12.5386
7335 2 8.21678 35.8901 11.2748
1068 1 10.0365 35.8982 12.5553
7337 2 10.9463 37.4671 11.2587
783 1 15.4928 35.8982 12.5553
1066 1 12.766 37.4744 12.5386
7004 2 13.673 35.8902 11.2749
785 1 18.2222 37.4744 12.5386
7002 2 16.4025 37.4672 11.2588
475 1 20.949 35.8982 12.5553
6725 2 19.1292 35.8902 11.2748
1677 1 1.85617 40.6279 12.5123
7635 2 2.76302 39.0446 11.2449
7890 2 0.0361799 40.6222 11.2331
1384 1 4.58312 39.051 12.5242
7637 2 5.49231 40.6222 11.2331
1382 1 7.31242 40.6279 12.5123
7304 2 8.21933 39.0446 11.245
1067 1 10.0393 39.051 12.5243
7302 2 10.9486 40.6223 11.2332
739 1 15.4956 39.0509 12.5243
1069 1 12.7686 40.6279 12.5123
7003 2 13.6755 39.0445 11.2449
737 1 18.2249 40.6279 12.5123
7005 2 16.4049 40.6223 11.2332
474 1 20.9518 39.0509 12.5242
6686 2 19.1317 39.0445 11.2448
1668 1 1.85796 43.7823 12.4958
7620 2 2.76508 42.2003 11.2241
7891 2 0.0375593 43.7784 11.2172
1383 1 4.58531 42.205 12.5028
7618 2 5.49382 43.7784 11.2172
1385 1 7.31418 43.7823 12.4958
7303 2 8.22134 42.2003 11.2241
1036 1 10.0415 42.205 12.5028
7305 2 10.9501 43.7783 11.2172
738 1 15.4978 42.2049 12.5028
1034 1 12.7704 43.7823 12.4958
6964 2 13.6775 42.2003 11.2241
740 1 18.2267 43.7823 12.4958
6962 2 16.4063 43.7783 11.2172
439 1 20.954 42.2049 12.5028
6685 2 19.1337 42.2003 11.2241
1669 1 1.85855 46.9374 12.4899
7619 2 2.76605 45.3567 11.2131
7889 2 0.0380766 46.9351 11.2114
1368 1 4.58641 45.3598 12.4915
7621 2 5.4943 46.935 11.2115
1366 1 7.31479 46.9374 12.4899
7280 2 8.22228 45.3567 11.2131
1035 1 10.0427 45.3599 12.4915
7278 2 10.9505 46.9351 11.2115
701 1 15.4989 45.3598 12.4915
1037 1 12.771 46.9374 12.4899
6963 2 13.6785 45.3566 11.2131
699 1 18.2273 46.9374 12.4899
6965 2 16.4068 46.9352 11.2115
438 1 20.9551 45.3598 12.4915
6647 2 19.1348 45.3566 11.2131
7609 2 2.76607 48.5134 11.2124
3875 1 1.85775 50.0923 12.4946
10209 2 0.0375672 50.0918 11.2159
1367 1 4.58628 48.5148 12.491
10002 2 5.49383 50.0918 11.2159
7279 2 8.22231 48.5135 11.2124
3664 1 7.31402 50.0922 12.4946
1009 1 10.0425 48.5148 12.4909
9735 2 10.95 50.0917 11.2159
700 1 15.4988 48.5149 12.4909
6929 2 13.6785 48.5134 11.2124
3345 1 12.7703 50.0922 12.4946
3000 1 18.2265 50.0923 12.4946
9385 2 16.4062 50.0917 11.2159
403 1 20.955 48.5148 12.491
6646 2 19.1348 48.5134 11.2124
7795 2 0.899107 1.28805 14.3728
1586 1 2.7168 1.30352 15.6614
1828 1 1.81088 2.84744 13.0669
1590 1 4.53751 1.27283 13.0867
7793 2 3.62861 2.86312 14.3532
1587 1 5.44629 2.87907 15.6419
7531 2 6.35534 1.28798 14.3728
1270 1 8.17304 1.3035 15.6614
1588 1 7.26713 2.84743 13.0669
7532 2 9.08488 2.8631 14.3532
1298 1 9.99374 1.27285 13.0867
7190 2 11.8116 1.288 14.3728
1268 1 10.9025 2.87907 15.6419
942 1 15.45 1.27287 13.0867
938 1 13.6293 1.3035 15.6614
1299 1 12.7234 2.84744 13.0669
7188 2 14.5412 2.86309 14.3531
6842 2 17.2678 1.28807 14.3728
940 1 18.1796 2.84745 13.0669
939 1 16.3588 2.87907 15.6419
592 1 20.9062 1.27285 13.0867
589 1 19.0855 1.30352 15.6614
6843 2 19.9974 2.8631 14.3532
1798 1 21.815 2.87906 15.6419
7794 2 0.902084 4.43793 14.3326
1554 1 2.71967 4.45434 15.6214
1589 1 4.54058 4.42185 13.0462
7501 2 6.3583 4.43796 14.3326
1269 1 8.17591 4.45434 15.6214
1274 1 9.99682 4.42185 13.0462
7189 2 11.8145 4.43801 14.3326
941 1 15.4531 4.42183 13.0462
922 1 13.6321 4.45436 15.6214
6834 2 17.2708 4.43798 14.3326
591 1 20.9093 4.42183 13.0462
588 1 19.0884 4.45435 15.6215
7760 2 0.905506 7.58718 14.2891
1553 1 2.723 7.60412 15.5779
7796 2 3.63188 6.01266 14.3113
1552 1 5.44936 6.02939 15.6001
7499 2 9.08816 6.01263 14.3112
7500 2 6.36173 7.58721 14.2892
1238 1 8.17924 7.60414 15.5779
7166 2 11.818 7.58714 14.2891
1271 1 10.9056 6.02938 15.6001
7191 2 14.5444 6.01269 14.3113
921 1 13.6355 7.60413 15.5779
6833 2 17.2743 7.58711 14.2891
920 1 16.3618 6.02938 15.6001
6832 2 20.0006 6.01272 14.3113
1799 1 21.8181 6.02939 15.6001
581 1 19.0917 7.60411 15.5779
7759 2 0.909299 10.7353 14.2423
1515 1 2.72694 10.7525 15.531
7758 2 3.63547 9.16131 14.2661
1555 1 5.45304 9.1785 15.5548
7463 2 6.36557 10.7352 14.2422
7502 2 9.09166 9.16135 14.2661
1237 1 8.18318 10.7525 15.531
7165 2 11.8218 10.7352 14.2422
1236 1 10.9093 9.1785 15.5548
7164 2 14.5479 9.16134 14.2662
898 1 13.6394 10.7525 15.531
6818 2 17.278 10.7353 14.2423
923 1 16.3655 9.1785 15.5548
6835 2 20.0042 9.1613 14.2661
1770 1 21.8217 9.1785 15.5548
580 1 19.0957 10.7525 15.531
7724 2 0.913606 13.8823 14.1922
1514 1 2.73119 13.8994 15.4811
7761 2 3.63952 12.3089 14.2175
1513 1 5.45717 12.3261 15.5064
7461 2 9.09574 12.3089 14.2176
7462 2 6.36988 13.8823 14.1922
1198 1 8.18743 13.8994 15.4811
7134 2 11.8261 13.8823 14.1922
1239 1 10.9134 12.3261 15.5064
7167 2 14.552 12.3089 14.2175
897 1 13.6437 13.8994 15.4811
6817 2 17.2823 13.8823 14.1922
896 1 16.3696 12.3261 15.5064
6816 2 20.0083 12.3089 14.2175
1771 1 21.8259 12.3261 15.5064
565 1 19.0999 13.8994 15.4811
7723 2 0.918066 17.0283 14.1399
1475 1 2.73556 17.0451 15.4285
7722 2 3.64393 15.4554 14.1663
1516 1 5.4615 15.4724 15.4551
7418 2 6.37426 17.0283 14.14
7464 2 9.10019 15.4554 14.1663
1197 1 8.19179 17.0451 15.4285
7133 2 11.8304 17.0283 14.14
1196 1 10.9177 15.4724 15.4551
7132 2 14.5564 15.4554 14.1663
866 1 13.648 17.0451 15.4285
6794 2 17.2867 17.0283 14.1399
899 1 16.374 15.4723 15.4551
6819 2 20.0127 15.4554 14.1663
1742 1 21.8302 15.4723 15.4551
564 1 19.1043 17.0451 15.4285
7688 2 0.922367 20.1737 14.086
1474 1 2.7401 20.1897 15.3737
1743 1 0.00966421 18.6175 15.4013
7725 2 3.64828 18.601 14.1132
1473 1 5.46591 18.6175 15.4013
7416 2 9.10456 18.601 14.1132
7417 2 6.37862 20.1737 14.086
1151 1 8.19634 20.1897 15.3737
7094 2 11.8349 20.1737 14.0859
1199 1 10.9222 18.6175 15.4013
7135 2 14.5608 18.6011 14.1132
865 1 13.6526 20.1897 15.3737
6793 2 17.2911 20.1737 14.086
864 1 16.3784 18.6175 15.4013
6792 2 20.017 18.6011 14.1132
541 1 19.1088 20.1897 15.3737
7687 2 0.926845 23.3189 14.0315
1436 1 2.74503 23.3337 15.3181
1714 1 0.0144277 21.7617 15.3459
7686 2 3.65279 21.7462 14.0586
1476 1 5.47066 21.7617 15.3459
7372 2 6.38308 23.319 14.0314
7419 2 9.109 21.7463 14.0586
1150 1 8.20128 23.3337 15.3181
7093 2 11.8393 23.3189 14.0315
1149 1 10.9269 21.7618 15.3459
7092 2 14.5652 21.7462 14.0586
826 1 13.6575 23.3337 15.3181
6762 2 17.2955 23.3189 14.0315
867 1 16.3832 21.7617 15.3459
6795 2 20.0215 21.7462 14.0586
540 1 19.1137 23.3337 15.3181
7656 2 0.931258 26.4644 13.9779
1435 1 2.75008 26.4777 15.2633
1715 1 0.0194946 24.9057 15.2904
7689 2 3.65715 24.8918 14.0045
1434 1 5.47572 24.9057 15.2904
7370 2 9.11338 24.8917 14.0046
7371 2 6.38746 26.4644 13.9779
1104 1 8.20634 26.4777 15.2633
1152 1 10.9319 24.9057 15.2904
7047 2 11.8437 26.4645 13.9779
7095 2 14.5696 24.8917 14.0045
825 1 13.6626 26.4778 15.2633
824 1 16.3882 24.9057 15.2904
6761 2 17.3 26.4645 13.9779
6760 2 20.0259 24.8918 14.0045
509 1 19.1188 26.4778 15.2632
1690 1 0.0243159 28.0499 15.2366
7655 2 0.935521 29.6109 13.9272
1404 1 2.7547 29.6224 15.2108
7654 2 3.6616 28.0375 13.952
1437 1 5.48055 28.05 15.2366
7373 2 9.11788 28.0375 13.952
7332 2 6.39179 29.611 13.9273
1103 1 8.21093 29.6224 15.2108
1102 1 10.9368 28.0499 15.2366
7046 2 11.848 29.6109 13.9272
7045 2 14.5741 28.0375 13.952
780 1 13.6672 29.6224 15.2108
827 1 16.393 28.0499 15.2366
6723 2 17.3042 29.6108 13.9272
6763 2 20.0303 28.0374 13.952
508 1 19.1234 29.6224 15.2108
1691 1 0.028642 31.1953 15.1862
7657 2 3.66578 31.1845 13.9035
1402 1 5.48491 31.1953 15.1862
7330 2 9.12195 31.1845 13.9034
1105 1 10.9412 31.1953 15.1862
7048 2 14.5782 31.1845 13.9034
778 1 16.3974 31.1953 15.1862
6721 2 20.0345 31.1845 13.9035
7632 2 0.939683 32.7584 13.8808
1403 1 2.75903 32.7684 15.1629
1674 1 0.0328663 34.342 15.1411
7630 2 3.66982 34.333 13.8601
1405 1 5.48912 34.342 15.1411
7331 2 6.39596 32.7584 13.8809
7333 2 9.12596 34.333 13.8601
1064 1 8.21523 32.7684 15.1629
7000 2 11.8523 32.7584 13.8809
1062 1 10.9454 34.342 15.1412
6998 2 14.5822 34.333 13.8602
779 1 13.6715 32.7684 15.1629
6722 2 17.3085 32.7584 13.8809
781 1 16.4016 34.342 15.1411
6724 2 20.0385 34.333 13.8602
473 1 19.1277 32.7684 15.1629
7631 2 0.943508 35.9078 13.8413
1380 1 2.76315 35.9161 15.1215
1675 1 0.0371642 37.4904 15.104
7633 2 3.67344 37.4829 13.8242
1378 1 5.49341 37.4904 15.104
7298 2 9.12966 37.4829 13.8242
7300 2 6.3998 35.9078 13.8413
1063 1 8.21939 35.9161 15.1215
6999 2 11.8561 35.9078 13.8413
1065 1 10.9496 37.4904 15.104
7001 2 14.586 37.4829 13.8242
735 1 13.6756 35.916 15.1215
6683 2 17.3123 35.9078 13.8413
733 1 16.4058 37.4904 15.104
6681 2 20.0422 37.4829 13.8242
472 1 19.1319 35.916 15.1215
7616 2 0.947047 39.0584 13.8096
1379 1 2.76707 39.0648 15.0888
1666 1 0.0408268 40.6397 15.076
7614 2 3.67652 40.6343 13.7973
1381 1 5.49706 40.6397 15.076
7299 2 6.40328 39.0584 13.8097
7301 2 9.13282 40.6343 13.7974
1032 1 8.22333 39.0649 15.0888
6960 2 11.8595 39.0585 13.8096
1030 1 10.9533 40.6397 15.076
6958 2 14.5891 40.6343 13.7975
734 1 13.6796 39.0649 15.0888
6682 2 17.3157 39.0585 13.8096
736 1 16.4095 40.6397 15.076
6684 2 20.0452 40.6343 13.7974
437 1 19.1358 39.0649 15.0887
7615 2 0.949597 42.2103 13.7877
1364 1 2.77013 42.2151 15.0659
1667 1 0.0433879 43.7904 15.0584
7617 2 3.67855 43.7865 13.7806
1362 1 5.49961 43.7904 15.0584
7274 2 9.13489 43.7865 13.7807
7276 2 6.40581 42.2103 13.7876
1031 1 8.22641 42.2151 15.0659
6959 2 11.862 42.2103 13.7875
1033 1 10.9558 43.7904 15.0583
6961 2 14.5911 43.7865 13.7806
697 1 13.6827 42.2151 15.0659
6644 2 17.3183 42.2103 13.7876
695 1 16.4121 43.7904 15.0583
6642 2 20.0473 43.7865 13.7806
436 1 19.1388 42.2151 15.0659
7608 2 0.951012 45.3629 13.776
1363 1 2.77183 45.3659 15.0538
1665 1 0.0441935 46.9414 15.052
7606 2 3.67924 46.9395 13.7745
1365 1 5.50045 46.9414 15.052
7275 2 6.40721 45.3629 13.776
7277 2 9.13553 46.9394 13.7745
1008 1 8.22808 45.3659 15.0538
6928 2 11.8634 45.363 13.776
1006 1 10.9567 46.9414 15.052
6926 2 14.5917 46.9395 13.7745
696 1 13.6843 45.3659 15.0537
6643 2 17.3197 45.3629 13.776
698 1 16.4129 46.9414 15.052
6645 2 20.0479 46.9395 13.7745
402 1 19.1405 45.3659 15.0537
7607 2 0.950809 48.5159 13.7754
1353 1 2.77169 48.5171 15.0532
3874 1 0.0430293 50.0927 15.057
10001 2 3.67833 50.0923 13.7794
3633 1 5.49928 50.0927 15.057
7257 2 6.40711 48.5158 13.7755
1007 1 8.22791 48.5171 15.0532
9706 2 9.13458 50.0923 13.7793
6927 2 11.8634 48.5158 13.7754
3344 1 10.9555 50.0927 15.0571
664 1 13.6842 48.517 15.0532
9384 2 14.5909 50.0923 13.7792
6609 2 17.3195 48.5159 13.7753
2985 1 16.4117 50.0927 15.0571
401 1 19.1404 48.517 15.0532
9017 2 20.0471 50.0923 13.7793
1550 1 0.896025 1.33464 18.2359
7792 2 1.80786 2.89501 16.9279
7497 2 4.53461 1.31891 16.9472
1548 1 3.62537 2.91128 18.2167
1266 1 6.35227 1.33464 18.2359
7495 2 7.26406 2.895 16.928
1267 1 9.0816 2.91127 18.2167
7186 2 9.99085 1.31889 16.9472
918 1 11.8085 1.33463 18.2359
6830 2 15.4471 1.31886 16.9472
7187 2 12.7203 2.89506 16.9279
916 1 14.5378 2.91127 18.2167
586 1 17.2647 1.33462 18.2359
6828 2 18.1766 2.89507 16.9279
6528 2 20.9033 1.31888 16.9472
587 1 19.9941 2.91128 18.2167
1549 1 0.898557 4.48759 18.1967
7496 2 4.53738 4.47088 16.9078
1234 1 6.35479 4.48759 18.1966
7162 2 9.99369 4.47086 16.9078
917 1 11.811 4.48759 18.1966
6829 2 15.4499 4.47094 16.9078
578 1 17.2673 4.48759 18.1966
6527 2 20.9061 4.47096 16.9078
7756 2 1.81077 6.04644 16.8868
1511 1 0.90167 7.63903 18.1539
7459 2 4.54058 7.62153 16.8649
1551 1 3.62817 6.06351 18.1757
7498 2 7.26699 6.04646 16.8869
1232 1 9.0844 6.06352 18.1757
1233 1 6.35792 7.63902 18.1539
7161 2 9.99679 7.62156 16.8649
894 1 11.8142 7.63902 18.1539
6814 2 15.453 7.62155 16.8649
7160 2 12.7233 6.04642 16.8868
919 1 14.5406 6.06353 18.1757
6831 2 18.1795 6.0464 16.8868
577 1 17.2704 7.63902 18.1539
6526 2 20.9093 7.62152 16.8649
576 1 19.9969 6.06352 18.1757
7757 2 1.8142 9.19627 16.8421
1510 1 0.905375 10.7885 18.1078
7458 2 4.5443 10.7706 16.8184
1509 1 3.63158 9.21403 18.1313
7457 2 7.27045 9.1963 16.8421
1194 1 6.36161 10.7885 18.1078
1235 1 9.08782 9.21403 18.1313
7130 2 10.0005 10.7706 16.8184
893 1 11.8178 10.7885 18.1078
6813 2 15.4567 10.7706 16.8184
7163 2 12.7267 9.19626 16.8421
892 1 14.5441 9.21401 18.1313
6812 2 18.1829 9.19623 16.8421
562 1 17.2741 10.7885 18.1078
6519 2 20.913 10.7706 16.8184
579 1 20.0003 9.21401 18.1313
7720 2 1.81824 12.3446 16.794
1471 1 0.909439 13.936 18.0584
7414 2 4.54847 13.918 16.7689
1512 1 3.63548 12.3625 18.0835
7460 2 7.27451 12.3445 16.794
1192 1 9.09172 12.3625 18.0835
1193 1 6.36567 13.936 18.0585
7129 2 10.0047 13.918 16.7689
862 1 11.8219 13.9361 18.0585
6790 2 15.461 13.918 16.7689
7128 2 12.7308 12.3445 16.794
895 1 14.548 12.3625 18.0835
6815 2 18.187 12.3446 16.794
561 1 17.2782 13.9361 18.0585
6518 2 20.9172 13.918 16.7689
560 1 20.0042 12.3625 18.0835
7721 2 1.82253 15.4909 16.7432
1470 1 0.913813 17.0815 18.006
7413 2 4.55285 17.0636 16.7167
1469 1 3.63967 15.509 18.0326
7412 2 7.27875 15.491 16.7432
1147 1 6.37005 17.0815 18.006
1195 1 9.09592 15.509 18.0326
7090 2 10.0091 17.0636 16.7167
861 1 11.8263 17.0815 18.006
6789 2 15.4653 17.0636 16.7168
7131 2 12.735 15.4911 16.7432
860 1 14.5521 15.509 18.0326
6788 2 18.1912 15.491 16.7433
538 1 17.2825 17.0814 18.006
6503 2 20.9215 17.0637 16.7168
563 1 20.0084 15.509 18.0326
7684 2 1.82708 18.6359 16.6896
1432 1 0.918805 20.225 17.9509
7368 2 4.55757 20.2079 16.6621
1472 1 3.64433 18.6534 17.9787
7415 2 7.28328 18.6359 16.6897
1145 1 9.10057 18.6535 17.9787
1146 1 6.37505 20.225 17.9509
7089 2 10.0138 20.2079 16.6622
822 1 11.8313 20.225 17.9509
6758 2 15.4701 20.2078 16.6622
7088 2 12.7395 18.6358 16.6897
863 1 14.5568 18.6534 17.9787
6791 2 18.1958 18.6358 16.6896
537 1 17.2875 20.2249 17.9509
6502 2 20.9263 20.2079 16.6621
536 1 20.013 18.6534 17.9787
7685 2 1.83194 21.7796 16.6344
1431 1 0.924447 23.3669 17.8943
7367 2 4.56264 23.3511 16.6066
1430 1 3.64975 21.796 17.9226
7366 2 7.28817 21.7796 16.6344
1100 1 6.3807 23.3669 17.8943
1148 1 9.10597 21.7961 17.9227
7043 2 10.0189 23.3512 16.6066
821 1 11.8369 23.3669 17.8943
6757 2 15.4751 23.3512 16.6066
7091 2 12.7444 21.7796 16.6344
820 1 14.5622 21.7961 17.9227
6756 2 18.2007 21.7796 16.6344
506 1 17.2931 23.3669 17.8943
6479 2 20.9314 23.3511 16.6066
539 1 20.0185 21.7961 17.9226
7652 2 1.83711 24.9225 16.5787
1400 1 0.92998 26.508 17.8374
1433 1 3.6554 24.9376 17.8658
7328 2 4.56784 26.494 16.5514
7369 2 7.29345 24.9225 16.5787
1098 1 9.11163 24.9375 17.8658
1099 1 6.38622 26.508 17.8374
7042 2 10.0241 26.494 16.5513
776 1 11.8425 26.508 17.8374
7041 2 12.7497 24.9225 16.5788
823 1 14.5679 24.9375 17.8658
6719 2 15.4804 26.4939 16.5513
6759 2 18.2058 24.9225 16.5788
505 1 17.2987 26.508 17.8374
504 1 20.0241 24.9376 17.8658
6478 2 20.9366 26.4939 16.5513
7653 2 1.84235 28.0653 16.5244
1398 1 3.66069 28.0786 17.8096
7327 2 4.57306 29.637 16.4982
7326 2 7.29858 28.0654 16.5244
1101 1 9.11695 28.0786 17.8096
6996 2 10.0293 29.637 16.4982
7044 2 12.7548 28.0654 16.5244
774 1 14.5732 28.0786 17.8096
6718 2 15.4855 29.6371 16.4982
6717 2 18.2111 28.0653 16.5244
507 1 20.0294 28.0786 17.8096
6451 2 20.9417 29.6371 16.4982
7628 2 1.84742 31.209 16.4733
1399 1 0.935235 29.6494 17.7824
1401 1 3.66596 31.2204 17.7561
7329 2 7.3036 31.209 16.4733
1058 1 9.12218 31.2204 17.7562
1060 1 6.39148 29.6494 17.7824
775 1 11.8477 29.6494 17.7824
6994 2 12.7598 31.209 16.4732
777 1 14.5784 31.2204 17.7561
6720 2 18.2161 31.209 16.4732
470 1 17.3039 29.6494 17.7824
468 1 20.0347 31.2204 17.7561
7629 2 1.85236 34.3537 16.4275
1376 1 0.94052 32.7918 17.7314
7296 2 4.57797 32.7811 16.4494
1374 1 3.6716 34.3636 17.7086
7294 2 7.30861 34.3537 16.4274
1059 1 6.39676 32.7917 17.7314
1061 1 9.12782 34.3636 17.7086
6995 2 10.0343 32.7812 16.4494
731 1 11.853 32.7918 17.7314
6679 2 15.4905 32.7811 16.4494
6997 2 12.7648 34.3538 16.4274
729 1 14.584 34.3636 17.7086
6677 2 18.2211 34.3538 16.4275
469 1 17.3092 32.7918 17.7314
6450 2 20.9467 32.7811 16.4494
471 1 20.0403 34.3636 17.7086
7612 2 1.85712 37.5 16.3894
1375 1 0.946079 35.9354 17.6876
7295 2 4.58292 35.9268 16.4074
1377 1 3.67715 37.5077 17.6689
7297 2 7.31335 37.5 16.3895
1026 1 9.13335 37.5077 17.6689
1028 1 6.4023 35.9355 17.6876
6956 2 10.0392 35.9267 16.4074
730 1 11.8586 35.9355 17.6876
6678 2 15.4954 35.9267 16.4073
6954 2 12.7697 37.4999 16.3895
732 1 14.5896 37.5077 17.6689
6680 2 18.2259 37.4999 16.3895
434 1 17.3148 35.9354 17.6876
6423 2 20.9516 35.9267 16.4073
432 1 20.0458 37.5077 17.6689
7613 2 1.86115 40.6472 16.3609
1360 1 0.95149 39.0805 17.6527
7272 2 4.58747 39.0734 16.374
1358 1 3.68196 40.6532 17.639
7270 2 7.31753 40.6471 16.3609
1027 1 6.40774 39.0805 17.6527
1029 1 9.13819 40.6532 17.6389
6955 2 10.0436 39.0734 16.3739
693 1 11.864 39.0805 17.6528
6640 2 15.4999 39.0735 16.3739
6957 2 12.7738 40.6471 16.3609
691 1 14.5944 40.6532 17.6389
6638 2 18.2299 40.6472 16.3609
433 1 17.3202 39.0805 17.6528
6422 2 20.9562 39.0735 16.3739
435 1 20.0507 40.6532 17.6389
7604 2 1.86419 43.7952 16.343
1359 1 0.955975 42.226 17.6278
7271 2 4.59105 42.2212 16.3506
1361 1 3.6854 43.799 17.6202
7273 2 7.32042 43.7953 16.343
1002 1 9.14164 43.799 17.6202
1004 1 6.41219 42.226 17.6278
6924 2 10.0473 42.2211 16.3506
692 1 11.8684 42.2261 17.6278
6639 2 15.5036 42.2211 16.3505
6922 2 12.7766 43.7953 16.343
694 1 14.5979 43.799 17.6202
6641 2 18.2329 43.7952 16.3429
399 1 17.3247 42.226 17.6278
6395 2 20.9598 42.2211 16.3506
397 1 20.0541 43.799 17.6202
7605 2 1.86507 46.9437 16.3366
1352 1 0.958522 45.3722 17.6152
7256 2 4.59317 45.3694 16.3382
1350 1 3.68665 46.9455 17.6132
7254 2 7.32137 46.9437 16.3365
1003 1 6.41478 45.3722 17.6152
1005 1 9.14288 46.9454 17.6132
6923 2 10.0494 45.3694 16.3382
663 1 11.871 45.3722 17.6152
6608 2 15.5056 45.3695 16.3383
6925 2 12.7777 46.9437 16.3364
661 1 14.5991 46.9454 17.6132
6606 2 18.2338 46.9437 16.3365
398 1 17.3272 45.3722 17.6152
6394 2 20.9619 45.3696 16.3383
400 1 20.0554 46.9455 17.6132
1351 1 0.958456 48.5187 17.6143
9967 2 1.86394 50.0922 16.3416
7255 2 4.59299 48.518 16.3376
3632 1 3.68523 50.0921 17.6188
985 1 6.41467 48.5187 17.6143
9705 2 7.32016 50.0923 16.3415
3313 1 9.14144 50.0921 17.6188
6897 2 10.0492 48.5179 16.3375
662 1 11.8709 48.5187 17.6143
6607 2 15.5054 48.5179 16.3375
9361 2 12.7764 50.0924 16.3417
2984 1 14.5977 50.0921 17.6188
368 1 17.3272 48.5187 17.6143
9016 2 18.2327 50.0923 16.3417
6367 2 20.9617 48.5179 16.3376
2633 1 20.0539 50.0921 17.6188
7493 2 2.71394 1.35026 19.5214
1547 1 1.8044 2.94424 20.7912
1230 1 4.53155 1.36637 20.8099
7494 2 5.44321 2.92757 19.5026
7158 2 8.17018 1.3503 19.5214
1228 1 7.26064 2.94423 20.7912
914 1 9.98779 1.36638 20.8099
7156 2 10.8994 2.92757 19.5026
574 1 15.444 1.36637 20.8099
6826 2 13.6264 1.35026 19.5214
915 1 12.7169 2.94424 20.7912
572 1 18.1731 2.94424 20.7912
6827 2 16.3556 2.92758 19.5026
304 1 20.9003 1.36636 20.8099
6525 2 19.0827 1.35022 19.5214
7754 2 21.8119 2.92758 19.5026
7455 2 2.71632 4.50451 19.4829
1229 1 4.53365 4.5217 20.7716
7157 2 8.17256 4.5045 19.4829
890 1 9.98989 4.52169 20.7716
573 1 15.4461 4.5217 20.7716
6810 2 13.6288 4.50454 19.4829
303 1 20.9024 4.52171 20.7716
6524 2 19.0851 4.50455 19.4829
1507 1 1.80679 6.09873 20.7512
7454 2 2.71908 7.65707 19.4408
1190 1 4.53635 7.67521 20.7299
7453 2 5.44578 6.08095 19.4622
1231 1 7.26303 6.09873 20.7512
7126 2 8.17532 7.65707 19.4408
889 1 9.99258 7.67522 20.7299
7159 2 10.902 6.08094 19.4622
558 1 15.4488 7.67521 20.7299
888 1 12.7193 6.09872 20.7512
6809 2 13.6316 7.657 19.4407
575 1 18.1755 6.09872 20.7512
6808 2 16.3582 6.081 19.4622
7755 2 21.8145 6.08101 19.4623
302 1 20.9051 7.6752 20.7299
6517 2 19.0879 7.657 19.4407
1508 1 1.80982 9.25107 20.7078
7410 2 2.72264 10.8075 19.3951
1189 1 4.53961 10.8264 20.6849
7456 2 5.44889 9.23255 19.4183
1188 1 7.26607 9.25106 20.7078
7125 2 8.17889 10.8075 19.3951
858 1 9.99586 10.8264 20.6849
7124 2 10.9051 9.2326 19.4184
557 1 15.4521 10.8264 20.6849
891 1 12.7223 9.25109 20.7078
6786 2 13.6351 10.8075 19.3951
556 1 18.1785 9.25109 20.7078
6811 2 16.3614 9.23254 19.4184
7718 2 21.8176 9.23249 19.4183
295 1 20.9083 10.8264 20.6849
6516 2 19.0913 10.8075 19.3952
1467 1 1.81331 12.401 20.6611
7409 2 2.72649 13.9557 19.3464
1143 1 4.5433 13.9751 20.6364
7408 2 5.45258 12.3819 19.3712
1191 1 7.26955 12.401 20.6611
7086 2 8.18272 13.9557 19.3464
857 1 9.99955 13.9751 20.6364
7127 2 10.9088 12.3819 19.3712
534 1 15.4558 13.9751 20.6364
856 1 12.7258 12.4011 20.6611
6785 2 13.6389 13.9557 19.3465
559 1 18.182 12.401 20.6611
6784 2 16.3651 12.3819 19.3712
7719 2 21.8213 12.3819 19.3712
294 1 20.912 13.9751 20.6364
6501 2 19.0951 13.9557 19.3465
1468 1 1.81724 15.5484 20.6109
7364 2 2.73078 17.1014 19.2945
1142 1 4.54762 17.1208 20.5845
7411 2 5.45662 15.5288 19.3209
1141 1 7.27347 15.5484 20.6109
7085 2 8.18701 17.1015 19.2945
818 1 10.0038 17.1208 20.5845
7084 2 10.9129 15.5288 19.3208
533 1 15.4601 17.1208 20.5845
859 1 12.7297 15.5483 20.6109
6754 2 13.6433 17.1014 19.2944
532 1 18.186 15.5483 20.6109
6787 2 16.3692 15.5288 19.3208
7682 2 21.8253 15.5288 19.3209
279 1 20.9163 17.1208 20.5845
6500 2 19.0995 17.1014 19.2944
1428 1 1.82205 18.6926 20.5572
7363 2 2.73586 20.2449 19.2396
7683 2 0.00515628 18.6735 19.2673
1096 1 4.55303 20.2637 20.5293
7362 2 5.46141 18.6735 19.2673
1144 1 7.2783 18.6926 20.5572
7039 2 8.19213 20.2449 19.2396
817 1 10.0092 20.2637 20.5293
7087 2 10.9176 18.6735 19.2672
502 1 15.4655 20.2637 20.5293
816 1 12.7345 18.6926 20.5572
6753 2 13.6484 20.2449 19.2396
535 1 18.1908 18.6926 20.5572
6752 2 16.3739 18.6735 19.2672
278 1 20.9217 20.2637 20.5293
6477 2 19.1046 20.2449 19.2396
1429 1 1.8279 21.8341 20.5008
7324 2 2.7416 23.3865 19.1832
7650 2 0.0106123 21.816 19.2116
1095 1 4.55908 23.4038 20.4718
7365 2 5.46687 21.816 19.2116
1094 1 7.28416 21.8341 20.5008
7038 2 8.19787 23.3865 19.1831
772 1 10.0153 23.4038 20.4718
7037 2 10.9231 21.8161 19.2116
501 1 15.4716 23.4038 20.4718
819 1 12.7404 21.8341 20.5008
6715 2 13.6541 23.3865 19.1831
500 1 18.1966 21.8342 20.5008
6755 2 16.3793 21.8161 19.2117
256 1 20.9278 23.4038 20.4718
6476 2 19.1103 23.3865 19.1832
1396 1 1.83394 24.9729 20.4426
7323 2 2.74768 26.5264 19.1259
7651 2 0.016537 24.9565 19.1544
7322 2 5.47273 24.9565 19.1544
1056 1 4.56515 26.542 20.4132
1097 1 7.2902 24.973 20.4425
6992 2 8.20388 26.5263 19.1259
7040 2 10.929 24.9565 19.1545
771 1 10.0214 26.5419 20.4132
770 1 12.7464 24.973 20.4425
466 1 15.4776 26.5419 20.4132
6714 2 13.6601 26.5264 19.126
503 1 18.2026 24.9729 20.4426
6713 2 16.3853 24.9565 19.1544
255 1 20.9339 26.542 20.4132
6449 2 19.1164 26.5264 19.1259
1397 1 1.84017 28.1108 20.3838
7626 2 0.0224419 28.0962 19.0978
7325 2 5.47868 28.0962 19.0978
1054 1 7.29638 28.1108 20.3838
6990 2 10.9349 28.0962 19.0978
773 1 12.7526 28.1108 20.3838
464 1 18.2089 28.1108 20.3838
6716 2 16.3912 28.0962 19.0978
1372 1 1.84687 31.2487 20.3272
7292 2 2.75352 29.666 19.0701
7627 2 0.02838 31.2359 19.0434
1055 1 4.57158 29.6795 20.3549
7290 2 5.48467 31.2359 19.0434
7289 2 3.66514 31.267 21.6149
1057 1 7.30308 31.2487 20.3271
6991 2 8.20974 29.666 19.0701
6946 2 9.12139 31.267 21.6149
727 1 10.0278 29.6795 20.3548
6993 2 10.9409 31.2359 19.0435
465 1 15.4841 29.6795 20.3548
725 1 12.7593 31.2488 20.3271
6675 2 13.6661 29.666 19.0701
6672 2 14.5777 31.267 21.6149
467 1 18.2156 31.2487 20.3271
6673 2 16.3971 31.2359 19.0435
232 1 20.9403 29.6795 20.3548
6448 2 19.1223 29.6659 19.0701
6416 2 20.0339 31.267 21.6149
1373 1 1.85397 34.3875 20.2759
7291 2 2.75969 32.8063 19.0183
7610 2 0.0346115 34.377 18.9949
7264 2 0.94083 32.8352 21.5879
1024 1 4.5785 32.8181 20.3006
7293 2 5.49079 34.3771 18.9949
7262 2 3.67287 34.4034 21.5625
1022 1 7.3102 34.3875 20.276
6952 2 8.21595 32.8062 19.0184
6947 2 6.39709 32.8352 21.5878
6949 2 9.12913 34.4034 21.5626
726 1 10.0347 32.8181 20.3006
6950 2 10.9471 34.377 18.9949
6632 2 11.8533 32.8352 21.5878
430 1 15.491 32.8181 20.3006
728 1 12.7664 34.3875 20.276
6674 2 13.6722 32.8062 19.0184
6630 2 14.5854 34.4034 21.5626
428 1 18.2227 34.3875 20.2759
6676 2 16.4034 34.377 18.9949
6417 2 17.3095 32.8352 21.5879
231 1 20.9472 32.8181 20.3006
6421 2 19.1284 32.8063 19.0183
6419 2 20.0416 34.4034 21.5625
1356 1 1.86092 37.5279 20.2332
7268 2 2.7658 35.9477 18.9735
7611 2 0.0407592 37.5189 18.9543
7263 2 0.94866 35.972 21.5395
1023 1 4.58554 35.9576 20.2536
7266 2 5.49705 37.5188 18.9542
7265 2 3.68086 37.5408 21.5187
1025 1 7.31716 37.5279 20.2332
6951 2 8.22202 35.9477 18.9735
6914 2 9.13709 37.5408 21.5188
6916 2 6.40485 35.9721 21.5395
689 1 10.0418 35.9576 20.2536
6953 2 10.9534 37.5188 18.9543
6631 2 11.8611 35.9721 21.5395
429 1 15.498 35.9576 20.2536
687 1 12.7734 37.5279 20.2332
6636 2 13.6782 35.9478 18.9734
6633 2 14.5932 37.5408 21.5188
431 1 18.2297 37.5279 20.2332
6634 2 16.4095 37.5188 18.9543
6390 2 17.3174 35.972 21.5395
208 1 20.9543 35.9576 20.2536
6420 2 19.1345 35.9477 18.9735
6388 2 20.0495 37.5407 21.5188
1357 1 1.86764 40.6688 20.2014
7267 2 2.77175 39.0903 18.938
7602 2 0.0465148 40.6617 18.9239
7248 2 0.956714 39.1098 21.5012
1000 1 4.59248 39.0983 20.2156
7269 2 5.50273 40.6618 18.924
7246 2 3.68868 40.6787 21.4866
998 1 7.32391 40.6688 20.2014
6920 2 8.22797 39.0904 18.938
6917 2 9.14489 40.6786 21.4867
6915 2 6.41293 39.1098 21.5012
688 1 10.0487 39.0983 20.2157
6918 2 10.9589 40.6618 18.9239
6600 2 11.8692 39.1098 21.5013
395 1 15.505 39.0984 20.2157
690 1 12.7802 40.6688 20.2015
6635 2 13.6842 39.0903 18.938
6598 2 14.6011 40.6786 21.4866
393 1 18.2364 40.6688 20.2015
6637 2 16.4152 40.6618 18.9239
6389 2 17.3254 39.1098 21.5012
207 1 20.9612 39.0983 20.2156
6393 2 19.1405 39.0903 18.938
6391 2 20.0574 40.6787 21.4865
1348 1 1.87269 43.8094 20.1815
7252 2 2.77698 42.2332 18.9128
7603 2 0.0506308 43.805 18.905
7247 2 0.963849 42.2474 21.475
999 1 4.59863 42.2391 20.1901
7250 2 5.50691 43.8049 18.905
7249 2 3.69459 43.8159 21.4668
1001 1 7.32895 43.8094 20.1814
6919 2 8.23321 42.2333 18.9129
6890 2 9.15079 43.8159 21.4668
6892 2 6.42009 42.2474 21.475
659 1 10.0548 42.2391 20.19
6921 2 10.9631 43.8049 18.9049
6599 2 11.8764 42.2474 21.4751
394 1 15.511 42.2391 20.19
657 1 12.7852 43.8094 20.1814
6604 2 13.6894 42.2333 18.913
6601 2 14.607 43.8159 21.4668
396 1 18.2414 43.8094 20.1815
6602 2 16.4193 43.805 18.9049
6363 2 17.3327 42.2474 21.475
184 1 20.9673 42.2391 20.1901
6392 2 19.1457 42.2333 18.913
6361 2 20.0633 43.8158 21.4668
1349 1 1.8745 46.9499 20.1742
7251 2 2.77994 45.3764 18.8999
7601 2 0.0522032 46.9479 18.8978
7240 2 0.968081 45.3842 21.4612
984 1 4.60214 45.3796 20.1763
7253 2 5.5084 46.948 18.8978
7238 2 3.69687 46.9526 21.4595
982 1 7.33077 46.9499 20.1742
6896 2 8.2362 45.3764 18.8999
6891 2 6.42437 45.3842 21.4613
6893 2 9.15311 46.9525 21.4595
658 1 10.0584 45.3796 20.1764
6894 2 10.9646 46.948 18.8979
6576 2 11.8806 45.3843 21.4614
367 1 15.5147 45.3796 20.1763
660 1 12.787 46.95 20.1743
6603 2 13.6925 45.3763 18.8999
6574 2 14.6093 46.9525 21.4595
365 1 18.2432 46.95 20.1743
6605 2 16.4209 46.948 18.8979
6362 2 17.3368 45.3843 21.4613
183 1 20.9709 45.3796 20.1763
6366 2 19.1487 45.3762 18.8999
6364 2 20.0655 46.9526 21.4594
7241 2 2.77991 48.5195 18.8991
3594 1 1.87243 50.0904 20.1796
9966 2 0.0505029 50.0914 18.9033
7239 2 0.968116 48.5208 21.4606
983 1 4.60205 48.5202 20.1754
9668 2 5.50672 50.0913 18.9032
9667 2 3.69434 50.0891 21.4649
6895 2 8.23612 48.5196 18.8991
3312 1 7.32867 50.0904 20.1795
9329 2 9.15063 50.0891 21.4649
6873 2 6.42436 48.5208 21.4605
634 1 10.0583 48.5202 20.1754
9360 2 10.963 50.0913 18.9032
6575 2 11.8806 48.5208 21.4605
366 1 15.5145 48.5202 20.1754
6577 2 13.6923 48.5196 18.8991
2961 1 12.7849 50.0904 20.1796
9000 2 14.6068 50.0891 21.4649
2632 1 18.2411 50.0904 20.1796
9001 2 16.4193 50.0913 18.9033
6340 2 17.3369 48.5208 21.4605
160 1 20.9708 48.5202 20.1755
6365 2 19.1486 48.5196 18.8991
8697 2 20.063 50.0891 21.4648
1226 1 2.71097 1.39877 23.3833
7451 2 0.893359 1.38234 22.0952
886 1 8.1672 1.39877 23.3833
7154 2 6.34962 1.38232 22.0952
6806 2 11.8059 1.38237 22.0951
570 1 13.6234 1.39877 23.3833
6522 2 17.2621 1.38238 22.0952
301 1 19.0797 1.39877 23.3833
1186 1 2.71253 4.55687 23.3462
7450 2 0.895227 4.53916 22.0575
1227 1 5.43981 2.97803 23.3652
7449 2 3.6224 2.96097 22.0768
885 1 8.16877 4.55687 23.3462
7122 2 6.35147 4.53915 22.0575
7155 2 9.07865 2.96096 22.0767
884 1 10.896 2.97804 23.3652
6805 2 11.8077 4.53909 22.0575
554 1 13.625 4.55686 23.3462
6804 2 14.5348 2.96098 22.0768
571 1 16.3523 2.97804 23.3652
6514 2 17.264 4.5391 22.0575
1505 1 21.8085 2.97803 23.3652
300 1 19.0812 4.55685 23.3462
6523 2 19.9911 2.96099 22.0768
1185 1 2.71469 7.71293 23.3057
7406 2 0.897567 7.69385 22.0165
1184 1 5.44166 6.13519 23.3263
7452 2 3.62441 6.11683 22.0374
854 1 8.17093 7.71291 23.3057
7120 2 9.08062 6.11686 22.0375
7121 2 6.35378 7.69385 22.0165
887 1 10.8979 6.1352 23.3263
6782 2 11.81 7.69391 22.0166
553 1 13.6272 7.71293 23.3057
6807 2 14.5369 6.11679 22.0374
552 1 16.3541 6.13519 23.3263
6513 2 17.2662 7.69391 22.0165
1506 1 21.8104 6.13518 23.3263
293 1 19.0834 7.71295 23.3057
6512 2 19.9931 6.11677 22.0374
1139 1 2.71738 10.8663 23.2619
7405 2 0.900538 10.8463 21.9721
1187 1 5.44407 9.28997 23.2842
7404 2 3.62708 9.27047 21.9947
853 1 8.1736 10.8663 23.2619
7082 2 6.35675 10.8464 21.9721
7123 2 9.08336 9.27041 21.9947
852 1 10.9003 9.28995 23.2842
6781 2 11.813 10.8463 21.9721
530 1 13.6298 10.8663 23.2619
6780 2 14.5396 9.27045 21.9947
555 1 16.3566 9.28996 23.2842
6498 2 17.2693 10.8463 21.972
1465 1 21.8128 9.28998 23.2842
292 1 19.0861 10.8663 23.2619
6515 2 19.9958 9.27051 21.9948
1138 1 2.72047 14.017 23.2146
7360 2 0.903895 13.996 21.9244
1137 1 5.44696 12.442 23.2387
7407 2 3.63029 12.4214 21.9486
814 1 8.17672 14.0169 23.2146
7080 2 9.08652 12.4215 21.9486
7081 2 6.36015 13.996 21.9243
855 1 10.9032 12.442 23.2387
6750 2 11.8164 13.996 21.9242
529 1 13.633 14.0169 23.2146
6783 2 14.5427 12.4215 21.9486
528 1 16.3594 12.442 23.2387
6497 2 17.2726 13.996 21.9243
1466 1 21.8157 12.442 23.2387
277 1 19.0892 14.0169 23.2146
6496 2 19.999 12.4215 21.9486
1092 1 2.72454 17.1639 23.1637
7359 2 0.908161 17.1426 21.8728
1140 1 5.45044 15.591 23.1896
7358 2 3.63402 15.5697 21.899
7030 2 4.54114 17.1877 24.4518
813 1 8.18077 17.164 23.1636
7035 2 6.36442 17.1426 21.8729
7083 2 9.09023 15.5697 21.899
812 1 10.9067 15.591 23.1896
6749 2 11.8207 17.1426 21.8729
6707 2 9.99736 17.1878 24.4519
498 1 13.637 17.164 23.1636
6748 2 14.5465 15.5697 21.899
6469 2 15.4536 17.1878 24.4519
531 1 16.3629 15.591 23.1896
6474 2 17.2769 17.1426 21.8728
1426 1 21.8192 15.591 23.1896
276 1 19.0933 17.1639 23.1636
6499 2 20.0028 15.5697 21.899
6280 2 20.9099 17.1878 24.4518
1091 1 2.73001 20.307 23.1091
7320 2 0.91345 20.2861 21.8184
7316 2 1.81537 18.7604 24.4255
1090 1 5.45532 18.7359 23.1368
7361 2 3.63884 18.7148 21.8459
6984 2 4.54621 20.332 24.3983
768 1 8.18627 20.307 23.1091
7033 2 9.09502 18.7148 21.846
7034 2 6.3697 20.286 21.8184
7032 2 7.27169 18.7604 24.4255
815 1 10.9115 18.736 23.1368
6711 2 11.8259 20.2861 21.8185
6706 2 10.0025 20.3319 24.3982
497 1 13.6425 20.307 23.1091
6751 2 14.5513 18.7148 21.846
6442 2 15.4587 20.3318 24.3982
6705 2 12.7279 18.7605 24.4255
496 1 16.3678 18.736 23.1368
6473 2 17.2821 20.2861 21.8185
6471 2 18.1841 18.7605 24.4255
1427 1 21.824 18.7359 23.1368
254 1 19.0987 20.307 23.1091
6472 2 20.0076 18.7148 21.8459
6279 2 20.9149 20.3319 24.3983
1052 1 2.73619 23.4458 23.0514
7319 2 0.919622 23.4259 21.7612
1394 1 0.00489229 21.8769 23.0806
7317 2 1.8211 21.902 24.37
1093 1 5.46112 21.8769 23.0806
7318 2 3.64447 21.8564 21.7902
6983 2 4.55256 23.4711 24.3409
7036 2 9.10075 21.8564 21.7902
767 1 8.19242 23.4457 23.0514
6988 2 6.37586 23.4259 21.7613
6982 2 7.27731 21.902 24.37
766 1 10.9174 21.8769 23.0806
6710 2 11.8321 23.426 21.7612
6667 2 10.0089 23.4711 24.3408
6709 2 14.557 21.8564 21.7901
462 1 13.6487 23.4458 23.0514
6708 2 12.7336 21.9021 24.3701
6441 2 15.465 23.4711 24.3409
499 1 16.3736 21.8769 23.0806
6446 2 17.2883 23.4259 21.7612
6440 2 18.1898 21.902 24.37
6475 2 20.0132 21.8564 21.7901
253 1 19.1049 23.4458 23.0514
6264 2 20.9212 23.4712 24.3409
7284 2 1.828 25.0393 24.311
1395 1 0.0114602 25.0138 23.0214
1051 1 2.74327 26.5812 22.9907
7288 2 0.926216 26.563 21.7021
1050 1 5.46768 25.0138 23.0214
7321 2 3.65101 24.9947 21.7318
6944 2 4.55997 26.6065 24.2803
6986 2 9.10725 24.9947 21.7317
6985 2 7.28421 25.0393 24.311
723 1 8.19949 26.5812 22.9907
6987 2 6.38247 26.5632 21.7021
769 1 10.9239 25.0138 23.0214
6671 2 11.8388 26.5631 21.702
6666 2 10.0162 26.6065 24.2804
6712 2 14.5635 24.9947 21.7317
6665 2 12.7404 25.0392 24.311
461 1 13.6558 26.5813 22.9906
6414 2 15.4724 26.6065 24.2804
460 1 16.3802 25.0138 23.0214
6443 2 18.1967 25.0392 24.311
6445 2 17.295 26.563 21.7021
6444 2 20.0197 24.9948 21.7318
230 1 19.112 26.5812 22.9906
6263 2 20.9287 26.6065 24.2803
7285 2 1.83596 28.1726 24.2492
1370 1 0.0190577 28.1483 22.9598
1053 1 5.47529 28.1483 22.9598
7286 2 3.65786 28.1313 21.6727
6989 2 9.11408 28.1313 21.6727
6942 2 7.29218 28.1727 24.2492
721 1 10.9315 28.1483 22.9598
6669 2 14.5703 28.1312 21.6727
6668 2 12.7484 28.1727 24.2492
463 1 16.3878 28.1483 22.9598
6412 2 18.2047 28.1727 24.2492
6447 2 20.0265 28.1312 21.6727
1020 1 2.75131 29.715 22.9292
7287 2 0.933348 29.699 21.6432
7260 2 1.84493 31.304 24.1877
1371 1 0.0274662 31.2815 22.8991
1018 1 5.48372 31.2815 22.8991
6943 2 4.56853 29.7384 24.2182
722 1 8.20752 29.715 22.9292
6948 2 6.38958 29.699 21.6432
6945 2 7.30114 31.304 24.1876
724 1 10.94 31.2815 22.8992
6670 2 11.8458 29.699 21.6432
6628 2 10.0248 29.7385 24.2182
426 1 13.6638 29.715 22.9292
6413 2 15.481 29.7386 24.2182
6626 2 12.7573 31.304 24.1876
424 1 16.3962 31.2815 22.8992
6418 2 17.3021 29.699 21.6432
6415 2 18.2136 31.3041 24.1877
229 1 19.12 29.715 22.9292
6248 2 20.9372 29.7385 24.2181
1019 1 2.75961 32.8484 22.8705
1354 1 0.0356328 34.4157 22.8434
7261 2 1.85431 34.435 24.1303
1021 1 5.49185 34.4157 22.8434
6912 2 4.57763 32.8695 24.1582
685 1 8.21585 32.8484 22.8705
6910 2 7.31056 34.435 24.1302
683 1 10.9481 34.4157 22.8434
6627 2 10.0339 32.8695 24.1581
425 1 13.6721 32.8484 22.8705
6386 2 15.4901 32.8694 24.1581
6629 2 12.7668 34.435 24.1303
427 1 16.4043 34.4157 22.8434
6384 2 18.223 34.435 24.1304
206 1 19.1283 32.8484 22.8705
6247 2 20.9463 32.8694 24.1581
996 1 2.76828 35.9833 22.8187
7244 2 1.86463 37.567 24.0831
1355 1 0.044567 37.5511 22.7971
994 1 5.50084 37.5512 22.7971
6911 2 4.58746 36.0009 24.1054
684 1 8.22451 35.9833 22.8187
6913 2 7.32085 37.567 24.0831
686 1 10.9571 37.5512 22.7971
6596 2 10.0437 36.0009 24.1054
391 1 13.6808 35.9834 22.8187
6385 2 15.4999 36.001 24.1053
6594 2 12.7771 37.5669 24.0831
389 1 16.4133 37.5512 22.7971
6387 2 18.2334 37.567 24.0831
205 1 19.137 35.9833 22.8187
6232 2 20.9561 36.001 24.1054
995 1 2.77748 39.1192 22.7786
1346 1 0.0537915 40.6867 22.7633
7245 2 1.87523 40.6987 24.049
997 1 5.51002 40.6867 22.7633
6888 2 4.59799 39.1331 24.0643
655 1 8.23375 39.1191 22.7785
6886 2 7.33153 40.6988 24.0489
653 1 10.9662 40.6867 22.7633
6595 2 10.0542 39.1331 24.0643
390 1 13.69 39.1191 22.7785
6359 2 15.5105 39.1331 24.0642
6597 2 12.7878 40.6989 24.0489
392 1 16.4225 40.6867 22.7633
6357 2 18.2439 40.6988 24.049
182 1 19.1462 39.1192 22.7785
6231 2 20.9667 39.1331 24.0642
980 1 2.78619 42.2545 22.7517
7236 2 1.88374 43.8292 24.0288
1347 1 0.0615099 43.8217 22.7431
978 1 5.51775 43.8217 22.7431
6887 2 4.6083 42.2644 24.0371
654 1 8.24245 42.2545 22.7518
6889 2 7.33995 43.8293 24.0288
656 1 10.974 43.8217 22.743
6572 2 10.0646 42.2643 24.037
363 1 13.6987 42.2545 22.7518
6570 2 12.7963 43.8292 24.0289
6358 2 15.5207 42.2644 24.037
361 1 16.4302 43.8217 22.7431
6360 2 18.2525 43.8292 24.0289
181 1 19.1549 42.2545 22.7517
6216 2 20.977 42.2644 24.037
979 1 2.79132 45.3883 22.7378
1345 1 0.064174 46.9548 22.7354
7237 2 1.88727 46.9572 24.0219
981 1 5.52041 46.9548 22.7354
6872 2 4.61469 45.3934 24.0238
633 1 8.24759 45.3883 22.7378
6870 2 7.34357 46.9572 24.0218
631 1 10.9767 46.9547 22.7353
6571 2 10.0708 45.3933 24.0237
362 1 13.7038 45.3883 22.7378
6339 2 15.527 45.3934 24.0237
6573 2 12.7999 46.9572 24.0218
364 1 16.4329 46.9547 22.7354
6337 2 18.256 46.9572 24.0218
159 1 19.16 45.3883 22.7378
6215 2 20.9834 45.3934 24.0238
969 1 2.7913 48.5213 22.7368
3593 1 0.0609722 50.0878 22.741
9623 2 1.88377 50.0849 24.0273
6871 2 4.61437 48.5211 24.0228
3273 1 5.51718 50.0878 22.741
632 1 8.24752 48.5212 22.7369
9328 2 7.34001 50.0849 24.0273
6553 2 10.0706 48.5211 24.0228
2960 1 10.9734 50.0879 22.7411
340 1 13.7038 48.5212 22.7369
6338 2 15.5269 48.521 24.0229
8977 2 12.7962 50.085 24.0272
2617 1 16.4297 50.0879 22.741
8696 2 18.2524 50.085 24.0272
158 1 19.16 48.5212 22.7368
6200 2 20.9832 48.521 24.0228
1182 1 0.890733 1.43188 25.9559
7114 2 2.70922 1.44851 27.2402
7118 2 4.52925 1.41509 24.6681
882 1 6.34697 1.43187 25.9559
6774 2 8.16546 1.44847 27.2402
550 1 11.8032 1.43188 25.9559
6802 2 9.98546 1.41512 24.6682
6510 2 15.4417 1.41512 24.6681
6506 2 13.6217 1.44849 27.2402
298 1 17.2594 1.43188 25.9559
6304 2 20.898 1.41509 24.6681
6301 2 19.0779 1.44853 27.2402
1181 1 0.891616 4.59312 25.9199
7448 2 1.80172 2.99515 24.6503
7074 2 2.70984 4.61155 27.2047
1180 1 3.61923 3.01273 25.9383
7117 2 4.53047 4.57477 24.6316
7115 2 5.4376 3.03028 27.2229
850 1 6.34786 4.59312 25.9199
883 1 9.07548 3.01273 25.9383
7116 2 7.25798 2.99515 24.6502
6773 2 8.16605 4.61157 27.2048
549 1 11.8041 4.59312 25.9199
6778 2 9.98672 4.57477 24.6316
6772 2 10.8939 3.03024 27.2228
548 1 14.5317 3.01274 25.9383
6509 2 15.443 4.57476 24.6316
6803 2 12.7142 2.9952 24.6502
6490 2 13.6223 4.61155 27.2048
290 1 17.2603 4.59311 25.9199
6508 2 18.1704 2.9952 24.6502
6507 2 16.3501 3.03026 27.2228
299 1 19.988 3.01275 25.9383
6303 2 20.8992 4.57476 24.6316
7400 2 21.8063 3.0303 27.2228
6300 2 19.0786 4.61152 27.2047
1135 1 0.893087 7.75224 25.8808
7402 2 1.80311 6.15384 24.6121
7073 2 2.71084 7.77245 27.1663
1183 1 3.6204 6.17297 25.9007
7078 2 4.5322 7.73241 24.5918
7072 2 5.43836 6.19228 27.1859
848 1 9.07664 6.17297 25.9007
849 1 6.34932 7.75224 25.8808
7119 2 7.25935 6.15384 24.6121
6742 2 8.16711 7.77243 27.1662
526 1 11.8056 7.75223 25.8808
6777 2 9.98847 7.73235 24.5918
6775 2 10.8946 6.19231 27.1859
551 1 14.5329 6.17297 25.9007
6494 2 15.4447 7.73234 24.5919
6776 2 12.7156 6.15383 24.6121
6489 2 13.6233 7.77243 27.1663
289 1 17.2618 7.75224 25.8808
6511 2 18.1718 6.15383 24.6121
6488 2 16.3508 6.19232 27.1859
288 1 19.9891 6.17296 25.9007
6302 2 20.9009 7.7324 24.5919
7401 2 21.8071 6.19229 27.1859
6293 2 19.0795 7.77245 27.1663
1134 1 0.895012 10.9086 25.8384
7403 2 1.80523 9.31017 24.5707
7027 2 2.7124 10.9307 27.1245
1133 1 3.62214 9.33076 25.86
7077 2 4.53459 10.8873 24.5486
7075 2 5.43975 9.35194 27.1458
810 1 6.35126 10.9086 25.8384
851 1 9.07838 9.33076 25.86
7076 2 7.26142 9.31019 24.5707
6741 2 8.16863 10.9307 27.1245
525 1 11.8075 10.9086 25.8384
6746 2 9.9908 10.8874 24.5486
6740 2 10.896 9.35191 27.1457
524 1 14.5346 9.33077 25.86
6493 2 15.447 10.8874 24.5486
6779 2 12.7177 9.3102 24.5707
6466 2 13.6249 10.9307 27.1244
274 1 17.2637 10.9086 25.8385
6492 2 18.174 9.31017 24.5707
6491 2 16.3522 9.35191 27.1458
291 1 19.9909 9.33077 25.86
6295 2 20.9033 10.8873 24.5486
7354 2 21.8085 9.35194 27.1458
6292 2 19.0811 10.9307 27.1244
1088 1 0.897353 14.062 25.7925
7356 2 1.80767 12.4638 24.5258
7026 2 2.71432 14.086 27.0794
1136 1 3.62425 12.4858 25.8159
7031 2 4.53728 14.0394 24.5021
7025 2 5.4414 12.5088 27.1023
808 1 9.08048 12.4858 25.8159
809 1 6.35359 14.0621 25.7925
7079 2 7.26396 12.4638 24.5258
6703 2 8.17059 14.086 27.0794
494 1 11.8098 14.062 25.7926
6745 2 9.9935 14.0394 24.5021
6743 2 10.8976 12.5088 27.1023
527 1 14.5367 12.4857 25.8159
6470 2 15.4498 14.0393 24.5021
6744 2 12.7202 12.4638 24.5258
6465 2 13.6268 14.086 27.0794
273 1 17.2661 14.062 25.7925
6495 2 18.1764 12.4638 24.5258
6464 2 16.3539 12.5088 27.1023
272 1 19.993 12.4857 25.8159
6294 2 20.906 14.0393 24.5021
7355 2 21.8101 12.5088 27.1023
6278 2 19.083 14.086 27.0794
1087 1 0.900958 17.2115 25.743
7357 2 1.81099 15.6141 24.4774
6980 2 2.71741 17.2373 27.0308
1086 1 3.62706 15.6374 25.7682
7028 2 5.4438 15.6622 27.0556
764 1 6.35719 17.2114 25.743
811 1 9.0833 15.6374 25.7682
7029 2 7.26719 15.6141 24.4775
6702 2 8.17363 17.2373 27.0308
493 1 11.8134 17.2114 25.743
6701 2 10.9 15.6622 27.0555
492 1 14.5395 15.6373 25.7682
6747 2 12.7234 15.6141 24.4775
6438 2 13.6298 17.2373 27.0309
251 1 17.2696 17.2115 25.743
6468 2 18.1797 15.6141 24.4774
6467 2 16.3563 15.6621 27.0555
275 1 19.9958 15.6373 25.7682
6277 2 19.0861 17.2373 27.0309
7314 2 21.8125 15.6621 27.0556
1048 1 0.905855 20.3557 25.6899
6979 2 2.72188 20.3834 26.9786
1089 1 3.63134 18.7842 25.7169
6978 2 5.4475 18.811 27.0052
762 1 9.08758 18.7842 25.7169
763 1 6.36209 20.3557 25.6899
6663 2 8.17809 20.3834 26.9787
458 1 11.8183 20.3557 25.6899
6704 2 10.9038 18.811 27.0052
495 1 14.5438 18.7842 25.7169
6437 2 13.6343 20.3834 26.9787
250 1 17.2746 20.3557 25.6899
6436 2 16.36 18.811 27.0052
249 1 20.0001 18.7842 25.7169
7315 2 21.8162 18.811 27.0052
6262 2 19.0905 20.3834 26.9786
1047 1 0.912104 23.4947 25.6327
6940 2 2.72788 23.5237 26.922
1046 1 3.6369 21.9259 25.6619
6981 2 5.45274 21.9543 26.9509
765 1 9.09314 21.9259 25.6619
719 1 6.36834 23.4947 25.6327
6662 2 8.18406 23.5238 26.922
6661 2 10.909 21.9542 26.951
457 1 11.8246 23.4947 25.6326
456 1 14.5494 21.9259 25.6619
6410 2 13.6404 23.5237 26.922
6439 2 16.3652 21.9543 26.951
227 1 17.2808 23.4947 25.6326
252 1 20.0056 21.9259 25.6619
7282 2 21.8215 21.9544 26.9509
6261 2 19.0967 23.5237 26.9219
7283 2 0.00358039 25.0918 26.8919
1016 1 0.920282 26.6283 25.5708
6939 2 2.73601 26.6581 26.8607
1049 1 3.64411 25.0621 25.6021
6938 2 5.45983 25.0917 26.8919
717 1 9.10035 25.0621 25.6021
718 1 6.37652 26.6283 25.5708
6624 2 8.19226 26.6581 26.8606
6664 2 10.9161 25.0918 26.8919
422 1 11.8328 26.6283 25.5708
459 1 14.5566 25.062 25.6021
6409 2 13.6485 26.6582 26.8606
6408 2 16.3723 25.0918 26.8919
226 1 17.289 26.6283 25.5708
225 1 20.0128 25.062 25.6021
6246 2 19.1048 26.6582 26.8607
7258 2 0.0126476 28.2229 26.8283
1014 1 3.65291 28.1934 25.5386
6941 2 5.46887 28.2229 26.8283
720 1 9.10915 28.1934 25.5386
6622 2 10.9251 28.223 26.8284
420 1 14.5654 28.1934 25.5387
6411 2 16.3813 28.223 26.8284
228 1 20.0216 28.1934 25.5386
1015 1 0.929604 29.7575 25.5059
6908 2 2.7458 29.7867 26.7955
7259 2 0.0231194 31.3495 26.7625
1017 1 3.66244 31.3212 25.4735
6906 2 5.47933 31.3495 26.7625
679 1 9.11868 31.3212 25.4735
681 1 6.38583 29.7575 25.5059
6623 2 8.20211 29.7867 26.7955
421 1 11.8421 29.7575 25.506
6625 2 10.9356 31.3494 26.7625
423 1 14.5749 31.3212 25.4735
6382 2 13.6583 29.7866 26.7955
203 1 17.2983 29.7575 25.506
6380 2 16.3919 31.3494 26.7625
201 1 20.0312 31.3212 25.4735
6245 2 19.1145 29.7867 26.7955
992 1 0.939097 32.8853 25.4417
6907 2 2.75675 32.9118 26.73
7242 2 0.0346035 34.4738 26.699
990 1 3.67241 34.4495 25.4115
6909 2 5.49074 34.4738 26.699
680 1 6.39532 32.8852 25.4417
682 1 9.12867 34.4495 25.4115
6592 2 8.21302 32.9118 26.73
387 1 11.8516 32.8853 25.4417
6590 2 10.947 34.4737 26.6989
385 1 14.5849 34.4495 25.4115
6381 2 13.6692 32.9118 26.73
202 1 17.3078 32.8853 25.4417
6383 2 16.4033 34.4737 26.6989
204 1 20.0411 34.4495 25.4115
6230 2 19.1254 32.9118 26.73
991 1 0.949933 36.0142 25.3843
6884 2 2.7688 36.0364 26.6712
7243 2 0.0476003 37.5991 26.6467
993 1 3.6841 37.579 25.3605
6882 2 5.50384 37.5991 26.6466
649 1 9.14033 37.579 25.3604
651 1 6.40619 36.0142 25.3843
6591 2 8.22505 36.0364 26.6713
386 1 11.8624 36.0142 25.3843
6593 2 10.9601 37.5992 26.6466
388 1 14.5965 37.579 25.3605
6355 2 13.6813 36.0364 26.6712
179 1 17.3187 36.0142 25.3843
6353 2 16.4163 37.5991 26.6467
177 1 20.0528 37.579 25.3605
6229 2 19.1375 36.0364 26.6711
976 1 0.962269 39.1445 25.3408
6883 2 2.78295 39.1617 26.6263
7234 2 0.0620465 40.7241 26.6106
974 1 3.69698 40.7093 25.3252
6885 2 5.51819 40.7241 26.6106
650 1 6.4185 39.1445 25.3408
652 1 9.15321 40.7093 25.3252
6568 2 8.23918 39.1616 26.6262
359 1 11.8748 39.1445 25.3409
6566 2 10.9745 40.724 26.6106
357 1 14.6094 40.7093 25.3252
6354 2 13.6954 39.1617 26.6262
178 1 17.331 39.1445 25.3409
6356 2 16.4308 40.724 26.6107
180 1 20.0657 40.7094 25.3252
6214 2 19.1516 39.1617 26.6262
975 1 0.974716 42.2729 25.313
6868 2 2.79728 42.2851 26.5993
7235 2 0.0750293 43.845 26.5921
977 1 3.70771 43.8361 25.3051
6866 2 5.53124 43.8449 26.592
627 1 9.16392 43.8362 25.3052
629 1 6.43096 42.2729 25.3129
6567 2 8.25353 42.2852 26.5994
358 1 11.8872 42.2729 25.3129
6569 2 10.9875 43.845 26.592
360 1 14.6201 43.8361 25.3052
6335 2 13.7097 42.2852 26.5993
156 1 17.3435 42.2729 25.3129
6333 2 16.4438 43.845 26.5921
154 1 20.0764 43.8361 25.3051
6213 2 19.1659 42.2851 26.5993
968 1 0.983439 45.3989 25.3009
6867 2 2.8071 45.4038 26.5885
7233 2 0.0803961 46.9617 26.5869
966 1 3.71238 46.9596 25.299
6869 2 5.53661 46.9617 26.587
628 1 6.43964 45.3988 25.3009
630 1 9.16863 46.9596 25.299
6552 2 8.26337 45.4038 26.5884
339 1 11.8959 45.3988 25.3009
6550 2 10.9929 46.9617 26.587
337 1 14.6249 46.9596 25.299
6334 2 13.7195 45.4037 26.5884
155 1 17.3522 45.3988 25.3009
6336 2 16.4491 46.9617 26.5869
157 1 20.0811 46.9596 25.299
6199 2 19.1758 45.4038 26.5884
967 1 0.982923 48.5206 25.2998
6857 2 2.80705 48.5193 26.5877
9622 2 0.0748784 50.078 26.5909
3272 1 3.70771 50.0828 25.304
9289 2 5.53116 50.078 26.5909
612 1 6.43918 48.5206 25.2997
6551 2 8.26331 48.5193 26.5877
2929 1 9.16396 50.0828 25.304
338 1 11.8954 48.5206 25.2997
8976 2 10.9874 50.078 26.5907
6320 2 13.7195 48.5194 26.5878
2616 1 14.6202 50.0828 25.304
137 1 17.3516 48.5206 25.2997
8681 2 16.4436 50.0779 26.5908
6198 2 19.1757 48.5194 26.5878
2345 1 20.0765 50.0828 25.304
7070 2 0.889721 1.4827 29.811
846 1 4.52716 1.46569 28.5274
6770 2 6.34595 1.48272 29.811
546 1 9.98341 1.46569 28.5274
6486 2 11.8022 1.48274 29.811
286 1 15.4396 1.46568 28.5274
6298 2 17.2584 1.48272 29.811
112 1 20.8959 1.46569 28.5274
1179 1 1.79909 3.04826 28.5104
7069 2 0.889698 4.64935 29.7766
845 1 4.52732 4.63041 28.4926
7068 2 3.61777 3.0662 29.7942
844 1 7.25532 3.04827 28.5104
6738 2 6.34596 4.64933 29.7766
6771 2 9.07401 3.06621 29.7942
522 1 9.98356 4.63041 28.4926
6485 2 11.8022 4.64932 29.7766
285 1 15.4398 4.63041 28.4926
547 1 12.7116 3.04826 28.5104
6484 2 14.5302 3.06622 29.7942
284 1 18.1678 3.04826 28.5104
6290 2 17.2584 4.64933 29.7766
111 1 20.896 4.63041 28.4926
6299 2 19.9865 3.06622 29.7942
1131 1 1.79949 6.21204 28.4741
7023 2 0.889921 7.81395 29.7394
806 1 4.52805 7.79313 28.4548
7071 2 3.61787 6.23194 29.7584
847 1 7.25573 6.21203 28.4741
6736 2 9.0741 6.23191 29.7584
6737 2 6.34617 7.81398 29.7394
521 1 9.9843 7.79312 28.4548
6462 2 11.8024 7.81398 29.7394
270 1 15.4405 7.79312 28.4548
520 1 12.712 6.21203 28.4741
6487 2 14.5304 6.2319 29.7584
287 1 18.1682 6.21204 28.4741
6289 2 17.2586 7.81396 29.7394
110 1 20.8968 7.79313 28.4548
6288 2 19.9866 6.23192 29.7584
1132 1 1.80049 9.37354 28.4348
7022 2 0.890679 10.9763 29.6989
805 1 4.52917 10.9532 28.4138
7021 2 3.61841 9.39544 29.7195
804 1 7.25673 9.37353 28.4348
6699 2 6.34692 10.9762 29.6989
6739 2 9.07463 9.39546 29.7196
490 1 9.98541 10.9532 28.4139
6461 2 11.8031 10.9763 29.6989
269 1 15.4417 10.9532 28.4139
523 1 12.713 9.37353 28.4348
6460 2 14.5309 9.39546 29.7196
268 1 18.1692 9.37353 28.4348
6275 2 17.2594 10.9763 29.6989
103 1 20.8979 10.9532 28.4138
6291 2 19.9871 9.39543 29.7196
1084 1 1.80163 12.5322 28.3921
6976 2 0.891553 14.1358 29.6554
760 1 4.53053 14.1104 28.3695
7024 2 3.61915 12.5565 29.6776
807 1 7.25787 12.5322 28.3921
6697 2 9.07544 12.5564 29.6775
6698 2 6.34774 14.1359 29.6554
489 1 9.98677 14.1104 28.3695
6434 2 11.804 14.1358 29.6554
247 1 15.443 14.1104 28.3695
488 1 12.7141 12.5322 28.3921
6463 2 14.5317 12.5564 29.6775
271 1 18.1703 12.5322 28.3921
6274 2 17.2603 14.1358 29.6554
102 1 20.8993 14.1104 28.3695
6273 2 19.9879 12.5565 29.6775
1085 1 1.80351 15.6875 28.3462
6975 2 0.893439 17.2912 29.6089
759 1 4.53305 17.2634 28.3221
6974 2 3.62045 15.714 29.6326
758 1 7.25974 15.6876 28.3462
6659 2 6.34972 17.2912 29.6089
6700 2 9.07665 15.7141 29.6326
454 1 9.98928 17.2634 28.3221
6433 2 11.806 17.2912 29.6088
246 1 15.4455 17.2634 28.3222
491 1 12.716 15.6876 28.3462
6432 2 14.5329 15.7141 29.6326
245 1 18.1722 15.6875 28.3462
6259 2 17.2622 17.2912 29.6089
91 1 20.9018 17.2634 28.3222
6276 2 19.9892 15.7141 29.6325
1044 1 1.80681 18.8378 28.2972
6936 2 0.896886 20.4413 29.5587
715 1 4.53709 20.4108 28.2711
6977 2 3.6231 18.8671 29.5843
761 1 7.26305 18.8378 28.2972
6657 2 9.07935 18.8671 29.5843
6658 2 6.35314 20.4413 29.5586
453 1 9.99334 20.4108 28.2711
6406 2 11.8094 20.4413 29.5586
223 1 15.4496 20.4108 28.2711
452 1 12.7193 18.8378 28.2972
6435 2 14.5356 18.8671 29.5843
248 1 18.1755 18.8378 28.2972
6258 2 17.2656 20.4413 29.5586
90 1 20.9058 20.4108 28.2712
6257 2 19.9918 18.8671 29.5843
1045 1 1.81162 21.9823 28.2437
6935 2 0.902073 23.585 29.5037
6934 2 3.62736 22.0141 29.5318
714 1 4.54311 23.552 28.215
713 1 7.26785 21.9823 28.2437
6660 2 9.08358 22.0141 29.5318
6620 2 6.35835 23.585 29.5036
418 1 9.99934 23.5519 28.2151
6405 2 11.8146 23.585 29.5037
455 1 12.7241 21.9822 28.2437
6404 2 14.5398 22.014 29.5319
222 1 15.4556 23.552 28.215
221 1 18.1803 21.9822 28.2437
6243 2 17.2708 23.585 29.5037
6260 2 19.996 22.014 29.5319
79 1 20.9118 23.552 28.215
1012 1 1.8188 25.1197 28.1851
6937 2 3.63384 25.1537 29.4741
716 1 7.27504 25.1197 28.1851
6618 2 9.09014 25.1537 29.474
416 1 12.7313 25.1197 28.1851
6407 2 14.5464 25.1537 29.474
224 1 18.1875 25.1197 28.1851
6241 2 20.0026 25.1537 29.474
1013 1 1.82842 28.2488 28.1207
6904 2 0.910139 26.7205 29.443
677 1 4.55139 26.6852 28.1536
6902 2 3.64323 28.2849 29.4102
675 1 7.28467 28.2488 28.1207
6619 2 6.36636 26.7205 29.443
6621 2 9.09948 28.2849 29.4103
417 1 10.0076 26.6852 28.1536
6378 2 11.8226 26.7206 29.4431
199 1 15.4639 26.6852 28.1536
419 1 12.7409 28.2488 28.1207
6376 2 14.5556 28.2849 29.4103
197 1 18.1971 28.2488 28.1207
6242 2 17.2788 26.7205 29.443
78 1 20.9201 26.6851 28.1535
6244 2 20.0119 28.2849 29.4103
988 1 1.83917 31.3714 28.0512
6903 2 0.920782 29.847 29.3759
676 1 4.5616 29.8109 28.0865
6905 2 3.65494 31.4072 29.3403
678 1 7.29541 31.3714 28.0513
6586 2 9.11116 31.4072 29.3403
6588 2 6.37702 29.847 29.3759
383 1 10.0178 29.8109 28.0865
6377 2 11.8332 29.8469 29.3759
198 1 15.4741 29.8109 28.0865
381 1 12.7516 31.3714 28.0512
6379 2 14.5675 31.4072 29.3402
200 1 18.2079 31.3714 28.0512
6227 2 17.2895 29.8469 29.3758
67 1 20.9303 29.8109 28.0865
6225 2 20.0238 31.4073 29.3403
989 1 1.85173 34.4916 27.9818
6880 2 0.933462 32.9655 29.3041
647 1 4.57334 32.9313 28.0158
6878 2 3.66895 34.5235 29.2687
645 1 7.30798 34.4916 27.9818
6587 2 6.38978 32.9656 29.3042
6589 2 9.12511 34.5236 29.2688
382 1 10.0296 32.9313 28.0157
6351 2 11.8461 32.9656 29.3041
175 1 15.4858 32.9313 28.0157
384 1 12.7642 34.4916 27.9818
6349 2 14.5813 34.5235 29.2688
173 1 18.2204 34.4916 27.9818
6226 2 17.3022 32.9656 29.3041
66 1 20.9421 32.9313 28.0158
6228 2 20.0376 34.5235 29.2687
972 1 1.86682 37.614 27.9241
6879 2 0.948461 36.0812 29.2364
646 1 4.58694 36.0525 27.9506
6881 2 3.68521 37.6394 29.2087
648 1 7.32305 37.614 27.9242
6562 2 9.14154 37.6394 29.2087
6564 2 6.40467 36.0811 29.2365
355 1 10.0431 36.0526 27.9507
6350 2 11.8608 36.0812 29.2365
174 1 15.4994 36.0526 27.9507
353 1 12.7793 37.614 27.9241
6352 2 14.5978 37.6394 29.2087
176 1 18.2355 37.614 27.924
6211 2 17.3171 36.0812 29.2364
55 1 20.9557 36.0526 27.9506
6209 2 20.054 37.6394 29.2087
973 1 1.88428 40.7375 27.8863
6864 2 0.966961 39.1973 29.1867
625 1 4.60315 39.1759 27.9024
6862 2 3.70538 40.7545 29.1718
623 1 7.34051 40.7375 27.8863
6563 2 6.42326 39.1973 29.1868
6565 2 9.16151 40.7545 29.1718
354 1 10.0594 39.1759 27.9024
6331 2 11.8795 39.1973 29.1868
152 1 15.5157 39.176 27.9024
356 1 12.7967 40.7374 27.8864
6329 2 14.6177 40.7544 29.1717
150 1 18.253 40.7375 27.8864
6210 2 17.3357 39.1973 29.1868
54 1 20.9719 39.176 27.9024
6212 2 20.074 40.7545 29.1718
964 1 1.90027 43.8544 27.871
6863 2 0.987579 42.3103 29.1627
624 1 4.62116 42.2969 27.8769
6865 2 3.7244 43.8637 29.1588
626 1 7.35652 43.8544 27.871
6546 2 9.18068 43.8637 29.1588
6548 2 6.4438 42.3102 29.1627
335 1 10.0774 42.297 27.877
6330 2 11.9001 42.3102 29.1627
151 1 15.5337 42.297 27.8769
333 1 12.8128 43.8544 27.8709
6332 2 14.6369 43.8637 29.1587
153 1 18.269 43.8544 27.8709
6196 2 17.3563 42.3103 29.1627
43 1 20.9899 42.2969 27.8769
6194 2 20.0932 43.8637 29.1588
6856 2 1.00234 45.4152 29.1578
965 1 1.90776 46.964 27.8686
611 1 4.63395 45.4099 27.8683
6854 2 3.7326 46.9657 29.1578
6547 2 6.45857 45.4152 29.1578
609 1 7.36401 46.964 27.8686
6549 2 9.18879 46.9658 29.1578
334 1 10.0902 45.4099 27.8682
6319 2 11.9148 45.4152 29.1578
136 1 15.5464 45.4099 27.8682
336 1 12.8202 46.9641 27.8687
6317 2 14.645 46.9658 29.1578
6195 2 17.371 45.4152 29.1578
134 1 18.2765 46.964 27.8687
42 1 21.0027 45.4099 27.8683
6197 2 20.1013 46.9657 29.1578
6855 2 1.00241 48.5165 29.1576
3226 1 1.90072 50.0725 27.8698
610 1 4.63439 48.5175 27.8681
9288 2 3.72452 50.0679 29.1575
6537 2 6.45869 48.5164 29.1577
2928 1 7.35697 50.0725 27.8698
8945 2 9.18074 50.0679 29.1576
320 1 10.0906 48.5174 27.8682
6318 2 11.9149 48.5164 29.1578
135 1 15.5468 48.5175 27.8682
2593 1 12.8132 50.0725 27.8697
8680 2 14.637 50.0679 29.1575
6185 2 17.3712 48.5165 29.1576
2344 1 18.2694 50.0725 27.8698
31 1 21.0031 48.5176 27.8682
8473 2 20.0932 50.0678 29.1575
842 1 2.70796 1.50013 31.0976
6734 2 4.52716 1.5174 32.3805
518 1 8.16421 1.50013 31.0976
6482 2 9.98339 1.51739 32.3805
282 1 13.6204 1.50013 31.0976
6286 2 15.4396 1.5174 32.3805
109 1 19.0767 1.50013 31.0976
6176 2 20.8959 1.51741 32.3805
802 1 2.7074 4.66866 31.0638
7067 2 1.79865 3.10289 32.364
843 1 5.43578 3.08457 31.0811
6733 2 4.52646 4.68792 32.347
517 1 8.16364 4.66866 31.0638
6732 2 7.2549 3.10289 32.364
516 1 10.892 3.08456 31.0811
6458 2 9.9827 4.68795 32.347
266 1 13.6199 4.66865 31.0638
6285 2 15.439 4.68794 32.347
6483 2 12.7111 3.10286 32.364
283 1 16.3483 3.08456 31.0811
6284 2 18.1674 3.10286 32.364
1129 1 21.8045 3.08457 31.0811
108 1 19.0761 4.66866 31.0638
6175 2 20.8952 4.68792 32.3469
801 1 2.70738 7.83548 31.0273
7019 2 1.79811 6.27269 32.3292
800 1 5.43543 6.25231 31.0459
6695 2 4.52601 7.85694 32.3108
486 1 8.16362 7.83548 31.0273
6735 2 7.25436 6.27267 32.3292
519 1 10.8917 6.25231 31.0459
6457 2 9.98225 7.85691 32.3108
265 1 13.6199 7.83549 31.0273
6271 2 15.4385 7.85693 32.3108
6456 2 12.7106 6.27269 32.3292
264 1 16.3479 6.25231 31.0459
6287 2 18.1668 6.27271 32.3292
1130 1 21.8041 6.25231 31.0459
101 1 19.0761 7.83549 31.0273
6174 2 20.8947 7.85696 32.3108
756 1 2.7076 11 30.9876
7020 2 1.79778 9.44068 32.2916
803 1 5.43565 9.41806 31.0079
6694 2 4.52587 11.024 32.2715
485 1 8.16384 11 30.9876
6693 2 7.25402 9.44071 32.2916
484 1 10.8919 9.41807 31.0079
6430 2 9.9821 11.0239 32.2715
243 1 13.6201 11 30.9876
6270 2 15.4383 11.0239 32.2715
6459 2 12.7103 9.44073 32.2915
267 1 16.3481 9.41807 31.0079
6269 2 18.1665 9.44069 32.2916
1082 1 21.8044 9.41806 31.0079
100 1 19.0763 11 30.9876
6171 2 20.8946 11.024 32.2715
755 1 2.70785 14.1618 30.9448
6972 2 1.79758 12.6065 32.2509
754 1 5.43578 12.5813 30.9666
6655 2 4.52561 14.1884 32.2295
450 1 8.16407 14.1618 30.9448
6696 2 7.2538 12.6065 32.2509
487 1 10.892 12.5813 30.9666
6429 2 9.98187 14.1884 32.2295
242 1 13.6203 14.1618 30.9448
6255 2 15.4381 14.1884 32.2296
6428 2 12.71 12.6065 32.2508
241 1 16.3483 12.5813 30.9665
6272 2 18.1663 12.6065 32.2508
1083 1 21.8045 12.5813 30.9666
89 1 19.0765 14.1618 30.9448
6170 2 20.8943 14.1884 32.2295
711 1 2.70908 17.3199 30.8999
6973 2 1.79766 15.7695 32.2076
757 1 5.43635 15.7414 30.9227
6654 2 4.52618 17.3493 32.185
449 1 8.16532 17.3199 30.8999
6653 2 7.25387 15.7694 32.2076
448 1 10.8926 15.7414 30.9227
6402 2 9.98241 17.3493 32.185
219 1 13.6216 17.3199 30.8999
6254 2 15.4386 17.3493 32.1849
6431 2 12.7101 15.7694 32.2076
244 1 16.3489 15.7414 30.9226
6253 2 18.1664 15.7694 32.2076
1042 1 21.8051 15.7414 30.9226
88 1 19.0778 17.3199 30.8999
6167 2 20.8949 17.3493 32.1849
710 1 2.71164 20.4725 30.8513
6932 2 1.79891 18.9281 32.1614
709 1 5.43831 18.8969 30.8762
6616 2 4.52814 20.5055 32.137
414 1 8.16787 20.4725 30.8513
6656 2 7.25515 18.9281 32.1614
451 1 10.8945 18.8969 30.8761
6401 2 9.98434 20.5055 32.1371
218 1 13.6241 20.4725 30.8513
6239 2 15.4406 20.5055 32.137
6400 2 12.7114 18.9281 32.1615
217 1 16.3508 18.8969 30.8761
6256 2 18.1676 18.9281 32.1615
1043 1 21.807 18.897 30.8761
77 1 19.0804 20.4725 30.8513
6166 2 20.8969 20.5055 32.137
6933 2 1.8015 22.0812 32.1114
673 1 2.7164 23.6184 30.7978
712 1 5.44185 22.0464 30.8252
6615 2 4.53179 23.655 32.0845
6614 2 7.25775 22.0812 32.1114
413 1 8.17265 23.6184 30.7978
412 1 10.8981 22.0464 30.8252
6374 2 9.98804 23.655 32.0845
6403 2 12.714 22.0812 32.1113
195 1 13.6289 23.6184 30.7978
6238 2 15.4443 23.655 32.0845
220 1 16.3543 22.0464 30.8252
6237 2 18.1702 22.0813 32.1113
1010 1 21.8106 22.0465 30.8252
76 1 19.0851 23.6184 30.7978
6163 2 20.9006 23.655 32.0845
6900 2 1.8067 25.2265 32.0561
671 1 5.44818 25.188 30.769
6617 2 7.26289 25.2265 32.0561
415 1 10.9044 25.188 30.769
6372 2 12.7191 25.2266 32.0561
193 1 16.3607 25.188 30.7689
6240 2 18.1754 25.2266 32.0561
1011 1 21.8169 25.188 30.769
672 1 2.72437 26.7547 30.7387
6901 2 1.81485 28.3613 31.9937
674 1 5.45724 28.3188 30.7065
6584 2 4.53845 26.7953 32.0259
379 1 8.18061 26.7548 30.7387
6582 2 7.27107 28.3613 31.9937
377 1 10.9135 28.3188 30.7065
6373 2 9.9947 26.7953 32.0259
194 1 13.6368 26.7548 30.7387
6223 2 15.4509 26.7954 32.0258
6375 2 12.7274 28.3612 31.9936
196 1 16.3697 28.3188 30.7065
6221 2 18.1836 28.3612 31.9937
986 1 21.8259 28.3188 30.7065
65 1 19.0931 26.7547 30.7387
6162 2 20.9072 26.7954 32.0259
643 1 2.73503 29.8798 30.672
6876 2 1.82716 31.4826 31.9217
987 1 0.0134656 31.4376 30.6351
641 1 5.46968 31.4376 30.6352
6583 2 4.54858 29.9239 31.959
378 1 8.19125 29.8798 30.672
6585 2 7.28334 31.4826 31.9216
380 1 10.9259 31.4376 30.6352
6347 2 10.0048 29.9239 31.959
171 1 13.6475 29.8798 30.672
6222 2 15.461 29.9239 31.959
6345 2 12.7396 31.4826 31.9216
169 1 16.3822 31.4376 30.6351
6224 2 18.1959 31.4826 31.9217
64 1 19.1037 29.8798 30.672
6159 2 20.9172 29.9238 31.959
642 1 2.74881 32.993 30.5963
6877 2 1.84335 34.5902 31.8407
970 1 0.0287334 34.5467 30.5571
644 1 5.48498 34.5466 30.5571
6560 2 4.5628 33.0379 31.882
351 1 8.20503 32.993 30.5963
6558 2 7.29966 34.5902 31.8407
349 1 10.9412 34.5466 30.5571
6346 2 10.0191 33.0379 31.882
170 1 13.6613 32.9929 30.5963
6207 2 15.4753 33.0379 31.8819
6348 2 12.7559 34.5901 31.8408
172 1 16.3974 34.5466 30.5571
6205 2 18.2121 34.5901 31.8408
53 1 19.1175 32.9929 30.5963
6158 2 20.9315 33.0379 31.8819
621 1 2.76488 36.102 30.5199
6860 2 1.86376 37.6914 31.7679
971 1 0.0467503 37.6587 30.488
619 1 5.50299 37.6587 30.4881
6559 2 4.58072 36.1405 31.8008
350 1 8.2211 36.102 30.5199
6561 2 7.32002 37.6914 31.7679
352 1 10.9592 37.6586 30.488
6327 2 10.0369 36.1405 31.8008
148 1 13.6774 36.102 30.5199
6206 2 15.4931 36.1406 31.8008
6325 2 12.7763 37.6913 31.7678
146 1 16.4155 37.6586 30.488
6208 2 18.2325 37.6913 31.7679
52 1 19.1336 36.102 30.5199
6155 2 20.9494 36.1405 31.8008
620 1 2.78656 39.2157 30.4646
6861 2 1.89212 40.7913 31.7303
962 1 0.0722449 40.772 30.4497
603 1 0.965222 39.2679 33.0334
622 1 5.52845 40.772 30.4497
6544 2 4.60496 39.2419 31.7433
601 1 3.71368 40.8185 33.0161
331 1 8.2428 39.2157 30.4646
6542 2 7.3484 40.7913 31.7303
328 1 9.16997 40.8185 33.0161
326 1 6.42144 39.268 33.0335
329 1 10.9847 40.7719 30.4497
6326 2 10.0612 39.2419 31.7433
128 1 11.8777 39.268 33.0334
147 1 13.699 39.2157 30.4646
6192 2 15.5175 39.2418 31.7433
6328 2 12.8046 40.7914 31.7303
126 1 14.6262 40.8186 33.0161
149 1 16.4409 40.7719 30.4497
6190 2 18.2608 40.7913 31.7303
37 1 17.3339 39.2679 33.0334
41 1 19.1553 39.2157 30.4646
6154 2 20.9737 39.2419 31.7433
39 1 20.0824 40.8186 33.0161
607 1 2.81271 42.3262 30.4438
6852 2 1.92108 43.8823 31.7314
963 1 0.0972325 43.8769 30.4442
602 1 1.0086 42.3596 33.0246
605 1 5.55348 43.8769 30.4442
6543 2 4.63595 42.3387 31.7259
604 1 3.75825 43.8917 33.0338
330 1 8.26893 42.3262 30.4438
6545 2 7.37747 43.8823 31.7314
315 1 6.46483 42.3596 33.0247
313 1 9.21445 43.8918 33.0339
332 1 11.0097 43.8769 30.4441
6315 2 10.0921 42.3387 31.726
127 1 11.921 42.3596 33.0247
132 1 13.7252 42.3262 30.4438
6191 2 15.5484 42.3387 31.726
6313 2 12.8337 43.8824 31.7315
129 1 14.6707 43.8918 33.0339
130 1 16.466 43.877 30.4442
6193 2 18.2898 43.8824 31.7315
27 1 17.3773 42.3596 33.0247
40 1 19.1815 42.3262 30.4438
6151 2 21.0047 42.3387 31.7259
25 1 20.127 43.8917 33.0338
606 1 2.83386 45.4223 30.4464
961 1 0.108221 46.9674 30.4473
6853 2 1.9328 46.9699 31.7373
597 1 1.03988 45.4314 33.0363
6536 2 4.65778 45.4262 31.7364
608 1 5.56444 46.9674 30.4473
595 1 3.77032 46.9724 33.0371
319 1 8.29007 45.4222 30.4464
6534 2 7.389 46.9698 31.7373
316 1 9.22656 46.9724 33.0371
314 1 6.49614 45.4314 33.0363
6314 2 10.114 45.4262 31.7364
317 1 11.0208 46.9674 30.4473
120 1 11.9524 45.4314 33.0363
131 1 13.7463 45.4222 30.4464
6184 2 15.5703 45.4261 31.7364
6316 2 12.8452 46.9699 31.7373
118 1 14.6828 46.9724 33.0371
133 1 16.477 46.9673 30.4473
6182 2 18.3014 46.9698 31.7374
26 1 17.4086 45.4314 33.0363
30 1 19.2025 45.4222 30.4464
6150 2 21.0265 45.4261 31.7364
28 1 20.139 46.9724 33.0371
598 1 2.83438 48.5136 30.4469
596 1 1.03876 48.5125 33.0355
9242 2 1.92104 50.0573 31.7315
3225 1 0.0974785 50.059 30.4432
6535 2 4.65805 48.5137 31.7357
2889 1 5.55372 50.059 30.4432
2888 1 3.75851 50.0521 33.0344
318 1 8.29057 48.5137 30.4468
308 1 6.49503 48.5125 33.0355
8944 2 7.37736 50.0574 31.7315
2561 1 9.21477 50.0521 33.0344
6308 2 10.1143 48.5136 31.7358
119 1 11.9513 48.5125 33.0355
2592 1 11.01 50.059 30.4432
121 1 13.7468 48.5136 30.4468
6183 2 15.5705 48.5137 31.7357
8657 2 12.8337 50.0575 31.7314
2328 1 14.671 50.0521 33.0343
20 1 17.4074 48.5125 33.0356
2329 1 16.4662 50.0591 30.4432
8472 2 18.2899 50.0574 31.7314
29 1 19.2031 48.5136 30.4468
6147 2 21.0268 48.5138 31.7357
2153 1 20.1272 50.0521 33.0344
798 1 0.889497 1.53514 33.6664
6730 2 2.7092 1.55268 34.9484
514 1 6.34574 1.53514 33.6664
6454 2 8.16542 1.55272 34.9484
262 1 11.802 1.53514 33.6664
6282 2 13.6217 1.55272 34.9484
106 1 17.2582 1.53513 33.6664
6173 2 19.0779 1.55268 34.9484
797 1 0.888309 4.70772 33.6333
6691 2 2.70791 4.72745 34.9154
796 1 3.61703 3.12156 33.6501
6731 2 5.43669 3.14019 34.9322
482 1 6.34455 4.70771 33.6333
515 1 9.07326 3.12156 33.6501
6453 2 8.16416 4.7274 34.9154
261 1 11.8008 4.70772 33.6333
6452 2 10.8929 3.1402 34.9322
260 1 14.5295 3.12155 33.6501
6267 2 13.6204 4.72739 34.9155
98 1 17.257 4.70773 33.6333
6283 2 16.3491 3.1402 34.9322
7017 2 21.8054 3.14019 34.9322
107 1 19.9857 3.12155 33.6501
6172 2 19.0766 4.72744 34.9155
752 1 0.887547 7.8791 33.5978
6690 2 2.70685 7.90098 34.88
799 1 3.61596 6.29357 33.6159
6689 2 5.43542 6.31435 34.8981
480 1 9.07222 6.29356 33.6158
481 1 6.34378 7.87909 33.5978
6426 2 8.16307 7.90098 34.8801
239 1 11.8 7.87909 33.5978
6455 2 10.8917 6.31434 34.8981
263 1 14.5285 6.29357 33.6158
6266 2 13.6193 7.901 34.8801
97 1 17.2563 7.87909 33.5978
6265 2 16.3479 6.31433 34.8981
7018 2 21.8042 6.31434 34.8981
96 1 19.9847 6.29358 33.6159
6169 2 19.0755 7.901 34.88
751 1 0.886932 11.0486 33.5592
6651 2 2.70575 11.0731 34.8418
750 1 3.61539 9.4641 33.5789
6692 2 5.43444 9.48724 34.8613
446 1 6.34317 11.0486 33.5592
483 1 9.07163 9.46411 33.5789
6425 2 8.16199 11.0731 34.8417
238 1 11.7994 11.0486 33.5592
6424 2 10.8907 9.48725 34.8613
237 1 14.5279 9.46411 33.5789
6251 2 13.6182 11.0731 34.8417
86 1 17.2556 11.0486 33.5592
6268 2 16.347 9.48726 34.8613
6970 2 21.8032 9.48725 34.8612
99 1 19.9841 9.4641 33.5789
6168 2 19.0745 11.0731 34.8418
707 1 0.885965 14.2158 33.5179
6650 2 2.70449 14.2433 34.801
753 1 3.61452 12.6325 33.5388
6649 2 5.43328 12.6585 34.8216
444 1 9.07076 12.6325 33.5388
445 1 6.34221 14.2158 33.5179
6398 2 8.16076 14.2433 34.801
215 1 11.7984 14.2158 33.5179
6427 2 10.8895 12.6584 34.8216
240 1 14.527 12.6325 33.5388
6250 2 13.617 14.2433 34.801
85 1 17.2547 14.2158 33.5179
6249 2 16.3457 12.6585 34.8215
6971 2 21.802 12.6585 34.8216
84 1 19.9832 12.6325 33.5388
6165 2 19.0733 14.2433 34.801
706 1 0.885698 17.3803 33.475
6612 2 2.70377 17.411 34.758
705 1 3.61392 15.7985 33.4966
6652 2 5.43218 15.8276 34.7798
410 1 6.34193 17.3803 33.4749
447 1 9.07015 15.7985 33.4966
6397 2 8.16003 17.411 34.7579
214 1 11.7982 17.3803 33.4749
6396 2 10.8884 15.8276 34.7798
213 1 14.5264 15.7985 33.4966
6235 2 13.6162 17.411 34.7579
74 1 17.2544 17.3803 33.475
6252 2 16.3447 15.8276 34.7798
6930 2 21.8009 15.8276 34.7798
87 1 19.9826 15.7985 33.4966
6164 2 19.0725 17.411 34.7579
669 1 0.886511 20.5404 33.429
6611 2 2.70398 20.5752 34.7121
708 1 3.61405 18.961 33.4525
6610 2 5.43184 18.9937 34.7355
408 1 9.07029 18.961 33.4525
409 1 6.34275 20.5404 33.429
6370 2 8.16022 20.5752 34.7121
191 1 11.799 20.5404 33.429
6399 2 10.8881 18.9937 34.7354
216 1 14.5265 18.961 33.4525
6234 2 13.6165 20.5752 34.7121
73 1 17.2552 20.5404 33.429
6233 2 16.3444 18.9937 34.7354
6931 2 21.8006 18.9937 34.7355
72 1 19.9828 18.961 33.4525
6161 2 19.0727 20.5752 34.7121
668 1 0.889557 23.6942 33.3789
667 1 3.61568 22.1182 33.4044
6613 2 5.43269 22.1553 34.6878
411 1 9.07192 22.1182 33.4044
375 1 6.34579 23.6942 33.3789
6368 2 10.8889 22.1553 34.6878
190 1 11.802 23.6942 33.3789
189 1 14.5282 22.1182 33.4044
6236 2 16.3451 22.1553 34.6878
62 1 17.2583 23.6942 33.3788
6898 2 21.8014 22.1553 34.6878
75 1 19.9844 22.1182 33.4044
6580 2 2.70558 23.7336 34.6622
670 1 3.62021 25.268 33.3522
6578 2 5.43542 25.3099 34.6353
6369 2 8.16183 23.7337 34.6623
373 1 9.07647 25.268 33.3522
6371 2 10.8917 25.3099 34.6353
6219 2 13.6181 23.7337 34.6623
192 1 14.5327 25.268 33.3522
6217 2 16.3479 25.3099 34.6354
60 1 19.9889 25.268 33.3522
6899 2 21.8041 25.3099 34.6354
6160 2 19.0743 23.7337 34.6623
6579 2 2.70966 26.8837 34.6066
639 1 0.89495 26.8389 33.3241
636 1 1.79485 28.515 35.8793
6581 2 5.44087 28.4542 34.5756
637 1 3.62727 28.4069 33.2939
343 1 4.52133 26.9384 35.9056
6343 2 8.16587 26.8837 34.6066
376 1 9.08349 28.407 33.2939
374 1 6.35117 26.8389 33.3241
341 1 7.25109 28.515 35.8792
6341 2 10.8971 28.4542 34.5757
167 1 11.8074 26.8389 33.3241
162 1 9.97757 26.9384 35.9056
6218 2 13.6221 26.8837 34.6066
165 1 14.5397 28.4069 33.2939
46 1 15.4338 26.9384 35.9056
164 1 12.7073 28.515 35.8792
6220 2 16.3533 28.4542 34.5756
61 1 17.2637 26.8389 33.3241
44 1 18.1636 28.515 35.8792
6157 2 19.0784 26.8837 34.6066
63 1 19.996 28.4069 33.2939
6874 2 21.8096 28.4542 34.5756
8 1 20.89 26.9383 35.9056
6556 2 2.71727 30.0205 34.542
638 1 0.904631 29.9704 33.2616
613 1 1.80302 31.6567 35.8227
6554 2 5.45138 31.5816 34.5046
640 1 3.63986 31.5289 33.2268
342 1 4.52644 30.0883 35.8519
6342 2 8.17356 30.0205 34.542
347 1 6.36085 29.9704 33.2616
345 1 9.09608 31.5289 33.2268
344 1 7.25927 31.6567 35.8227
6344 2 10.9076 31.5816 34.5045
166 1 11.8171 29.9704 33.2616
140 1 9.98264 30.0883 35.8519
6203 2 13.6298 30.0205 34.542
168 1 14.5523 31.5289 33.2268
45 1 15.4389 30.0882 35.8519
138 1 12.7155 31.6567 35.8227
6201 2 16.3638 31.5816 34.5045
50 1 17.2734 29.9704 33.2616
47 1 18.1717 31.6567 35.8227
6156 2 19.086 30.0205 34.542
48 1 20.0086 31.5289 33.2268
6875 2 21.8201 31.5816 34.5046
7 1 20.8952 30.0883 35.8519
6555 2 2.73066 33.1368 34.4628
617 1 0.919951 33.0814 33.188
6858 2 0.0117455 34.6848 34.4157
614 1 1.81559 34.7679 35.7533
6557 2 5.46799 34.6848 34.4157
615 1 3.65688 34.6286 33.1455
323 1 4.53688 33.2183 35.7903
6323 2 8.1869 33.1368 34.4628
348 1 9.11314 34.6286 33.1455
346 1 6.37618 33.0814 33.188
321 1 7.27183 34.7678 35.7533
6321 2 10.9242 34.6848 34.4157
144 1 11.8324 33.0814 33.188
139 1 9.99312 33.2183 35.7903
6202 2 13.6431 33.1368 34.4628
142 1 14.5694 34.6286 33.1455
34 1 15.4493 33.2183 35.7903
141 1 12.7281 34.7678 35.7533
6204 2 16.3804 34.6848 34.4157
49 1 17.2887 33.0814 33.188
32 1 18.1843 34.7678 35.7533
6153 2 19.0993 33.1367 34.4628
51 1 20.0256 34.6286 33.1455
6 1 20.9056 33.2184 35.7903
6540 2 2.75088 36.2258 34.3653
616 1 0.936908 36.1722 33.0997
599 1 1.8326 37.8247 35.6612
6859 2 0.0344134 37.7618 34.3179
6538 2 5.49067 37.7618 34.3179
618 1 3.67718 37.7184 33.0594
322 1 4.55334 36.3071 35.7135
6322 2 8.20714 36.2257 34.3653
327 1 6.39316 36.1722 33.0997
325 1 9.13337 37.7184 33.0595
324 1 7.28882 37.8247 35.6612
6324 2 10.9469 37.7618 34.3179
143 1 11.8494 36.1722 33.0997
124 1 10.0095 36.3071 35.7135
6188 2 13.6634 36.2258 34.3653
145 1 14.5896 37.7184 33.0595
33 1 15.4658 36.3071 35.7136
122 1 12.745 37.8247 35.6613
6186 2 16.4031 37.7618 34.3179
38 1 17.3056 36.1722 33.0997
35 1 18.2013 37.8247 35.6613
6152 2 19.1196 36.2259 34.3652
36 1 20.0459 37.7184 33.0595
5 1 20.9221 36.3071 35.7136
6539 2 2.78341 39.2987 34.2908
600 1 1.91169 40.8588 35.6243
6850 2 0.074782 40.8318 34.2805
6541 2 5.53094 40.8317 34.2804
311 1 4.57245 39.3659 35.622
6311 2 8.23969 39.2985 34.2908
309 1 7.36797 40.8588 35.6243
6309 2 10.9871 40.8318 34.2803
123 1 10.0287 39.3659 35.622
6187 2 13.6959 39.2984 34.2907
23 1 15.485 39.3659 35.622
125 1 12.8243 40.8586 35.6242
6189 2 16.4435 40.8319 34.2804
21 1 18.2804 40.8587 35.6242
6149 2 19.1521 39.2985 34.2908
4 1 20.9412 39.3659 35.622
6532 2 2.83078 42.3584 34.2981
6851 2 0.123802 43.8936 34.3146
593 1 1.9589 43.8962 35.6331
6530 2 5.58004 43.8936 34.3146
310 1 4.66903 42.3547 35.6524
6310 2 8.28701 42.3585 34.2982
312 1 7.41511 43.8961 35.6331
6312 2 11.0363 43.8936 34.3146
116 1 10.1252 42.3548 35.6525
6180 2 13.7433 42.3586 34.2982
22 1 15.5815 42.3548 35.6524
114 1 12.8713 43.8961 35.6332
6178 2 16.4925 43.8935 34.3146
24 1 18.3276 43.8962 35.6332
6148 2 19.1995 42.3585 34.298
3 1 21.0378 42.3548 35.6523
6531 2 2.86741 45.4331 34.3227
594 1 1.97139 46.9756 35.6346
6849 2 0.144975 46.9736 34.3263
307 1 4.69783 45.4342 35.6291
6533 2 5.60116 46.9737 34.3264
6307 2 8.32363 45.433 34.3226
305 1 7.4276 46.9758 35.6347
115 1 10.1541 45.4342 35.6291
6305 2 11.0574 46.9737 34.3264
6179 2 13.7797 45.4331 34.3226
117 1 12.8839 46.9758 35.6346
19 1 15.6103 45.4341 35.6291
6181 2 16.5138 46.9738 34.3263
17 1 18.3401 46.9756 35.6345
6146 2 19.236 45.4332 34.3227
2 1 21.0665 45.4341 35.6292
6529 2 2.86739 48.514 34.3225
2842 1 1.95785 50.0511 35.631
9241 2 0.124049 50.0534 34.3145
306 1 4.69826 48.5158 35.6308
8905 2 5.58029 50.0534 34.3144
6306 2 8.32363 48.514 34.3225
2560 1 7.41416 50.0511 35.6309
113 1 10.1545 48.5157 35.6309
8656 2 11.0364 50.0533 34.3144
6177 2 13.7799 48.5139 34.3225
2305 1 12.8704 50.0511 35.6309
18 1 15.6107 48.5157 35.6309
8457 2 16.4926 50.0533 34.3146
2152 1 18.3265 50.0511 35.631
6145 2 19.2361 48.5139 34.3225
1 1 21.067 48.5158 35.6308
8318 2 0.892159 1.58837 37.5146
478 1 4.52815 1.57062 36.2335
8287 2 6.34837 1.58837 37.5146
8254 2 11.8046 1.58836 37.5146
258 1 9.9844 1.57062 36.2335
94 1 15.4406 1.57062 36.2334
8223 2 17.2609 1.58836 37.5146
16 1 20.8969 1.57063 36.2334
8317 2 0.890401 4.76736 37.4819
795 1 1.79919 3.15909 36.2174
8316 2 3.61942 3.17794 37.4986
477 1 4.52646 4.74746 36.2008
8284 2 6.34666 4.76734 37.4819
8288 2 9.07565 3.17796 37.4986
476 1 7.25543 3.1591 36.2174
8253 2 11.8029 4.76734 37.4819
235 1 9.98269 4.74745 36.2008
8252 2 14.5319 3.17798 37.4985
93 1 15.4389 4.74745 36.2008
259 1 12.7117 3.1591 36.2174
8220 2 17.2591 4.76737 37.4819
92 1 18.1679 3.1591 36.2174
8224 2 19.9881 3.17796 37.4985
15 1 20.8952 4.74746 36.2008
8314 2 0.888723 7.94575 37.4469
748 1 1.79759 6.33559 36.1836
14570 1 2.70756 7.96872 38.7315
8319 2 3.61766 6.35665 37.4647
442 1 4.52503 7.92361 36.1659
14569 1 5.43663 6.37815 38.7492
8282 2 9.07388 6.35665 37.4647
8283 2 6.34499 7.94578 37.4469
479 1 7.25383 6.33559 36.1837
14470 1 8.16381 7.96873 38.7315
8250 2 11.8012 7.94577 37.4469
234 1 9.98127 7.92361 36.1659
14479 1 10.8929 6.37815 38.7492
8255 2 14.5301 6.35667 37.4647
82 1 15.4375 7.92361 36.1659
233 1 12.7101 6.33559 36.1837
14282 1 13.6201 7.96873 38.7315
8219 2 17.2574 7.94574 37.4469
95 1 18.1663 6.33559 36.1837
14281 1 16.3491 6.37817 38.7492
8218 2 19.9864 6.35667 37.4647
14 1 20.8937 7.92361 36.1659
14591 1 21.8053 6.37816 38.7491
13994 1 19.0763 7.96873 38.7315
8313 2 0.887014 11.1234 37.4092
749 1 1.79628 9.51129 36.1474
14560 1 2.70548 11.1493 38.6942
8312 2 3.61609 9.53477 37.4283
441 1 4.52358 11.0985 36.1282
14572 1 5.43468 9.55914 38.7132
8280 2 6.34324 11.1234 37.4092
8285 2 9.07233 9.53475 37.4284
440 1 7.25251 9.51128 36.1474
14469 1 8.16172 11.1493 38.6942
8249 2 11.7995 11.1235 37.4092
211 1 9.97982 11.0985 36.1282
14468 1 10.8909 9.55914 38.7132
8248 2 14.5286 9.53472 37.4284
81 1 15.4361 11.0985 36.1282
236 1 12.7087 9.51128 36.1474
14271 1 13.618 11.1493 38.6942
8216 2 17.2557 11.1234 37.4092
80 1 18.165 9.51129 36.1474
14284 1 16.3471 9.55914 38.7132
8221 2 19.9848 9.53474 37.4284
13 1 20.8923 11.0985 36.1282
14588 1 21.8034 9.55913 38.7132
13993 1 19.0742 11.1493 38.6942
8310 2 0.884964 14.3001 37.369
703 1 1.79456 12.6854 36.1083
14559 1 2.70283 14.3293 38.6545
8315 2 3.61409 12.7118 37.3894
406 1 4.52174 14.2719 36.088
14558 1 5.43227 12.7394 38.6746
8278 2 9.0703 12.7118 37.3893
8279 2 6.34119 14.3 37.369
443 1 7.25079 12.6854 36.1083
14454 1 8.15906 14.3293 38.6545
8246 2 11.7974 14.3 37.3691
210 1 9.97796 14.2719 36.088
14471 1 10.8885 12.7394 38.6746
8251 2 14.5265 12.7118 37.3893
70 1 15.4342 14.2719 36.0879
209 1 12.707 12.6854 36.1083
14270 1 13.6153 14.3293 38.6545
8215 2 17.2537 14.3 37.3691
83 1 18.1633 12.6854 36.1083
14269 1 16.3448 12.7394 38.6746
8214 2 19.9827 12.7118 37.3894
12 1 20.8904 14.2719 36.0879
13980 1 19.0715 14.3293 38.6545
14589 1 21.801 12.7394 38.6746
8309 2 0.883035 17.4753 37.3268
704 1 1.79259 15.858 36.0673
14548 1 2.70003 17.5093 38.613
8308 2 3.61208 15.8877 37.3483
405 1 4.52001 17.4438 36.0463
14561 1 5.42961 15.9193 38.634
8276 2 6.33927 17.4753 37.3269
8281 2 9.06835 15.8878 37.3483
404 1 7.24884 15.858 36.0673
14453 1 8.15627 17.5093 38.613
8245 2 11.7955 17.4753 37.3269
187 1 9.97625 17.4438 36.0463
14452 1 10.8858 15.9193 38.6339
8244 2 14.5246 15.8877 37.3483
69 1 15.4325 17.4438 36.0463
212 1 12.7051 15.858 36.0673
14251 1 13.6125 17.5093 38.613
8212 2 17.2517 17.4752 37.3268
68 1 18.1613 15.858 36.0673
14272 1 16.3421 15.9193 38.6339
8217 2 19.9808 15.8877 37.3483
11 1 20.8887 17.4438 36.0463
14586 1 21.7983 15.9193 38.6339
13979 1 19.0688 17.5093 38.613
8306 2 0.88165 20.6487 37.2824
665 1 1.79121 19.0289 36.0248
14547 1 2.69754 20.6891 38.5702
8311 2 3.61035 19.0622 37.3049
371 1 4.51884 20.6132 36.0026
14546 1 5.4268 19.0992 38.5918
8274 2 9.06656 19.0622 37.3049
8275 2 6.33788 20.6487 37.2823
407 1 7.24745 19.0289 36.0248
14431 1 8.15379 20.6891 38.5702
8242 2 11.7942 20.6487 37.2823
186 1 9.97508 20.6132 36.0026
14455 1 10.883 19.0992 38.5919
8247 2 14.5228 19.0622 37.3049
58 1 15.4313 20.6132 36.0025
185 1 12.7037 19.0289 36.0248
14250 1 13.61 20.6891 38.5702
8211 2 17.2504 20.6487 37.2823
71 1 18.1599 19.0289 36.0248
14249 1 16.3393 19.0992 38.5919
8210 2 19.9791 19.0623 37.3049
10 1 20.8875 20.6132 36.0026
14587 1 21.7955 19.0992 38.5918
13958 1 19.0663 20.6891 38.5702
666 1 1.79099 22.1963 35.9796
8304 2 3.60942 22.2344 37.2589
14549 1 5.42436 22.279 38.5481
8277 2 9.06566 22.2344 37.2589
369 1 7.24722 22.1963 35.9796
14429 1 10.8806 22.279 38.5481
8240 2 14.5219 22.2344 37.2589
188 1 12.7035 22.1963 35.9796
56 1 18.1597 22.1963 35.9796
14252 1 16.3368 22.2789 38.5481
8213 2 19.9781 22.2344 37.2589
14584 1 21.7931 22.279 38.5481
8305 2 0.881278 23.8189 37.2343
635 1 1.79187 25.3593 35.9311
14536 1 2.69526 23.8692 38.5252
370 1 4.51934 23.7785 35.9559
8307 2 3.60951 25.4023 37.2084
14534 1 5.42227 25.4593 38.5017
8272 2 6.33749 23.8189 37.2343
8270 2 9.06574 25.4023 37.2084
372 1 7.24811 25.3593 35.9311
14430 1 8.15149 23.8692 38.5252
8241 2 11.7937 23.8189 37.2343
163 1 9.97557 23.7785 35.9558
14432 1 10.8785 25.4593 38.5017
57 1 15.4318 23.7785 35.9558
8243 2 14.522 25.4023 37.2084
161 1 12.7043 25.3593 35.931
14223 1 13.6077 23.8691 38.5252
8208 2 17.25 23.8189 37.2343
59 1 18.1606 25.3593 35.931
14221 1 16.3348 25.4593 38.5017
9 1 20.8881 23.7785 35.9558
8206 2 19.9783 25.4023 37.2084
14585 1 21.791 25.4593 38.5017
13957 1 19.064 23.8691 38.5252
8302 2 0.881981 26.9839 37.1809
14535 1 2.6921 27.0502 38.4778
8300 2 3.61147 28.5628 37.1514
14537 1 5.41828 28.6429 38.4539
8271 2 6.33824 26.9839 37.1808
8273 2 9.06766 28.5628 37.1514
14407 1 8.14836 27.0502 38.4778
8238 2 11.7945 26.9839 37.1808
14405 1 10.8745 28.6429 38.4539
8236 2 14.5239 28.5628 37.1513
14222 1 13.6046 27.0502 38.4778
8207 2 17.2507 26.9839 37.1808
14224 1 16.3307 28.6429 38.4538
8209 2 19.9802 28.5628 37.1513
14582 1 21.787 28.6429 38.4539
13928 1 19.0609 27.0502 38.4779
8301 2 0.88586 30.1384 37.1187
14524 1 2.6868 30.2367 38.4304
8303 2 3.61769 31.7087 37.0823
14522 1 5.40876 31.8348 38.407
8266 2 9.07395 31.7087 37.0822
8268 2 6.3421 30.1384 37.1187
14406 1 8.14301 30.2367 38.4304
8237 2 11.7984 30.1383 37.1187
14408 1 10.865 31.8348 38.407
8239 2 14.5302 31.7086 37.0822
14188 1 13.5992 30.2367 38.4304
8204 2 17.2546 30.1384 37.1187
14186 1 16.3213 31.8348 38.407
14583 1 21.7775 31.8348 38.407
8202 2 19.9864 31.7087 37.0823
13927 1 19.0555 30.2367 38.4304
8298 2 0.895261 33.2714 37.0399
14523 1 2.6724 33.4357 38.3851
8296 2 3.62948 34.8251 36.9907
14525 1 5.38346 35.051 38.3589
8267 2 6.35146 33.2715 37.0399
8269 2 9.08569 34.8251 36.9907
14383 1 8.12863 33.4357 38.3851
8234 2 11.8077 33.2715 37.0399
14381 1 10.8397 35.051 38.3589
8232 2 14.5419 34.8252 36.9906
14187 1 13.5849 33.4357 38.3851
8203 2 17.264 33.2714 37.0399
14189 1 16.2959 35.051 38.3588
14580 1 21.7522 35.051 38.3589
8205 2 19.9982 34.8251 36.9906
13890 1 19.0411 33.4357 38.3851
8297 2 0.914422 36.3588 36.9256
14512 1 2.6204 36.6643 38.3345
8299 2 3.65459 37.8819 36.8623
14510 1 5.12726 38.4927 38.4231
8262 2 9.11084 37.8818 36.8622
8264 2 6.37067 36.3587 36.9257
14382 1 8.07663 36.6643 38.3346
8233 2 11.8269 36.3588 36.9257
14384 1 10.5835 38.4927 38.4231
8235 2 14.567 37.8818 36.8623
14152 1 13.5329 36.6643 38.3345
8200 2 17.2832 36.3588 36.9256
14150 1 16.0398 38.4927 38.423
8198 2 20.0233 37.8819 36.8624
13889 1 18.9891 36.6643 38.3345
14581 1 21.496 38.4926 38.423
8294 2 0.915707 39.3694 36.8051
14511 1 2.1465 40.216 38.3654
8292 2 3.69264 40.8464 36.8658
8263 2 6.372 39.3694 36.8051
8265 2 9.1488 40.8466 36.8658
14359 1 7.6027 40.2161 38.3654
8230 2 11.8284 39.3693 36.8052
8228 2 14.6051 40.8465 36.8658
14151 1 13.0589 40.2161 38.3654
8199 2 17.2846 39.3693 36.8051
13845 1 18.5151 40.216 38.3654
8201 2 20.0614 40.8464 36.8658
8293 2 1.04715 42.3443 36.871
14500 1 2.17882 43.7499 38.2362
14513 1 4.90633 42.069 38.2979
8295 2 3.8229 43.8836 36.8934
8260 2 6.5034 42.3445 36.871
14358 1 7.63522 43.75 38.2361
8258 2 9.2791 43.8833 36.8935
14357 1 10.3627 42.0692 38.2979
8229 2 11.9593 42.3452 36.8714
14116 1 13.0915 43.75 38.236
8231 2 14.7352 43.8834 36.8934
14153 1 15.8189 42.0691 38.2979
8196 2 17.4155 42.345 36.8714
13844 1 18.5476 43.7499 38.236
14578 1 21.275 42.0689 38.2979
8194 2 20.1915 43.8836 36.8933
8291 2 1.10847 45.4263 36.908
14499 1 2.18341 46.9817 38.2446
14498 1 4.90756 45.3841 38.2375
8289 2 3.84002 46.9767 36.9068
8259 2 6.56454 45.4263 36.9079
14336 1 7.63971 46.9818 38.2445
8261 2 9.29629 46.9769 36.9068
8227 2 12.0208 45.4261 36.9079
14360 1 10.364 45.3836 38.2374
14115 1 13.0959 46.9819 38.2446
8225 2 14.7526 46.9767 36.9067
8195 2 17.4772 45.4262 36.908
14114 1 15.8202 45.3838 38.2374
13799 1 18.552 46.9818 38.2446
14579 1 21.2762 45.3842 38.2375
8197 2 20.2088 46.9766 36.9067
8290 2 1.10697 48.5268 36.9091
14489 1 2.18242 50.2178 38.2375
10496 2 3.82207 50.0692 36.893
14501 1 4.90524 48.5804 38.2441
10462 2 9.27824 50.0691 36.8931
8257 2 6.56348 48.5266 36.909
14335 1 7.63867 50.2179 38.2375
8226 2 12.0198 48.5266 36.909
14334 1 10.3613 48.5804 38.2441
10432 2 14.7345 50.0692 36.8931
14081 1 13.0949 50.2178 38.2375
8193 2 17.4757 48.5268 36.9091
14117 1 15.8177 48.5806 38.2439
13798 1 18.5511 50.2178 38.2375
10398 2 20.1908 50.0693 36.893
14577 1 21.2741 48.5805 38.2439
14575 1 2.71155 1.6065 38.7988
14567 1 0.895945 1.64264 41.3623
20231 2 1.80504 0.0327008 40.0944
14574 1 5.4406 0.0158396 38.8141
14573 1 3.62506 0.0499409 41.3777
20198 2 4.53227 1.62439 40.079
14478 1 8.16779 1.6065 38.7988
14473 1 9.08129 0.049941 41.3777
14474 1 6.35219 1.64264 41.3623
20200 2 7.26126 0.0327246 40.0944
14480 1 10.8968 0.0158347 38.8141
14279 1 11.8084 1.64265 41.3623
20071 2 9.98849 1.62444 40.079
14287 1 13.624 1.6065 38.7988
14285 1 14.5375 0.049941 41.3777
19846 2 15.4447 1.62443 40.079
20070 2 12.7175 0.0327125 40.0944
14286 1 16.3531 0.0158263 38.8141
13997 1 17.2647 1.64265 41.3623
19848 2 18.1738 0.0326886 40.0944
14592 1 21.8093 0.0158312 38.8141
14000 1 19.0803 1.60649 38.7988
13996 1 19.9938 0.0499408 41.3777
19528 2 20.901 1.62438 40.079
14571 1 2.7095 4.78768 38.7663
14566 1 0.89369 4.82821 41.3296
20232 2 1.80318 3.2161 40.063
14576 1 5.43866 3.19706 38.7828
14565 1 3.62296 3.23533 41.3463
20197 2 4.53029 4.80776 40.0463
14477 1 8.16573 4.78767 38.7663
14466 1 6.34993 4.82821 41.3296
14475 1 9.0792 3.23532 41.3463
20196 2 7.25943 3.21607 40.0629
14476 1 10.8949 3.19706 38.7828
14278 1 11.8062 4.82822 41.3296
20067 2 9.98654 4.80775 40.0463
14283 1 13.622 4.78768 38.7663
14277 1 14.5354 3.23533 41.3463
19845 2 15.4428 4.80774 40.0463
20072 2 12.7157 3.21606 40.063
14288 1 16.3511 3.19707 38.7828
13991 1 17.2624 4.82821 41.3296
19844 2 18.1719 3.21609 40.063
14590 1 21.8074 3.19707 38.7828
13999 1 19.0782 4.78768 38.7663
13998 1 19.9917 3.23533 41.3463
19527 2 20.899 4.80776 40.0463
14556 1 0.891468 8.01417 41.2944
20228 2 1.80114 6.39945 40.029
14568 1 3.62069 6.42104 41.3123
20190 2 4.52817 7.99108 40.0112
14464 1 9.07693 6.42104 41.3123
14465 1 6.3477 8.01417 41.2944
20199 2 7.25736 6.39943 40.0291
14267 1 11.8039 8.01416 41.2945
20066 2 9.9844 7.99107 40.0112
14280 1 14.5332 6.42104 41.3123
19838 2 15.4407 7.99108 40.0111
20065 2 12.7136 6.39941 40.0291
13990 1 17.2602 8.01416 41.2945
19847 2 18.1698 6.39944 40.0291
13989 1 19.9894 6.42104 41.3123
19526 2 20.8969 7.99109 40.0111
14555 1 0.888885 11.2005 41.2569
20229 2 1.79902 9.58271 39.9927
14554 1 3.61838 9.60728 41.276
20189 2 4.52601 11.1744 39.9735
14450 1 6.34512 11.2005 41.257
14467 1 9.07461 9.60727 41.276
20188 2 7.25526 9.58273 39.9927
14266 1 11.8014 11.2005 41.257
20055 2 9.98227 11.1744 39.9735
14265 1 14.5308 9.60728 41.276
19837 2 15.4385 11.1744 39.9735
20068 2 12.7115 9.58274 39.9927
13977 1 17.2576 11.2005 41.2569
19836 2 18.1678 9.58273 39.9927
13992 1 19.9871 9.60729 41.276
19519 2 20.8948 11.1744 39.9735
14544 1 0.885878 14.3873 41.2171
20224 2 1.79651 12.7658 39.9538
14557 1 3.61554 12.7939 41.2373
20175 2 4.52336 14.3575 39.9334
14448 1 9.07177 12.7939 41.2373
14449 1 6.34212 14.3873 41.2171
20191 2 7.25278 12.7658 39.9538
14247 1 11.7984 14.3873 41.217
20054 2 9.9796 14.3575 39.9334
14268 1 14.528 12.7939 41.2373
19822 2 15.4358 14.3574 39.9334
20053 2 12.709 12.7659 39.9537
13976 1 17.2546 14.3873 41.2171
19839 2 18.1652 12.7659 39.9538
13975 1 19.9843 12.7939 41.2373
19518 2 20.892 14.3575 39.9334
14543 1 0.882531 17.5754 41.1749
20225 2 1.79393 15.949 39.9125
14542 1 3.61229 15.9813 41.1962
20174 2 4.52071 17.5406 39.8911
14427 1 6.33877 17.5754 41.1749
14451 1 9.06852 15.9813 41.1962
20173 2 7.25015 15.949 39.9125
14246 1 11.795 17.5755 41.1749
20035 2 9.97695 17.5407 39.8911
14245 1 14.5247 15.9813 41.1962
19821 2 15.4331 17.5407 39.8911
20056 2 12.7064 15.949 39.9125
13955 1 17.2513 17.5755 41.1749
19820 2 18.1627 15.949 39.9126
13978 1 19.981 15.9813 41.1962
19503 2 20.8894 17.5406 39.8911
20220 2 1.79135 19.1324 39.869
14545 1 3.60897 19.1703 41.1532
20159 2 4.51826 20.7242 39.8464
14425 1 9.06522 19.1704 41.1532
20176 2 7.24761 19.1324 39.869
20034 2 9.9745 20.7242 39.8465
14248 1 14.5215 19.1704 41.1532
20033 2 12.7038 19.1324 39.869
19798 2 15.4308 20.7242 39.8465
19823 2 18.16 19.1324 39.869
13953 1 19.9777 19.1704 41.1532
19502 2 20.887 20.7242 39.8464
14532 1 0.878982 20.7661 41.1311
20221 2 1.78917 22.316 39.8229
14530 1 3.60548 22.3628 41.1087
14426 1 6.33523 20.7661 41.1311
14428 1 9.06173 22.3627 41.1087
20157 2 7.24545 22.316 39.8229
14219 1 11.7915 20.7661 41.1311
14217 1 14.518 22.3627 41.1087
20036 2 12.7017 22.3161 39.8229
13954 1 17.2477 20.7661 41.1311
19796 2 18.1579 22.316 39.8229
13956 1 19.9742 22.3627 41.1087
14531 1 0.875365 23.9611 41.0851
20216 2 1.78745 25.4997 39.7723
14533 1 3.60085 25.561 41.0609
20158 2 4.51638 23.9079 39.7983
14401 1 9.05709 25.561 41.0609
14403 1 6.33161 23.9611 41.0851
20160 2 7.24366 25.4996 39.7723
14218 1 11.7878 23.9611 41.0851
20008 2 9.97264 23.9079 39.7983
14220 1 14.5133 25.561 41.0609
19797 2 15.4289 23.9079 39.7983
20006 2 12.6999 25.4997 39.7723
13925 1 17.2441 23.9611 41.0851
19799 2 18.1561 25.4997 39.7723
13923 1 19.9696 25.561 41.0609
19479 2 20.8851 23.9079 39.7983
14520 1 0.869924 27.1638 41.0358
20217 2 1.78636 28.6834 39.7148
14518 1 3.59354 28.7709 41.01
20143 2 4.51492 27.0914 39.7445
14402 1 6.32613 27.1638 41.0358
14404 1 9.0498 28.771 41.0099
20141 2 7.24255 28.6834 39.7148
14184 1 11.7824 27.1638 41.0358
20007 2 9.9712 27.0914 39.7445
14182 1 14.506 28.771 41.0099
19766 2 15.4274 27.0914 39.7444
20009 2 12.6987 28.6834 39.7148
13924 1 17.2387 27.1638 41.0358
19764 2 18.155 28.6834 39.7148
13926 1 19.9622 28.7709 41.01
19478 2 20.8836 27.0914 39.7444
14519 1 0.85953 30.3827 40.9837
20212 2 1.7856 31.8693 39.6461
14521 1 3.57973 32.0037 40.9544
20142 2 4.51441 30.2758 39.6821
14377 1 9.036 32.0037 40.9544
14379 1 6.31577 30.3827 40.9837
20144 2 7.24187 31.8693 39.6462
14183 1 11.772 30.3827 40.9836
19980 2 9.9707 30.2759 39.6821
14185 1 14.4922 32.0037 40.9544
19765 2 15.4269 30.2759 39.6821
19978 2 12.698 31.8693 39.6461
13887 1 17.2282 30.3827 40.9836
19767 2 18.1542 31.8693 39.6461
13885 1 19.9484 32.0037 40.9544
19447 2 20.8831 30.2759 39.6821
14508 1 0.838618 33.6317 40.9235
20213 2 1.78007 35.0726 39.5605
14506 1 3.5457 35.2827 40.8925
20127 2 4.51296 33.4688 39.6048
14378 1 6.29484 33.6317 40.9235
14380 1 9.00194 35.2827 40.8925
20125 2 7.23627 35.0726 39.5604
14148 1 11.7511 33.6317 40.9235
19979 2 9.96916 33.4687 39.6049
14146 1 14.4582 35.2827 40.8925
19727 2 15.4254 33.4687 39.6049
19981 2 12.6925 35.0726 39.5604
13886 1 17.2073 33.6317 40.9235
19725 2 18.1488 35.0726 39.5605
13888 1 19.9144 35.2827 40.8925
19446 2 20.8817 33.4688 39.6048
14507 1 0.799597 36.9394 40.8457
20208 2 1.73524 38.3471 39.4234
20126 2 4.50207 36.7011 39.5004
14355 1 6.25588 36.9393 40.8456
20128 2 7.19145 38.3471 39.4234
14147 1 11.7121 36.9394 40.8457
19952 2 9.95831 36.7011 39.5004
19726 2 15.4145 36.7011 39.5005
19950 2 12.6476 38.3471 39.4234
13842 1 17.1683 36.9394 40.8457
19728 2 18.1039 38.3471 39.4234
19407 2 20.8707 36.701 39.5005
14496 1 0.827791 40.1841 40.5509
14509 1 3.55415 38.5963 40.6802
20111 2 4.3471 40.237 39.3762
14353 1 9.01039 38.5962 40.6802
14354 1 6.28404 40.1841 40.5509
14112 1 11.7403 40.1841 40.5508
19951 2 9.80335 40.2369 39.3763
14149 1 14.4666 38.5962 40.6802
19687 2 15.2596 40.237 39.3762
13841 1 17.1965 40.1841 40.5508
13840 1 19.9229 38.5963 40.6803
19406 2 20.7158 40.237 39.3761
20209 2 1.56581 42.0211 39.4155
14495 1 0.676201 43.611 40.7254
14494 1 3.47429 41.9132 40.6342
20110 2 4.25461 43.712 39.4574
14332 1 6.13244 43.611 40.7254
20109 2 7.02204 42.021 39.4156
14356 1 8.93049 41.9131 40.6342
19953 2 12.4782 42.021 39.4157
14111 1 11.5886 43.611 40.7254
19924 2 9.71086 43.712 39.4573
14110 1 14.3867 41.9131 40.6341
19686 2 15.1672 43.712 39.4575
19685 2 17.9344 42.0212 39.4156
13796 1 17.0449 43.611 40.7254
13843 1 19.8429 41.9132 40.6341
19360 2 20.6234 43.7119 39.4576
14488 1 0.640637 46.9822 40.7614
20204 2 1.50969 45.3464 39.4802
14497 1 3.37084 45.3043 40.7658
20096 2 4.23034 46.984 39.4918
14331 1 6.09686 46.9823 40.7615
14330 1 8.82716 45.3043 40.7658
20112 2 6.96577 45.3462 39.4804
14080 1 11.5531 46.9822 40.7614
19923 2 9.68659 46.9841 39.4918
19922 2 12.422 45.3462 39.4804
14113 1 14.2834 45.3043 40.7658
19648 2 15.1428 46.9839 39.4919
13795 1 17.0094 46.9822 40.7614
19688 2 17.8784 45.3465 39.4802
13794 1 19.7396 45.3043 40.7658
19359 2 20.599 46.9838 39.4919
14487 1 0.677506 50.3428 40.7287
20205 2 1.51165 48.6257 39.4786
14486 1 3.37585 48.6621 40.7576
20095 2 4.25976 50.2692 39.4577
14313 1 6.13372 50.3427 40.7288
14333 1 8.83205 48.6621 40.7575
20094 2 6.96804 48.6255 39.4785
14079 1 11.59 50.3428 40.7288
19897 2 9.71603 50.2692 39.4577
19925 2 12.4244 48.6256 39.4784
14078 1 14.2883 48.6621 40.7575
19647 2 15.1722 50.2692 39.4577
13753 1 17.0463 50.3428 40.7287
19646 2 17.8804 48.6257 39.4786
13797 1 19.7446 48.6621 40.7575
19312 2 20.6284 50.2692 39.4577
14563 1 1.81049 0.084225 43.9396
20194 2 2.71714 1.66064 42.6416
14462 1 4.53757 1.67897 43.9241
20193 2 5.4463 0.0669382 42.6571
14472 1 7.26672 0.0842269 43.9396
20063 2 8.17337 1.66064 42.6416
14275 1 9.99381 1.67897 43.9241
20069 2 10.9025 0.0669377 42.6571
13987 1 15.45 1.67897 43.9241
14274 1 12.723 0.084226 43.9396
19842 2 13.6296 1.66063 42.6416
13995 1 18.1792 0.0842242 43.9396
19841 2 16.3588 0.0669392 42.6571
20230 2 21.815 0.0669398 42.6571
13632 1 20.9063 1.67897 43.9241
19525 2 19.0859 1.66062 42.6416
14564 1 1.80834 3.27375 43.9078
20186 2 2.71508 4.84829 42.6085
14461 1 4.53528 4.86888 43.8907
20195 2 5.4442 3.25446 42.6254
14460 1 7.26458 3.27376 43.9078
20062 2 8.17132 4.84827 42.6085
14263 1 9.99151 4.86888 43.8907
20061 2 10.9004 3.25447 42.6254
13986 1 15.4478 4.86889 43.8907
14276 1 12.7208 3.27376 43.9078
19834 2 13.6276 4.84829 42.6085
13985 1 18.1771 3.27375 43.9078
19843 2 16.3567 3.25446 42.6254
20226 2 21.8129 3.25445 42.6254
13631 1 20.904 4.86889 43.8907
19524 2 19.0838 4.84831 42.6085
14552 1 1.80597 6.46406 43.8731
20185 2 2.71275 8.03645 42.5729
14446 1 4.53294 8.05962 43.8548
20184 2 5.44206 6.44231 42.5911
14463 1 7.26222 6.46406 43.8731
20051 2 8.16899 8.03647 42.5729
14262 1 9.98917 8.05962 43.8548
20064 2 10.8983 6.44232 42.591
13973 1 15.4454 8.05962 43.8549
14261 1 12.7185 6.46407 43.8731
19833 2 13.6252 8.03648 42.5729
13988 1 18.1747 6.46407 43.8731
19832 2 16.3545 6.44231 42.591
20227 2 21.8108 6.4423 42.5911
13630 1 20.9017 8.05963 43.8548
19517 2 19.0814 8.03645 42.5729
14553 1 1.80353 9.65541 43.836
20171 2 2.71031 11.2254 42.5347
14445 1 4.53021 11.2515 43.8165
20187 2 5.43964 9.63081 42.5541
14444 1 7.25978 9.65539 43.836
20050 2 8.16653 11.2254 42.5347
14243 1 9.98645 11.2515 43.8165
20049 2 10.8959 9.63081 42.5541
13972 1 15.4427 11.2514 43.8165
14264 1 12.716 9.65539 43.836
19818 2 13.6228 11.2253 42.5347
13971 1 18.1722 9.65541 43.836
19835 2 16.3522 9.63079 42.5542
20222 2 21.8084 9.63079 42.5541
13623 1 20.8989 11.2514 43.8165
19516 2 19.079 11.2253 42.5347
14540 1 1.80054 12.8482 43.7964
20170 2 2.70738 14.4151 42.4939
14423 1 4.52701 14.4451 43.7756
20169 2 5.43708 12.8201 42.5146
14447 1 7.25677 12.8482 43.7964
20031 2 8.16363 14.4151 42.4939
14242 1 9.98323 14.4451 43.7756
20052 2 10.8933 12.82 42.5146
13951 1 15.4395 14.4451 43.7756
14241 1 12.713 12.8482 43.7964
19817 2 13.6199 14.4151 42.4939
13974 1 18.1693 12.8482 43.7964
19816 2 16.3495 12.8201 42.5145
20223 2 21.8058 12.8201 42.5145
13622 1 20.8957 14.4451 43.7756
19501 2 19.0761 14.4151 42.4939
14541 1 1.79728 16.0428 43.754
20155 2 2.70449 17.6061 42.4504
14422 1 4.52362 17.6412 43.7318
20172 2 5.43402 16.0104 42.4725
14421 1 7.25353 16.0429 43.754
20030 2 8.16074 17.6062 42.4504
14215 1 9.97986 17.6412 43.7318
20029 2 10.8902 16.0104 42.4725
13950 1 15.4361 17.6412 43.7318
14244 1 12.7097 16.0429 43.7541
19794 2 13.617 17.6062 42.4504
13949 1 18.166 16.0429 43.754
19819 2 16.3465 16.0104 42.4725
20218 2 21.8028 16.0104 42.4725
13607 1 20.8923 17.6412 43.7318
19500 2 19.0732 17.6062 42.4504
14528 1 1.79374 19.2406 43.709
20153 2 5.43118 19.2025 42.4277
14424 1 7.24998 19.2406 43.709
20032 2 10.8874 19.2025 42.4277
14213 1 12.7062 19.2406 43.709
13952 1 18.1625 19.2406 43.709
19792 2 16.3436 19.2025 42.4277
20219 2 21.7999 19.2025 42.4277
20154 2 2.70167 20.7994 42.4041
14529 1 1.79001 22.4444 43.6612
14399 1 4.52022 20.8417 43.6855
20156 2 5.4285 22.3975 42.3795
20004 2 8.1579 20.7994 42.4041
14397 1 7.24624 22.4444 43.6612
14214 1 9.97647 20.8417 43.6855
20002 2 10.8847 22.3975 42.3795
19793 2 13.6142 20.7994 42.4041
13921 1 15.4327 20.8418 43.6855
14216 1 12.7025 22.4444 43.6612
13919 1 18.1587 22.4444 43.6612
19795 2 16.341 22.3975 42.3795
19477 2 19.0704 20.7994 42.4041
13606 1 20.8889 20.8417 43.6855
20214 2 21.7972 22.3975 42.3795
14516 1 1.78555 25.6571 43.6092
20139 2 2.69909 23.9961 42.3537
14398 1 4.51597 24.0494 43.6358
20137 2 5.42596 25.5963 42.3262
14400 1 7.2418 25.6571 43.6092
20003 2 8.15531 23.9961 42.3537
14180 1 9.97224 24.0494 43.6358
20005 2 10.8822 25.5964 42.3262
13920 1 15.4285 24.0494 43.6358
14178 1 12.698 25.657 43.6092
19762 2 13.6116 23.9961 42.3538
13922 1 18.1543 25.657 43.6092
19760 2 16.3385 25.5964 42.3263
20215 2 21.7947 25.5963 42.3262
13583 1 20.8847 24.0494 43.6358
19476 2 19.0678 23.9961 42.3538
14517 1 1.7786 28.8847 43.5502
20138 2 2.69643 27.198 42.2969
14375 1 4.51026 27.2686 43.5807
20140 2 5.42302 28.8018 42.2648
14373 1 7.23483 28.8847 43.5502
19976 2 8.15269 27.198 42.2969
14179 1 9.96651 27.2686 43.5807
19974 2 10.8793 28.8018 42.2648
13883 1 15.4228 27.2686 43.5807
14181 1 12.6911 28.8847 43.5502
19761 2 13.6089 27.198 42.2968
13881 1 18.1473 28.8846 43.5502
19763 2 16.3355 28.8018 42.2648
20210 2 21.7917 28.8018 42.2648
13582 1 20.879 27.2686 43.5807
19445 2 19.0651 27.198 42.2968
14504 1 1.76709 32.1353 43.4801
20123 2 2.69301 30.4095 42.2297
14374 1 4.50147 30.5061 43.5168
20121 2 5.41826 32.0219 42.1905
14376 1 7.22332 32.1353 43.4801
19975 2 8.14922 30.4096 42.2297
14144 1 9.95769 30.5061 43.5168
19977 2 10.8745 32.022 42.1904
13882 1 15.4139 30.5061 43.5168
14142 1 12.6796 32.1353 43.4801
19723 2 13.6056 30.4095 42.2297
13884 1 18.1358 32.1353 43.4801
19721 2 16.3307 32.022 42.1904
20211 2 21.7869 32.0219 42.1905
13551 1 20.8702 30.5062 43.5168
19444 2 19.0618 30.4095 42.2297
14505 1 1.75972 35.4163 43.3751
20122 2 2.6852 33.6428 42.1464
14351 1 4.48978 33.7722 43.4374
20124 2 5.4036 35.2765 42.0939
14349 1 7.21599 35.4162 43.3751
19948 2 8.1415 33.6427 42.1464
14143 1 9.94602 33.7721 43.4374
19946 2 10.8599 35.2764 42.094
13838 1 15.4022 33.7722 43.4374
14145 1 12.6722 35.4162 43.3751
19722 2 13.5977 33.6427 42.1463
13836 1 18.1284 35.4163 43.3751
19724 2 16.3162 35.2764 42.094
20206 2 21.7723 35.2765 42.0939
13550 1 20.8585 33.7722 43.4374
19405 2 19.0539 33.6427 42.1464
20107 2 2.6576 36.9438 42.0338
14350 1 4.48047 37.0634 43.2981
19947 2 8.11384 36.9439 42.0338
14108 1 9.93677 37.0634 43.298
13837 1 15.393 37.0634 43.298
19683 2 13.5701 36.9439 42.0337
13511 1 20.8492 37.0634 43.298
19404 2 19.0263 36.9439 42.0337
14492 1 1.72693 38.7026 43.2496
20106 2 2.59499 40.2881 41.9347
20105 2 5.35901 38.6248 41.9637
14328 1 4.42994 40.3367 43.2149
14352 1 7.18314 38.7026 43.2497
19920 2 8.05116 40.2881 41.9347
19949 2 10.8152 38.6249 41.9637
14107 1 9.8862 40.3367 43.215
14106 1 12.6394 38.7026 43.2496
13792 1 15.3424 40.3368 43.215
19682 2 13.5073 40.2881 41.9348
13839 1 18.0956 38.7026 43.2496
19681 2 16.2714 38.6249 41.9637
20207 2 21.7277 38.6248 41.9637
13510 1 20.7987 40.3368 43.2149
19358 2 18.9636 40.2881 41.9348
14493 1 1.68242 41.9619 43.1889
20092 2 2.52921 43.6499 41.9727
20108 2 5.28419 41.9663 41.9411
14327 1 4.39942 43.6227 43.2039
14326 1 7.13866 41.9618 43.1889
19919 2 7.98548 43.65 41.9726
19918 2 10.7405 41.9662 41.9411
14076 1 9.85565 43.6226 43.2038
14109 1 12.5949 41.9619 43.1889
13791 1 15.3119 43.6226 43.2038
19644 2 13.4417 43.6499 41.9725
19684 2 16.1967 41.9662 41.9411
13790 1 18.0512 41.9619 43.1889
20202 2 21.6529 41.9663 41.9412
13465 1 20.7681 43.6227 43.2038
19357 2 18.8979 43.6499 41.9726
14484 1 1.65184 45.2984 43.2362
20091 2 2.50791 46.99 42.0004
14312 1 4.36962 46.9819 43.2544
20090 2 5.24223 45.3273 41.9933
14329 1 7.1081 45.2984 43.2363
19896 2 7.9641 46.99 42.0005
14075 1 9.82585 46.982 43.2545
19921 2 10.6985 45.3273 41.9933
13752 1 15.2821 46.9819 43.2545
14074 1 12.5644 45.2984 43.2363
19643 2 13.4204 46.9899 42.0004
13793 1 18.0206 45.2984 43.2362
19642 2 16.1547 45.3273 41.9934
20203 2 21.6109 45.3273 41.9933
13464 1 20.7383 46.9819 43.2544
19311 2 18.8767 46.99 42.0003
14485 1 1.64838 48.6614 43.2432
20081 2 2.53144 50.3221 41.9763
14311 1 4.39406 50.3354 43.2182
20093 2 5.24295 48.6501 41.9937
14310 1 7.10457 48.6615 43.2432
19895 2 7.98762 50.3221 41.9763
14049 1 9.85031 50.3353 43.2183
19894 2 10.6992 48.6501 41.9937
13751 1 15.3066 50.3354 43.2182
14077 1 12.5608 48.6614 43.2432
19609 2 13.4439 50.3222 41.9764
13750 1 18.0171 48.6614 43.2432
19645 2 16.1554 48.6501 41.9936
20201 2 21.6116 48.6501 41.9936
13419 1 20.7628 50.3355 43.2181
19310 2 18.9002 50.3221 41.9763
20182 2 0.903046 1.69699 45.2024
14458 1 2.72392 1.71536 46.484
20192 2 3.6322 0.101254 45.2182
14457 1 5.45306 0.1186 46.4999
20058 2 9.08845 0.101256 45.2182
20059 2 6.35928 1.69699 45.2024
14259 1 8.18015 1.71537 46.484
19830 2 11.8155 1.69698 45.2024
14273 1 10.9093 0.118601 46.4999
19840 2 14.5447 0.101243 45.2182
13983 1 13.6364 1.71536 46.484
19522 2 17.2718 1.69698 45.2024
13982 1 16.3655 0.118593 46.4999
14562 1 21.8218 0.118592 46.4999
19521 2 20.0009 0.101242 45.2182
13629 1 19.0926 1.71536 46.484
20181 2 0.900914 4.88894 45.1687
14442 1 2.72169 4.90952 46.4499
20180 2 3.63006 3.29287 45.1859
14459 1 5.45094 3.31224 46.4674
20047 2 6.35716 4.88893 45.1687
20060 2 9.08628 3.29288 45.1859
14258 1 8.17793 4.90952 46.4499
19829 2 11.8134 4.88895 45.1687
14257 1 10.9072 3.31224 46.4674
19828 2 14.5425 3.29288 45.1859
13969 1 13.6342 4.90953 46.4499
19514 2 17.2696 4.88896 45.1687
13984 1 16.3634 3.31225 46.4674
14550 1 21.8197 3.31225 46.4674
19523 2 19.9988 3.29287 45.1859
13628 1 19.0904 4.90954 46.4499
20167 2 0.898567 8.0818 45.1322
14441 1 2.7194 8.1049 46.4129
20183 2 3.62795 6.48523 45.1508
14440 1 5.44866 6.50701 46.4317
20045 2 9.08419 6.48525 45.1507
20046 2 6.35484 8.0818 45.1321
14239 1 8.17565 8.10489 46.4128
19814 2 11.8111 8.08179 45.1322
14260 1 10.9049 6.50702 46.4317
19831 2 14.5404 6.48527 45.1507
13968 1 13.6319 8.1049 46.4128
19513 2 17.2673 8.08179 45.1322
13967 1 16.3611 6.50704 46.4317
14551 1 21.8174 6.50703 46.4317
19512 2 19.9967 6.48526 45.1507
13621 1 19.0881 8.10491 46.4128
20166 2 0.896102 11.276 45.0929
14419 1 2.71682 11.302 46.3731
20165 2 3.62546 9.67874 45.1128
14443 1 5.44632 9.70321 46.3933
20027 2 6.3523 11.276 45.0929
20048 2 9.08171 9.67872 45.1128
14238 1 8.17306 11.302 46.3731
19813 2 11.8086 11.276 45.0928
14237 1 10.9026 9.70319 46.3933
19812 2 14.538 9.6787 45.1129
13947 1 13.6293 11.3019 46.3731
19498 2 17.2648 11.276 45.0928
13970 1 16.3588 9.70318 46.3933
14538 1 21.815 9.7032 46.3933
19515 2 19.9942 9.67872 45.1129
13620 1 19.0855 11.3019 46.3731
20151 2 0.893337 14.472 45.0505
14418 1 2.71378 14.5018 46.3304
20168 2 3.62289 12.8737 45.0721
14417 1 5.44349 12.9017 46.3521
20025 2 9.07915 12.8737 45.0721
20026 2 6.34956 14.472 45.0505
14211 1 8.17 14.5019 46.3304
19790 2 11.8058 14.472 45.0506
14240 1 10.8997 12.9017 46.3521
19815 2 14.5353 12.8737 45.0721
13946 1 13.6262 14.5019 46.3304
19497 2 17.2621 14.472 45.0506
13945 1 16.356 12.9017 46.3522
14539 1 21.8122 12.9016 46.3522
19496 2 19.9915 12.8737 45.0721
13605 1 19.0825 14.5018 46.3304
20150 2 0.890372 17.6705 45.0052
14395 1 2.71069 17.7051 46.2844
20149 2 3.61993 16.0708 45.0283
14420 1 5.44029 16.103 46.3078
20000 2 6.34663 17.6705 45.0052
20028 2 9.07617 16.0708 45.0283
14210 1 8.16692 17.7051 46.2844
19789 2 11.8028 17.6704 45.0052
14209 1 10.8965 16.103 46.3078
19788 2 14.5324 16.0708 45.0283
13917 1 13.6232 17.7051 46.2844
19474 2 17.259 17.6704 45.0052
13948 1 16.3527 16.103 46.3078
14526 1 21.809 16.103 46.3078
19499 2 19.9886 16.0708 45.0284
13604 1 19.0794 17.7051 46.2844
20152 2 3.61717 19.2711 44.9812
14393 1 5.43722 19.3086 46.26
19998 2 9.07341 19.2711 44.9812
14212 1 10.8934 19.3086 46.26
19791 2 14.5297 19.2711 44.9812
13915 1 16.3497 19.3086 46.26
19472 2 19.9859 19.2711 44.9811
14527 1 21.8059 19.3086 46.26
20135 2 0.887689 20.8727 44.9562
14394 1 2.70754 20.9139 46.2346
20133 2 3.6145 22.4758 44.9299
14396 1 5.43413 22.5212 46.2079
19999 2 6.34392 20.8727 44.9562
20001 2 9.07074 22.4758 44.9299
14176 1 8.16376 20.9139 46.2345
19758 2 11.8002 20.8727 44.9562
14174 1 10.8904 22.5212 46.2079
19756 2 14.527 22.4758 44.9298
13916 1 13.62 20.9139 46.2345
19473 2 17.2564 20.8727 44.9561
13918 1 16.3466 22.5212 46.2079
19475 2 19.9832 22.4758 44.9298
14514 1 21.8028 22.5212 46.2079
13581 1 19.0762 20.914 46.2345
20134 2 0.885029 24.0807 44.9021
14371 1 2.70428 24.131 46.1797
20136 2 3.61177 25.6876 44.8724
14369 1 5.43028 25.7438 46.1499
19970 2 9.06801 25.6876 44.8724
19972 2 6.34129 24.0807 44.902
14175 1 8.16053 24.131 46.1797
19757 2 11.7975 24.0807 44.902
14177 1 10.8865 25.7438 46.1499
19759 2 14.5243 25.6876 44.8724
13879 1 13.6168 24.131 46.1797
19442 2 17.2537 24.0807 44.9021
13877 1 16.3428 25.7438 46.1499
19440 2 19.9805 25.6876 44.8725
14515 1 21.799 25.7438 46.1499
13580 1 19.073 24.131 46.1797
20119 2 0.881944 27.297 44.8405
14370 1 2.69997 27.36 46.1177
20117 2 3.60797 28.9098 44.806
14372 1 5.42483 28.9806 46.0829
19971 2 6.33822 27.297 44.8405
19973 2 9.06419 28.9098 44.806
14140 1 8.15621 27.3601 46.1177
19719 2 11.7945 27.297 44.8405
14138 1 10.8811 28.9806 46.0829
19717 2 14.5204 28.9098 44.806
13878 1 13.6125 27.36 46.1177
19441 2 17.2507 27.297 44.8405
13880 1 16.3373 28.9806 46.0829
19443 2 19.9767 28.9098 44.806
14502 1 21.7935 28.9805 46.0829
13549 1 19.0687 27.36 46.1177
20118 2 0.877091 30.5268 44.7678
14347 1 2.69385 30.6052 46.0444
20099 2 1.78848 32.2499 47.2613
20120 2 3.60133 32.1497 44.7256
14345 1 5.41885 32.2348 46.0008
19939 2 4.52095 30.6242 47.3038
19942 2 9.05758 32.1497 44.7256
19944 2 6.33328 30.5267 44.7677
14139 1 8.15008 30.6052 46.0444
19941 2 7.24478 32.2498 47.2613
19718 2 11.7895 30.5267 44.7678
14141 1 10.8751 32.2348 46.0008
19675 2 9.97718 30.6241 47.3038
19720 2 14.5138 32.1497 44.7256
13834 1 13.6063 30.6052 46.0444
19397 2 15.4334 30.6241 47.3038
19673 2 12.701 32.2499 47.2612
19402 2 17.2458 30.5267 44.7678
13832 1 16.3313 32.2349 46.0008
19399 2 18.1572 32.2499 47.2613
19400 2 19.97 32.1497 44.7256
14503 1 21.7876 32.2348 46.0008
13548 1 19.0626 30.6052 46.0444
19063 2 20.8897 30.6242 47.3038
20103 2 0.867125 33.7814 44.6789
14346 1 2.68614 33.868 45.9508
20100 2 1.77333 35.5119 47.1724
20101 2 3.58545 35.4219 44.6272
14348 1 5.40668 35.5033 45.8986
19912 2 4.51016 33.8797 47.2166
19943 2 6.32333 33.7814 44.6789
19945 2 9.04171 35.4218 44.6272
14104 1 8.14238 33.8679 45.9507
19910 2 7.2296 35.5119 47.1724
19679 2 11.7796 33.7815 44.6789
14102 1 10.8629 35.5032 45.8986
19674 2 9.96642 33.8797 47.2166
19677 2 14.4979 35.4219 44.6272
13833 1 13.5986 33.8679 45.9507
19351 2 15.4227 33.8797 47.2166
19676 2 12.6858 35.5119 47.1724
19401 2 17.2358 33.7815 44.6789
13835 1 16.3191 35.5032 45.8985
19349 2 18.142 35.5119 47.1724
19403 2 19.9542 35.4219 44.6272
14490 1 21.7754 35.5033 45.8985
13509 1 19.0549 33.868 45.9508
19062 2 20.8789 33.8796 47.2167
20102 2 0.842208 37.0668 44.5757
14324 1 2.66646 37.1356 45.8506
19911 2 4.49118 37.1447 47.1315
19916 2 6.2984 37.0668 44.5757
14103 1 8.12269 37.1356 45.8507
19678 2 11.7547 37.0668 44.5756
19636 2 9.94741 37.1447 47.1315
13788 1 13.5789 37.1357 45.8507
19350 2 15.4037 37.1448 47.1315
19355 2 17.211 37.0668 44.5756
13508 1 19.0352 37.1357 45.8506
19023 2 20.8599 37.1448 47.1315
20084 2 1.7514 38.7781 47.0972
20088 2 0.804802 40.3575 44.5081
14323 1 2.63668 40.3991 45.784
20104 2 3.55389 38.7111 44.5335
14322 1 5.37968 38.7669 45.8124
19888 2 4.46701 40.4127 47.0717
19914 2 9.01018 38.7111 44.5335
19913 2 7.20768 38.778 47.0971
19915 2 6.26098 40.3574 44.5081
14072 1 8.09294 40.3991 45.784
14105 1 10.836 38.7669 45.8124
19640 2 11.7172 40.3574 44.508
19635 2 9.92328 40.4127 47.0718
19680 2 14.4663 38.7111 44.5335
19634 2 12.6639 38.778 47.0971
13787 1 13.5492 40.3991 45.784
19304 2 15.3796 40.4126 47.0719
13786 1 16.2922 38.7669 45.8125
19352 2 18.1201 38.7781 47.0972
19354 2 17.1735 40.3574 44.508
19353 2 19.9225 38.7111 44.5335
14491 1 21.7484 38.7669 45.8125
13463 1 19.0054 40.3991 45.784
19022 2 20.8358 40.4126 47.0719
20087 2 0.768377 43.6623 44.5012
14308 1 2.61471 43.6756 45.7573
20085 2 1.72772 42.0509 47.0561
20086 2 3.51195 42.0075 44.4979
14325 1 5.35184 42.0354 45.7665
19887 2 4.44663 43.6937 47.0478
19892 2 6.22462 43.6623 44.5013
19917 2 8.96821 42.0075 44.4979
14071 1 8.07095 43.6757 45.7573
19886 2 7.18398 42.051 47.0562
19639 2 11.6808 43.6623 44.5013
14070 1 10.808 42.0353 45.7665
19604 2 9.90289 43.6937 47.0479
19638 2 14.4246 42.0075 44.4978
13748 1 13.5272 43.6757 45.7573
19303 2 15.3592 43.6938 47.0478
19637 2 12.6401 42.0509 47.0562
19308 2 17.137 43.6623 44.5012
13789 1 16.2643 42.0354 45.7664
19302 2 18.0963 42.0509 47.0562
19356 2 19.8808 42.0075 44.4979
14482 1 21.7206 42.0354 45.7665
13462 1 18.9834 43.6756 45.7573
18979 2 20.8154 43.6938 47.0478
20080 2 0.758248 46.9901 44.5128
14307 1 2.60983 46.985 45.7598
20076 2 1.71315 45.3414 47.0447
20089 2 3.48829 45.3243 44.5085
14306 1 5.33851 45.3281 45.7578
19872 2 4.43957 46.9925 47.0448
19891 2 6.21452 46.9901 44.5128
19890 2 8.94459 45.3243 44.5085
14048 1 8.06608 46.9849 45.7598
19889 2 7.16946 45.3414 47.0447
19608 2 11.6707 46.9901 44.5128
14073 1 10.7948 45.3281 45.7578
19603 2 9.89578 46.9925 47.0448
19641 2 14.4009 45.3243 44.5086
13747 1 13.5223 46.9849 45.7598
19264 2 15.352 46.9924 47.0447
19602 2 12.6257 45.3415 47.0447
19307 2 17.1269 46.9901 44.5128
13746 1 16.251 45.3281 45.7579
19305 2 18.0819 45.3415 47.0447
19306 2 19.8571 45.3243 44.5086
14483 1 21.7072 45.3281 45.7579
13418 1 18.9786 46.985 45.7598
18978 2 20.8083 46.9924 47.0447
20079 2 0.769481 50.3155 44.506
14297 1 2.614 50.2955 45.7646
20077 2 1.71336 48.6431 47.0466
20078 2 3.48903 48.6553 44.5109
14309 1 5.33884 48.644 45.7616
19871 2 4.44653 50.2905 47.0509
19873 2 6.22573 50.3155 44.5059
19893 2 8.94525 48.6554 44.5109
14047 1 8.07022 50.2955 45.7646
19870 2 7.16952 48.6431 47.0466
19607 2 11.682 50.3155 44.5059
14046 1 10.7951 48.644 45.7616
19577 2 9.90287 50.2906 47.0509
19606 2 14.4015 48.6553 44.5109
13713 1 13.5265 50.2955 45.7646
19263 2 15.3591 50.2906 47.0509
19605 2 12.6257 48.643 47.0467
19265 2 17.1382 50.3155 44.506
13749 1 16.2513 48.6439 45.7615
19262 2 18.0821 48.6431 47.0467
19309 2 19.8577 48.6553 44.5109
14481 1 21.7076 48.644 45.7615
13417 1 18.9827 50.2955 45.7646
18935 2 20.8152 50.2905 47.0509
20178 2 1.81896 0.135657 47.7777
14438 1 0.911157 1.75173 49.0423
20043 2 4.54611 1.73335 47.7616
14456 1 3.64027 0.153 49.0586
20057 2 7.27519 0.135652 47.7776
14254 1 9.0965 0.152997 49.0586
14255 1 6.36739 1.75173 49.0423
19826 2 10.0024 1.73338 47.7615
13965 1 11.8236 1.75174 49.0423
19510 2 15.4586 1.73336 47.7615
19825 2 12.7315 0.135664 47.7776
13981 1 14.5527 0.152997 49.0586
19520 2 18.1877 0.135669 47.7777
13626 1 17.2799 1.75174 49.0423
19144 2 20.9148 1.73333 47.7616
13625 1 20.009 0.153 49.0586
20179 2 1.81694 3.33129 47.7446
14437 1 0.909075 4.95001 49.0072
20042 2 4.54401 4.92944 47.7269
14436 1 3.63823 3.35067 49.0252
20041 2 7.2732 3.33129 47.7446
14235 1 6.36532 4.95001 49.0072
14256 1 9.09447 3.35068 49.0252
19810 2 10.0003 4.92943 47.7269
13964 1 11.8216 4.95003 49.0072
19509 2 15.4565 4.9294 47.7269
19827 2 12.7294 3.33129 47.7446
13963 1 14.5507 3.35069 49.0252
19508 2 18.1856 3.33129 47.7446
13618 1 17.2778 4.95003 49.0072
19143 2 20.9127 4.92941 47.7269
13627 1 20.007 3.35069 49.0252
20163 2 1.81485 6.52794 47.7084
14415 1 0.906973 8.14978 48.9688
20023 2 4.54186 8.12677 47.6892
14439 1 3.63615 6.54969 48.9884
20044 2 7.27108 6.52793 47.7084
14233 1 9.09239 6.54969 48.9884
14234 1 6.36322 8.14977 48.9688
19809 2 9.99811 8.12675 47.6892
13943 1 11.8195 8.14976 48.9688
19494 2 15.4544 8.12677 47.6891
19808 2 12.7273 6.52792 47.7084
13966 1 14.5486 6.54969 48.9884
19511 2 18.1835 6.52793 47.7084
13617 1 17.2757 8.14976 48.9688
19142 2 20.9106 8.12679 47.6891
13616 1 20.0049 6.5497 48.9884
20164 2 1.81259 9.72609 47.6691
14414 1 0.904751 11.3517 48.9272
20022 2 4.53954 11.326 47.6483
14413 1 3.63402 9.7504 48.9484
20021 2 7.26881 9.7261 47.6691
14207 1 6.36098 11.3517 48.9272
14236 1 9.09027 9.75039 48.9484
19786 2 9.99574 11.326 47.6483
13942 1 11.8172 11.3516 48.9272
19493 2 15.452 11.326 47.6482
19811 2 12.7251 9.72609 47.6691
13941 1 14.5465 9.75037 48.9484
19492 2 18.1813 9.72608 47.6691
13602 1 17.2735 11.3516 48.9272
19135 2 20.9083 11.326 47.6482
13619 1 20.0027 9.75038 48.9484
20147 2 1.81015 12.9265 47.6266
14391 1 0.902082 14.5569 48.8822
19991 2 2.72563 14.5816 50.155
20146 2 -0.00135065 12.9779 50.1787
19996 2 4.53697 14.5277 47.6041
14416 1 3.6316 12.9539 48.9052
19990 2 5.45489 12.9779 50.1787
20024 2 7.26642 12.9265 47.6266
14205 1 9.08782 12.9539 48.9052
14206 1 6.35832 14.5569 48.8822
19750 2 8.18188 14.5816 50.155
19785 2 9.99322 14.5277 47.6041
13913 1 11.8145 14.5569 48.8822
19783 2 10.9111 12.9779 50.1788
19470 2 15.4495 14.5277 47.6041
19784 2 12.7227 12.9265 47.6266
13944 1 14.5441 12.9539 48.9052
19465 2 13.6382 14.5816 50.155
19495 2 18.1789 12.9265 47.6266
13601 1 17.2708 14.5569 48.8822
19464 2 16.3674 12.9779 50.1788
19134 2 20.9057 14.5277 47.6041
13600 1 20.0003 12.9539 48.9052
19117 2 19.0944 14.5816 50.155
20148 2 1.80752 16.1297 47.5807
14390 1 0.899339 17.7663 48.8334
19964 2 2.72334 17.792 50.1045
20129 2 -0.0036414 16.1863 50.1303
19995 2 4.53432 17.7327 47.5562
14389 1 3.62878 16.161 48.8583
19993 2 5.4526 16.1863 50.1304
19994 2 7.26372 16.1297 47.5806
14172 1 6.35557 17.7663 48.8334
14208 1 9.08501 16.161 48.8583
19749 2 8.17958 17.792 50.1046
19754 2 9.99056 17.7328 47.5562
13912 1 11.8118 17.7663 48.8335
19748 2 10.9088 16.1863 50.1304
19469 2 15.4468 17.7328 47.5562
19787 2 12.72 16.1297 47.5806
13911 1 14.5413 16.161 48.8583
19434 2 13.6358 17.7921 50.1045
19468 2 18.1762 16.1297 47.5806
13578 1 17.2681 17.7663 48.8335
19467 2 16.365 16.1863 50.1303
19119 2 20.903 17.7327 47.5563
13603 1 19.9975 16.161 48.8583
19116 2 19.0921 17.7921 50.1045
20131 2 1.80496 19.337 47.5307
20130 2 -0.00588262 19.3992 50.0775
14392 1 3.62617 19.373 48.8073
19962 2 5.45035 19.3991 50.0775
19997 2 7.26121 19.337 47.5307
14170 1 9.08242 19.373 48.8073
19751 2 10.9066 19.3992 50.0774
19752 2 12.7175 19.337 47.5307
13914 1 14.5386 19.373 48.8073
19471 2 18.1737 19.337 47.5308
19432 2 16.3628 19.3992 50.0774
13576 1 19.9949 19.373 48.8073
20132 2 1.80262 22.5498 47.4757
14367 1 0.89686 20.9817 48.7799
19963 2 2.72119 21.0078 50.0491
19968 2 4.5319 20.9426 47.5039
14365 1 3.62369 22.5921 48.7509
19965 2 5.44816 22.618 50.0191
19966 2 7.25885 22.5498 47.4757
14171 1 6.3531 20.9816 48.7799
14173 1 9.07993 22.5921 48.7509
19711 2 8.17742 21.0078 50.0491
19753 2 9.98814 20.9426 47.5039
13875 1 11.8093 20.9816 48.7799
19709 2 10.9045 22.618 50.0191
19438 2 15.4444 20.9425 47.5039
19755 2 12.7151 22.5498 47.4758
13873 1 14.5362 22.5921 48.7509
19433 2 13.6336 21.0078 50.0491
19436 2 18.1713 22.5498 47.4757
13577 1 17.2656 20.9817 48.7799
19435 2 16.3607 22.618 50.0191
20113 2 21.8169 22.618 50.0191
19118 2 20.9006 20.9426 47.5039
13579 1 19.9924 22.5921 48.7509
19093 2 19.0899 21.0078 50.0491
20115 2 1.79997 25.7705 47.4139
14366 1 0.894276 24.2047 48.7203
19936 2 2.71894 24.2301 49.9875
19967 2 4.52948 24.1589 47.4458
14368 1 3.62115 25.8201 48.6877
19934 2 5.4457 25.8442 49.954
19969 2 7.25619 25.7705 47.414
14134 1 9.07738 25.8201 48.6877
14136 1 6.35052 24.2047 48.7203
19710 2 8.17517 24.2301 49.9874
19715 2 9.98571 24.1589 47.4458
13874 1 11.8068 24.2047 48.7203
19712 2 10.9019 25.8441 49.954
19437 2 15.4419 24.1589 47.4458
19713 2 12.7125 25.7705 47.414
13876 1 14.5336 25.8201 48.6877
19394 2 13.6314 24.2301 49.9875
19439 2 18.1687 25.7705 47.4139
13546 1 17.263 24.2047 48.7203
19392 2 16.3581 25.8441 49.9541
20114 2 21.8144 25.8441 49.9541
19095 2 20.8982 24.1589 47.4458
13544 1 19.9899 25.8201 48.6877
19092 2 19.0876 24.23 49.9875
20116 2 1.79581 29.0024 47.3434
14343 1 0.891181 27.4382 48.6528
19935 2 2.71567 27.4607 49.9188
19940 2 4.5263 27.3849 47.3801
14341 1 3.61748 29.0594 48.6152
19937 2 5.44147 29.0799 49.8815
19938 2 7.25208 29.0025 47.3434
14135 1 6.34743 27.4382 48.6528
14137 1 9.07371 29.0595 48.6152
19671 2 8.17188 27.4607 49.9187
19714 2 9.98258 27.3849 47.3801
13830 1 11.8037 27.4382 48.6528
19669 2 10.8977 29.0799 49.8815
19398 2 15.4388 27.3849 47.38
19716 2 12.7083 29.0025 47.3434
13828 1 14.53 29.0595 48.6152
19393 2 13.6281 27.4607 49.9188
19396 2 18.1645 29.0024 47.3434
13545 1 17.2599 27.4382 48.6528
19395 2 16.3539 29.0799 49.8815
20097 2 21.8102 29.0799 49.8815
19094 2 20.895 27.3849 47.38
13547 1 19.9862 29.0595 48.6152
19061 2 19.0844 27.4607 49.9188
14342 1 0.886582 30.6837 48.5745
19908 2 2.71014 30.7015 49.8424
14344 1 3.61102 32.3097 48.5313
19906 2 5.43399 32.3254 49.8019
14098 1 9.06728 32.3097 48.5313
14100 1 6.34282 30.6837 48.5745
19670 2 8.16637 30.7015 49.8424
13829 1 11.7991 30.6837 48.5745
19672 2 10.8902 32.3254 49.802
13831 1 14.5235 32.3097 48.5312
19347 2 13.6226 30.7014 49.8424
13506 1 17.2553 30.6837 48.5745
19345 2 16.3465 32.3254 49.8019
20098 2 21.8027 32.3254 49.8019
13504 1 19.9797 32.3097 48.5313
19060 2 19.0789 30.7015 49.8424
14320 1 0.877509 33.9373 48.487
19907 2 2.70027 33.9506 49.7617
14318 1 3.59787 35.5646 48.4442
19909 2 5.42158 35.5768 49.7233
14099 1 6.33375 33.9373 48.487
14101 1 9.05411 35.5646 48.4442
19632 2 8.15651 33.9507 49.7617
13784 1 11.79 33.9373 48.487
19630 2 10.8778 35.5768 49.7233
13782 1 14.5103 35.5646 48.4443
19346 2 13.6128 33.9507 49.7617
13505 1 17.2462 33.9374 48.487
19348 2 16.334 35.5768 49.7233
20082 2 21.7903 35.5768 49.7233
13507 1 19.9666 35.5646 48.4443
19021 2 19.069 33.9506 49.7617
14319 1 0.860449 37.1914 48.4061
19884 2 2.68581 37.2031 49.688
14068 1 6.31671 37.1914 48.4061
19631 2 8.1421 37.2031 49.6881
13783 1 11.773 37.1914 48.4061
19300 2 13.5984 37.2031 49.6881
13460 1 17.2292 37.1914 48.4061
19020 2 19.0546 37.2031 49.688
14304 1 0.841193 40.4472 48.3468
19883 2 2.67002 40.4584 49.633
14321 1 3.5788 38.8187 48.3734
19882 2 5.40603 38.8302 49.6578
14066 1 9.03503 38.8187 48.3734
14067 1 6.29747 40.4473 48.3468
19600 2 8.12628 40.4584 49.6331
19633 2 10.8622 38.8302 49.6578
13744 1 11.7537 40.4473 48.3467
13785 1 14.4913 38.8187 48.3734
19299 2 13.5826 40.4585 49.633
19298 2 16.3184 38.8302 49.6577
13459 1 17.2099 40.4472 48.3467
20083 2 21.7747 38.8302 49.6578
13458 1 19.9475 38.8187 48.3734
18977 2 19.0388 40.4585 49.633
14303 1 0.828603 43.7133 48.3139
19868 2 2.65772 43.7224 49.6027
14302 1 3.56229 42.0785 48.3273
19885 2 5.39133 42.089 49.615
14044 1 6.28487 43.7133 48.3139
14069 1 9.01854 42.0785 48.3273
19599 2 8.11389 43.7223 49.6027
13743 1 11.7411 43.7133 48.3139
19598 2 10.8477 42.089 49.6149
13742 1 14.4748 42.0786 48.3273
19260 2 13.5701 43.7223 49.6028
13415 1 17.1973 43.7133 48.3139
19301 2 16.3039 42.089 49.6149
20074 2 21.76 42.089 49.615
13461 1 19.931 42.0786 48.3273
18976 2 19.0264 43.7223 49.6027
14296 1 0.824433 46.9915 48.3046
19867 2 2.65273 46.9956 49.5939
14305 1 3.55404 45.3508 48.3059
19866 2 5.38225 45.3582 49.5959
14042 1 9.01027 45.3508 48.3059
14043 1 6.28068 46.9915 48.3046
19576 2 8.10901 46.9957 49.5938
13712 1 11.7369 46.9915 48.3045
19601 2 10.8385 45.3583 49.5957
13745 1 14.4665 45.3508 48.3058
19259 2 13.5653 46.9957 49.5939
13414 1 17.1931 46.9915 48.3045
19258 2 16.2948 45.3583 49.5957
20075 2 21.751 45.3583 49.5958
13413 1 19.9228 45.3508 48.3059
18934 2 19.0215 46.9956 49.5939
14295 1 0.827458 50.2707 48.3169
19857 2 2.65705 50.2695 49.6042
14294 1 3.55313 48.632 48.3083
19869 2 5.38207 48.6333 49.5966
14025 1 6.28365 50.2707 48.317
14045 1 9.00942 48.6319 48.3084
19575 2 8.11324 50.2694 49.6042
13711 1 11.7399 50.2707 48.3169
19574 2 10.8382 48.6332 49.5966
13710 1 14.4656 48.632 48.3084
19225 2 13.5695 50.2694 49.6042
13374 1 17.1962 50.2707 48.3169
19261 2 16.2944 48.6332 49.5966
20073 2 21.7507 48.6333 49.5966
13416 1 19.9218 48.632 48.3084
18933 2 19.0258 50.2695 49.6042
20039 2 2.73377 1.76968 50.3191
20177 2 0.00651931 0.170054 50.3357
14434 1 1.82825 0.187393 51.6159
20015 2 0.922107 1.80593 52.8754
20038 2 5.46274 0.17006 50.3357
14231 1 4.55546 1.78801 51.5991
20037 2 3.65102 0.204465 52.8924
19806 2 8.18999 1.76968 50.3192
14253 1 7.2845 0.187408 51.6159
19801 2 9.10725 0.204475 52.8924
19802 2 6.37837 1.80593 52.8754
19824 2 10.919 0.170043 50.3357
13961 1 10.0117 1.78802 51.5992
19486 2 11.8346 1.80594 52.8754
19506 2 13.6462 1.76967 50.3192
13614 1 15.4679 1.78802 51.5992
13960 1 12.7407 0.187407 51.6159
19504 2 14.5635 0.204485 52.8924
19505 2 16.3752 0.170037 50.3357
13624 1 18.197 0.187392 51.6159
19138 2 17.2908 1.80594 52.8754
19141 2 19.1025 1.76968 50.3191
13264 1 20.9242 1.78801 51.5992
19137 2 20.0198 0.204475 52.8925
20019 2 2.73181 4.96975 50.2834
20161 2 0.0046981 3.36957 50.3017
14435 1 1.82638 3.38894 51.5815
20014 2 0.920407 5.00977 52.8384
20040 2 5.46094 3.36956 50.3017
14230 1 4.55356 4.99024 51.5629
20013 2 3.64942 3.40769 52.8574
19805 2 8.18804 4.96976 50.2834
14229 1 7.28262 3.38893 51.5815
19778 2 6.37665 5.00978 52.8384
19803 2 9.10566 3.40769 52.8574
19804 2 10.9172 3.36955 50.3017
13939 1 10.0098 4.99023 51.5629
19485 2 11.8329 5.00977 52.8384
19490 2 13.6443 4.96978 50.2834
13613 1 15.466 4.99025 51.5629
13962 1 12.7389 3.38894 51.5815
19484 2 14.5619 3.40768 52.8574
19507 2 16.3734 3.36957 50.3017
13612 1 18.1951 3.38894 51.5815
19130 2 17.2891 5.00976 52.8384
19140 2 19.1005 4.96978 50.2834
13263 1 20.9223 4.99025 51.5629
19139 2 20.0181 3.40767 52.8574
20018 2 2.72984 8.17133 50.2442
20162 2 0.00266954 6.57032 50.2643
14411 1 1.8245 6.59193 51.5434
19988 2 0.918669 8.21521 52.7977
20017 2 5.45891 6.57032 50.2643
14203 1 4.55169 8.19404 51.5229
20016 2 3.64763 6.61228 52.8185
19782 2 8.18609 8.17136 50.2442
14232 1 7.28074 6.59191 51.5434
19776 2 9.10386 6.61225 52.8185
19777 2 6.37488 8.21522 52.7977
19807 2 10.9152 6.57035 50.2642
13938 1 10.0079 8.19404 51.5229
19462 2 11.8311 8.21522 52.7977
19489 2 13.6423 8.17136 50.2442
13598 1 15.4642 8.19405 51.5229
13937 1 12.737 6.59191 51.5434
19487 2 14.5601 6.61223 52.8185
19488 2 16.3714 6.57034 50.2642
13615 1 18.1932 6.59194 51.5434
19129 2 17.2874 8.21521 52.7977
19133 2 19.0986 8.17133 50.2442
13262 1 20.9204 8.19405 51.5229
19128 2 20.0163 6.61225 52.8185
19992 2 2.72783 11.375 50.2015
20145 2 0.000752393 9.77284 50.2234
14412 1 1.82268 9.79676 51.5016
19987 2 0.916931 11.4229 52.7531
20020 2 5.45699 9.77287 50.2233
14202 1 4.54988 11.4002 51.4793
19986 2 3.64592 9.81872 52.7759
19781 2 8.18407 11.375 50.2015
14201 1 7.27892 9.79676 51.5016
19746 2 6.37317 11.4229 52.7531
19779 2 9.10216 9.81871 52.7759
19780 2 10.9132 9.77289 50.2233
13909 1 10.0061 11.4002 51.4793
19461 2 11.8294 11.4229 52.7531
19466 2 13.6403 11.375 50.2015
13597 1 15.4624 11.4002 51.4793
13940 1 12.7352 9.79676 51.5016
19460 2 14.5584 9.81875 52.7759
19491 2 16.3695 9.77286 50.2234
13596 1 18.1914 9.79676 51.5016
19114 2 17.2857 11.4229 52.7531
19132 2 19.0965 11.375 50.2015
13255 1 20.9186 11.4002 51.4793
19131 2 20.0146 9.81876 52.7759
14387 1 1.82077 13.0046 51.4561
19960 2 0.915142 14.6336 52.7044
14168 1 4.54776 14.6099 51.4318
19989 2 3.64417 13.0278 52.7293
14204 1 7.277 13.0046 51.4561
19744 2 9.10042 13.0278 52.7292
19745 2 6.37138 14.6336 52.7043
13908 1 10.004 14.6099 51.4318
19430 2 11.8276 14.6336 52.7043
13574 1 15.4602 14.6099 51.4318
13907 1 12.7332 13.0046 51.4561
19463 2 14.5567 13.0278 52.7292
13599 1 18.1895 13.0046 51.4561
19113 2 17.2839 14.6336 52.7043
13254 1 20.9165 14.6099 51.4318
19112 2 20.0129 13.0278 52.7293
14388 1 1.81848 16.2163 51.4065
19958 2 3.64231 16.2404 52.6783
14166 1 7.27471 16.2163 51.4065
19747 2 9.09855 16.2404 52.6783
13910 1 12.7309 16.2163 51.4065
19428 2 14.5548 16.2404 52.6783
13572 1 18.1872 16.2163 51.4065
19115 2 20.011 16.2403 52.6783
19959 2 0.913226 17.8482 52.6511
14363 1 1.8163 19.4331 51.3524
14167 1 4.54548 17.8239 51.3801
19961 2 3.64032 19.4573 52.6227
19707 2 6.36946 17.8481 52.651
14169 1 7.27256 19.4331 51.3524
19705 2 9.09654 19.4572 52.6227
13871 1 10.0017 17.8239 51.3801
19429 2 11.8257 17.8481 52.6511
13573 1 15.4579 17.8239 51.3801
13869 1 12.7288 19.4331 51.3523
19431 2 14.5528 19.4573 52.6227
19090 2 17.2819 17.8482 52.6511
13575 1 18.185 19.4331 51.3523
13239 1 20.9142 17.8239 51.3801
19088 2 20.0091 19.4573 52.6227
14364 1 1.81435 22.6564 51.2925
19932 2 0.91125 21.0677 52.5929
14132 1 4.54341 21.0439 51.3232
19930 2 3.63827 22.6797 52.5618
14130 1 7.27057 22.6564 51.2925
19706 2 6.3675 21.0677 52.5929
19708 2 9.09453 22.6797 52.5618
13870 1 9.99965 21.0439 51.3232
19390 2 11.8237 21.0677 52.5929
13542 1 15.4559 21.0439 51.3233
13872 1 12.7268 22.6564 51.2925
19388 2 14.5508 22.6797 52.5618
13540 1 18.1831 22.6564 51.2925
19089 2 17.2799 21.0677 52.5929
13238 1 20.9121 21.0439 51.3232
19091 2 20.007 22.6797 52.5617
14339 1 1.81202 25.8868 51.2259
19931 2 0.908975 24.2932 52.529
14131 1 4.54129 24.2706 51.2601
19933 2 3.63562 25.9083 52.4948
14133 1 7.26826 25.8868 51.2259
19665 2 9.09187 25.9084 52.4948
19667 2 6.36518 24.2932 52.529
13826 1 9.99753 24.2707 51.2601
19389 2 11.8214 24.2932 52.529
13541 1 15.4538 24.2706 51.2602
13824 1 12.7245 25.8868 51.2259
19391 2 14.5481 25.9084 52.4947
13543 1 18.1808 25.8868 51.2259
19058 2 17.2777 24.2932 52.529
13215 1 20.91 24.2706 51.2602
19056 2 20.0043 25.9083 52.4947
14340 1 1.80859 29.125 51.1516
19904 2 0.90556 27.5252 52.4593
14096 1 4.53874 27.505 51.1897
19902 2 3.63127 29.1437 52.4226
14094 1 7.26482 29.125 51.1515
19666 2 6.3618 27.5252 52.4593
19668 2 9.08754 29.1437 52.4225
13825 1 9.99498 27.505 51.1897
19343 2 11.8181 27.5252 52.4593
13502 1 15.4512 27.505 51.1897
13827 1 12.7211 29.125 51.1516
19341 2 14.5437 29.1437 52.4225
13500 1 18.1773 29.125 51.1516
19057 2 17.2743 27.5252 52.4593
13214 1 20.9074 27.505 51.1897
19059 2 20 29.1437 52.4226
14316 1 1.80182 32.3689 51.072
19903 2 0.900043 30.7636 52.3851
14095 1 4.53413 30.7465 51.1121
19905 2 3.62426 32.3842 52.3475
14097 1 7.25807 32.3689 51.072
19626 2 9.0805 32.3842 52.3475
19628 2 6.35629 30.7636 52.3851
13780 1 9.99036 30.7465 51.1121
19342 2 11.8125 30.7636 52.3851
13501 1 15.4466 30.7465 51.1121
13778 1 12.7143 32.369 51.072
19344 2 14.5367 32.3842 52.3475
13503 1 18.1705 32.369 51.072
19018 2 17.2687 30.7636 52.3851
13183 1 20.9028 30.7465 51.1121
19016 2 19.993 32.3842 52.3475
19880 2 0.891572 34.0056 52.3109
14064 1 4.52502 33.9918 51.0327
19627 2 6.34782 34.0056 52.3109
13779 1 9.98126 33.9918 51.0327
19296 2 11.8041 34.0056 52.3109
13456 1 15.4375 33.9919 51.0327
19017 2 17.2603 34.0056 52.3108
13182 1 20.8937 33.9919 51.0327
14317 1 1.79058 35.6147 50.9958
19879 2 0.880682 37.2491 52.2448
19878 2 3.61447 35.6273 52.2764
14063 1 4.51202 37.2376 50.9621
14062 1 7.24686 35.6147 50.9958
19629 2 9.07071 35.6273 52.2764
19596 2 6.33692 37.2492 52.2448
13740 1 9.96825 37.2376 50.9621
19295 2 11.7932 37.2492 52.2448
13781 1 12.7031 35.6147 50.9958
19294 2 14.5269 35.6273 52.2764
13455 1 15.4245 37.2376 50.9621
13454 1 18.1593 35.6147 50.9959
18974 2 17.2494 37.2491 52.2448
19019 2 19.9832 35.6273 52.2765
13147 1 20.8807 37.2376 50.9621
14300 1 1.77712 38.8611 50.9326
19864 2 0.869875 40.4949 52.1937
19881 2 3.60308 38.8718 52.2171
14040 1 4.49923 40.4854 50.9078
14065 1 7.23338 38.8611 50.9326
19594 2 9.05928 38.8718 52.217
19595 2 6.32616 40.4949 52.1938
13739 1 9.95546 40.4854 50.9078
19256 2 11.7824 40.4949 52.1938
13738 1 12.6896 38.861 50.9326
19297 2 14.5155 38.8718 52.217
13411 1 15.4117 40.4854 50.9078
13457 1 18.1458 38.8611 50.9326
18973 2 17.2386 40.495 52.1937
18972 2 19.9718 38.8718 52.2171
13146 1 20.8679 40.4854 50.9078
14301 1 1.76613 42.1112 50.8881
19863 2 0.861509 43.7454 52.1624
14039 1 4.49087 43.7385 50.8736
19862 2 3.59332 42.1193 52.1754
14038 1 7.22239 42.1112 50.8881
19572 2 6.31779 43.7454 52.1624
19597 2 9.0495 42.1193 52.1753
13708 1 9.94708 43.7385 50.8736
19255 2 11.774 43.7453 52.1624
13410 1 15.4033 43.7385 50.8736
13741 1 12.6786 42.1112 50.8881
19254 2 14.5057 42.1193 52.1753
13409 1 18.1349 42.1112 50.8881
18931 2 17.2302 43.7453 52.1624
13111 1 20.8596 43.7385 50.8736
18975 2 19.962 42.1193 52.1754
14292 1 1.76034 45.367 50.8651
19856 2 0.858398 46.9997 52.1521
14024 1 4.48775 46.9966 50.8623
19865 2 3.58739 45.3721 52.1544
14041 1 7.2166 45.367 50.8651
19570 2 9.04364 45.372 52.1544
19571 2 6.31463 46.9997 52.1521
13707 1 9.94402 46.9967 50.8623
19224 2 11.7708 46.9998 52.1521
13373 1 15.4003 46.9966 50.8623
13706 1 12.6729 45.367 50.8652
19257 2 14.4999 45.3721 52.1544
13412 1 18.1291 45.367 50.8651
18930 2 17.2271 46.9998 52.152
13110 1 20.8565 46.9966 50.8623
18929 2 19.9562 45.3721 52.1544
14293 1 1.75989 48.6265 50.8657
19855 2 0.860805 50.2549 52.163
14023 1 4.48995 50.2556 50.8748
19854 2 3.58691 48.6278 52.1547
14022 1 7.21607 48.6266 50.8657
19553 2 6.31711 50.2548 52.163
19573 2 9.04318 48.6278 52.1548
13681 1 9.94619 50.2556 50.8748
19223 2 11.7733 50.2548 52.163
13372 1 15.4024 50.2557 50.8748
13709 1 12.6723 48.6266 50.8657
19222 2 14.4994 48.6278 52.1548
13371 1 18.1286 48.6265 50.8657
18892 2 17.2295 50.2549 52.163
13075 1 20.8587 50.2557 50.8748
18932 2 19.9556 48.6278 52.1548
14227 1 2.74424 1.82418 54.1547
14433 1 0.01693 0.221788 54.172
20011 2 1.83997 0.23886 55.4481
14226 1 5.47317 0.221795 54.172
19774 2 4.56738 1.84207 55.4305
13935 1 8.20047 1.82418 54.1547
19800 2 7.2962 0.238861 55.4481
13959 1 10.9294 0.221798 54.172
19482 2 10.0236 1.84208 55.4305
13610 1 13.6567 1.82419 54.1547
19126 2 15.4798 1.84207 55.4305
19481 2 12.7524 0.238868 55.4481
13609 1 16.3856 0.221792 54.172
19136 2 18.2087 0.238867 55.4481
13261 1 19.113 1.82418 54.1547
18792 2 20.9361 1.84206 55.4305
14199 1 2.74253 5.03005 54.1172
14409 1 0.0152688 3.42693 54.1365
20012 2 1.83855 3.44561 55.4118
14228 1 5.47151 3.42692 54.1365
19773 2 4.56587 5.04944 55.3923
13934 1 8.19877 5.03006 54.1172
19772 2 7.29477 3.44561 55.4119
13933 1 10.9277 3.42693 54.1365
19458 2 10.0221 5.04945 55.3923
13594 1 13.655 5.03007 54.1172
19125 2 15.4784 5.04946 55.3923
19483 2 12.751 3.4456 55.4119
13611 1 16.384 3.42694 54.1365
19124 2 18.2073 3.4456 55.4119
13260 1 19.1112 5.03007 54.1172
18791 2 20.9346 5.04945 55.3923
14198 1 2.74091 8.23759 54.0757
14410 1 0.0135883 6.63359 54.097
19984 2 1.83694 6.65367 55.3716
14197 1 5.46983 6.63359 54.097
19742 2 4.56427 8.25836 55.35
13905 1 8.19715 8.23758 54.0757
19775 2 7.2932 6.65368 55.3717
13936 1 10.9261 6.63359 54.097
19457 2 10.0205 8.25836 55.35
13593 1 13.6534 8.23758 54.0757
19110 2 15.4768 8.25836 55.35
19456 2 12.7494 6.65368 55.3717
13592 1 16.3823 6.63359 54.097
19127 2 18.2056 6.65367 55.3716
13253 1 19.1096 8.23758 54.0757
18790 2 20.933 8.25837 55.35
14164 1 2.73945 11.4475 54.0301
14385 1 0.0120515 9.84217 54.0534
19985 2 1.83544 9.86358 55.3274
14200 1 5.46829 9.84216 54.0534
19741 2 4.56288 11.4695 55.3036
13904 1 8.19568 11.4475 54.0301
19740 2 7.2917 9.86359 55.3273
13903 1 10.9245 9.84215 54.0534
19426 2 10.0191 11.4695 55.3036
13570 1 13.6519 11.4475 54.0301
19109 2 15.4753 11.4694 55.3036
19459 2 12.7479 9.86359 55.3273
13595 1 16.3808 9.84215 54.0534
19108 2 18.2042 9.86357 55.3273
13252 1 19.1082 11.4475 54.0301
18783 2 20.9316 11.4695 55.3036
14163 1 2.73785 14.6607 53.9802
14386 1 0.0105635 13.0536 54.0057
19956 2 1.83406 13.0761 55.2787
14162 1 5.46679 13.0536 54.0057
19703 2 4.56136 14.6834 55.2527
13867 1 8.19408 14.6607 53.9802
19743 2 7.29026 13.076 55.2787
13906 1 10.923 13.0536 54.0057
19425 2 10.0176 14.6834 55.2527
13569 1 13.6503 14.6607 53.9802
19086 2 15.4738 14.6834 55.2527
19424 2 12.7465 13.076 55.2787
13568 1 16.3793 13.0536 54.0057
19111 2 18.2028 13.076 55.2787
13237 1 19.1066 14.6607 53.9802
18782 2 20.9301 14.6834 55.2527
14361 1 0.00881739 16.2687 53.9535
19957 2 1.83245 16.2916 55.2255
14165 1 5.46506 16.2687 53.9535
19701 2 7.2887 16.2916 55.2255
13865 1 10.9213 16.2687 53.9535
19427 2 12.745 16.2917 55.2255
13571 1 16.3775 16.2687 53.9535
19084 2 18.2012 16.2917 55.2255
14128 1 2.73602 17.8779 53.9256
14362 1 0.00699895 19.4885 53.8964
19928 2 1.83066 19.5112 55.1676
19702 2 4.55974 17.9009 55.1971
14126 1 5.46324 19.4885 53.8965
13866 1 8.19226 17.8779 53.9256
19704 2 7.28692 19.5112 55.1676
19386 2 10.016 17.9009 55.1971
13868 1 10.9195 19.4885 53.8965
13538 1 13.6485 17.8779 53.9256
19085 2 15.4722 17.9009 55.1971
19384 2 12.7432 19.5112 55.1675
13536 1 16.3757 19.4885 53.8964
19087 2 18.1994 19.5112 55.1676
13236 1 19.1047 17.8779 53.9256
18767 2 20.9285 17.9009 55.1971
14127 1 2.73425 21.1004 53.8659
14337 1 0.00517077 22.7138 53.8341
19929 2 1.82864 22.7353 55.1049
14129 1 5.4614 22.7138 53.8341
19663 2 4.55784 21.1227 55.1368
13822 1 8.19051 21.1004 53.8659
19661 2 7.28487 22.7354 55.1049
13820 1 10.9176 22.7138 53.8341
19385 2 10.0141 21.1227 55.1368
13537 1 13.6467 21.1004 53.866
19054 2 15.4703 21.1227 55.1368
19387 2 12.7411 22.7353 55.1049
13539 1 16.3739 22.7138 53.8341
19052 2 18.1973 22.7353 55.1049
13213 1 19.103 21.1004 53.866
18766 2 20.9266 21.1227 55.1368
14092 1 2.73231 24.3285 53.8008
14338 1 0.00286915 25.9446 53.7661
19900 2 1.82587 25.964 55.0374
14090 1 5.45911 25.9446 53.7661
19662 2 4.55558 24.3491 55.0716
13821 1 8.18855 24.3285 53.8008
19664 2 7.28213 25.964 55.0374
13823 1 10.9153 25.9446 53.7661
19339 2 10.0118 24.3491 55.0716
13498 1 13.6448 24.3285 53.8008
19053 2 15.468 24.3492 55.0717
19337 2 12.7384 25.964 55.0374
13496 1 16.3716 25.9446 53.7661
19055 2 18.1946 25.964 55.0374
13212 1 19.101 24.3285 53.8008
18743 2 20.9243 24.3492 55.0716
14091 1 2.72935 27.5617 53.73
14314 1 -0.000882094 29.1798 53.6929
19901 2 1.82144 29.1968 54.9668
14093 1 5.45536 29.1798 53.6929
19624 2 4.55198 27.5799 55.0023
13776 1 8.18557 27.5617 53.73
19622 2 7.27763 29.1968 54.9668
13774 1 10.9116 29.1798 53.6929
19338 2 10.0082 27.5799 55.0024
13497 1 13.6418 27.5617 53.73
19014 2 15.4645 27.5799 55.0024
19340 2 12.7339 29.1968 54.9668
13499 1 16.3678 29.1798 53.6929
19012 2 18.1901 29.1968 54.9668
13181 1 19.0981 27.5617 53.73
18742 2 20.9207 27.5799 55.0024
14060 1 2.72423 30.7984 53.6556
19876 2 1.81519 32.4321 54.8962
14058 1 5.44891 32.4175 53.6187
19623 2 4.54657 30.8143 54.9312
13775 1 8.18045 30.7984 53.6556
19625 2 7.27144 32.4322 54.8962
13777 1 10.9052 32.4175 53.6187
19292 2 10.0028 30.8143 54.9312
13452 1 13.6367 30.7984 53.6556
19013 2 15.4591 30.8143 54.9312
19290 2 12.7276 32.4322 54.8962
13450 1 16.3614 32.4175 53.6187
19015 2 18.1839 32.4321 54.8962
14315 1 21.8176 32.4176 53.6187
13180 1 19.0929 30.7984 53.6557
18712 2 20.9153 30.8142 54.9312
14059 1 2.71627 34.0369 53.5831
19592 2 4.53949 34.0501 54.8624
13736 1 8.17249 34.0369 53.5831
19291 2 9.99568 34.0501 54.8625
13451 1 13.6288 34.0369 53.5831
18970 2 15.4519 34.0501 54.8625
13145 1 19.085 34.0369 53.5831
18711 2 20.9082 34.0501 54.8624
19877 2 1.80706 35.6682 54.8309
14036 1 2.70659 37.2757 53.5191
14061 1 5.4397 35.6563 53.5497
19591 2 4.53093 37.2865 54.8019
19590 2 7.26326 35.6681 54.8309
13735 1 8.16281 37.2757 53.519
13734 1 10.8959 35.6563 53.5497
19252 2 9.98725 37.2866 54.8019
19293 2 12.7196 35.6682 54.8309
13407 1 13.6191 37.2757 53.519
18969 2 15.4434 37.2865 54.8019
13453 1 16.3522 35.6563 53.5497
18968 2 18.1759 35.6683 54.8309
14298 1 21.8084 35.6563 53.5497
13144 1 19.0753 37.2757 53.519
18680 2 20.8996 37.2865 54.8019
19860 2 1.79872 38.9052 54.7763
14035 1 2.69749 40.5157 53.4688
14034 1 5.42977 38.8955 53.4919
19568 2 4.52298 40.5239 54.7545
19593 2 7.25492 38.9052 54.7763
13704 1 8.15373 40.5157 53.4688
13737 1 10.886 38.8955 53.4919
19251 2 9.9792 40.5239 54.7545
19250 2 12.7111 38.9052 54.7764
13406 1 13.61 40.5157 53.4688
18927 2 15.4355 40.5239 54.7545
13405 1 16.3422 38.8955 53.4919
18971 2 18.1674 38.9051 54.7765
14299 1 21.7985 38.8955 53.4919
13109 1 19.0662 40.5157 53.4688
18679 2 20.8917 40.524 54.7545
14020 1 2.69129 43.7578 53.4364
19861 2 1.79152 42.1432 54.7372
14037 1 5.42183 42.1365 53.4501
19567 2 4.5173 43.7634 54.7244
13703 1 8.14749 43.7578 53.4364
19566 2 7.24778 42.1432 54.7371
13702 1 10.8781 42.1365 53.4501
19220 2 9.97354 43.7634 54.7245
13369 1 13.6037 43.7578 53.4364
18926 2 15.4297 43.7633 54.7246
19253 2 12.7041 42.1433 54.7371
13408 1 16.3343 42.1364 53.4501
18925 2 18.1603 42.1433 54.7371
14290 1 21.7905 42.1364 53.4501
13108 1 19.06 43.7577 53.4364
18648 2 20.8859 43.7633 54.7245
14019 1 2.68906 47.0017 53.4252
19852 2 1.78751 45.3837 54.7166
14018 1 5.41767 45.3795 53.428
19552 2 4.51497 47.0042 54.7141
13680 1 8.14531 47.0017 53.4252
19569 2 7.24368 45.3837 54.7167
13705 1 10.8739 45.3795 53.428
19219 2 9.97125 47.0043 54.7141
13368 1 13.6016 47.0017 53.4252
18891 2 15.4275 47.0043 54.7142
19218 2 12.6999 45.3836 54.7168
13367 1 16.3301 45.3795 53.428
18928 2 18.1562 45.3837 54.7167
14291 1 21.7864 45.3795 53.428
13074 1 19.0578 47.0017 53.4252
18647 2 20.8837 47.0043 54.7141
14009 1 2.69081 50.246 53.4363
19853 2 1.78721 48.6251 54.7168
14021 1 5.41747 48.624 53.428
19551 2 4.51662 50.2456 54.7242
13679 1 8.14703 50.246 53.4363
19550 2 7.24346 48.6251 54.7167
13678 1 10.8737 48.624 53.428
19193 2 9.97278 50.2457 54.7243
13336 1 13.6033 50.246 53.4363
18890 2 15.429 50.2456 54.7243
19221 2 12.6998 48.6251 54.7167
13370 1 16.3299 48.624 53.428
18889 2 18.156 48.6251 54.7167
14289 1 21.7862 48.624 53.428
13073 1 19.0595 50.246 53.4363
18616 2 20.8853 50.2456 54.7243
14195 1 0.933608 1.8602 56.7093
19770 2 2.75694 1.87807 57.9846
20010 2 0.0294792 0.273239 58.0027
14225 1 3.66242 0.256142 56.7272
19769 2 5.48571 0.273217 58.0028
13930 1 9.11865 0.256153 56.7272
13931 1 6.38984 1.86021 56.7093
19454 2 8.21318 1.87806 57.9847
13590 1 11.8461 1.86023 56.7093
19480 2 10.9419 0.273205 58.0028
13608 1 14.5749 0.256158 56.7271
19122 2 13.6694 1.87807 57.9846
13258 1 17.3023 1.86022 56.7093
19121 2 16.3982 0.273227 58.0028
13257 1 20.0311 0.256147 56.7271
18789 2 19.1257 1.87809 57.9846
14194 1 0.932109 5.06946 56.6705
19738 2 2.75558 5.08868 57.9452
19982 2 0.0281816 3.48323 57.9655
14193 1 3.66098 3.46464 56.6904
19771 2 5.4844 3.48321 57.9655
13901 1 6.38836 5.06945 56.6705
13932 1 9.11723 3.46465 56.6904
19453 2 8.21182 5.08868 57.9452
13589 1 11.8446 5.06946 56.6705
19452 2 10.9406 3.48323 57.9654
13588 1 14.5735 3.46466 56.6904
19106 2 13.6681 5.0887 57.9452
13250 1 17.3008 5.06946 56.6705
19123 2 16.3969 3.48324 57.9654
13259 1 20.0297 3.46465 56.6904
18788 2 19.1243 5.08869 57.9452
14160 1 0.930676 8.28031 56.6274
19737 2 2.75412 8.3007 57.9015
19983 2 0.0267227 6.69446 57.9239
14196 1 3.65949 6.67466 56.6495
19736 2 5.48298 6.69447 57.9239
13899 1 9.11573 6.67465 56.6495
13900 1 6.38692 8.2803 56.6274
19422 2 8.21036 8.3007 57.9015
13566 1 11.8432 8.28029 56.6274
19455 2 10.9392 6.69449 57.9239
13591 1 14.572 6.67465 56.6495
19105 2 13.6666 8.30069 57.9015
13249 1 17.2994 8.2803 56.6274
19104 2 16.3954 6.69447 57.9239
13248 1 20.0282 6.67466 56.6495
18781 2 19.1228 8.30069 57.9016
14159 1 0.929432 11.4933 56.58
19699 2 2.75289 11.5148 57.8534
19954 2 0.0253856 9.90743 57.878
14158 1 3.65814 9.88649 56.6043
19739 2 5.48161 9.90743 57.878
13863 1 6.38566 11.4933 56.58
13902 1 9.11438 9.88648 56.6043
19421 2 8.20916 11.5148 57.8534
13565 1 11.8419 11.4933 56.58
19420 2 10.9378 9.90743 57.878
13564 1 14.5706 9.88648 56.6042
19082 2 13.6654 11.5148 57.8534
13234 1 17.2982 11.4933 56.58
19107 2 16.3941 9.90743 57.878
13251 1 20.0269 9.88649 56.6042
18780 2 19.1216 11.5148 57.8535
14124 1 0.928208 14.7092 56.528
19698 2 2.7516 14.7313 57.8008
19955 2 0.0241446 13.1227 57.8277
14161 1 3.65696 13.1009 56.5546
19697 2 5.48037 13.1227 57.8276
13861 1 9.1132 13.1009 56.5546
13862 1 6.38444 14.7092 56.528
19382 2 8.20782 14.7313 57.8008
13534 1 11.8407 14.7092 56.528
19423 2 10.9366 13.1227 57.8277
13567 1 14.5694 13.1009 56.5546
19081 2 13.664 14.7313 57.8008
13233 1 17.2969 14.7092 56.528
19080 2 16.3929 13.1227 57.8277
13232 1 20.0257 13.1009 56.5546
18765 2 19.1203 14.7313 57.8008
19926 2 0.022761 16.3405 57.7727
14122 1 3.65562 16.3184 56.5003
19700 2 5.47902 16.3406 57.7726
13864 1 9.11185 16.3184 56.5003
19380 2 10.9353 16.3405 57.7727
13532 1 14.5681 16.3184 56.5003
19083 2 16.3915 16.3405 57.7727
13235 1 20.0243 16.3184 56.5003
14123 1 0.926712 17.9286 56.4712
19659 2 2.75015 17.9506 57.7434
19927 2 0.0211308 19.5614 57.713
14125 1 3.65403 19.5398 56.441
19657 2 5.47737 19.5614 57.7131
13818 1 6.38294 17.9286 56.4712
19381 2 8.20637 17.9505 57.7435
13816 1 9.11026 19.5398 56.441
13533 1 11.8392 17.9286 56.4712
19383 2 10.9336 19.5614 57.7131
19050 2 13.6626 17.9505 57.7435
13535 1 14.5665 19.5398 56.441
13210 1 17.2954 17.9286 56.4712
19048 2 16.3898 19.5614 57.713
18764 2 19.1189 17.9505 57.7434
13208 1 20.0227 19.5398 56.441
14088 1 0.92501 21.152 56.4095
19658 2 2.74821 21.1731 57.6817
19898 2 0.0189733 22.7857 57.6494
14086 1 3.65221 22.7652 56.377
19660 2 5.47523 22.7857 57.6494
13817 1 6.38126 21.152 56.4095
13819 1 9.10845 22.7652 56.377
19335 2 8.20445 21.1731 57.6817
13494 1 11.8375 21.152 56.4095
19333 2 10.9314 22.7857 57.6494
13492 1 14.5647 22.7652 56.377
19049 2 13.6607 21.1731 57.6817
13209 1 17.2937 21.152 56.4095
19051 2 16.3877 22.7857 57.6494
13211 1 20.0209 22.7652 56.377
18741 2 19.117 21.1731 57.6817
14087 1 0.922951 24.3795 56.3434
19620 2 2.74594 24.399 57.6161
19899 2 0.0162421 26.013 57.5823
14089 1 3.64972 25.9946 56.3088
19618 2 5.47248 26.013 57.5823
13770 1 9.10596 25.9946 56.3088
13772 1 6.37919 24.3795 56.3434
19334 2 8.2022 24.399 57.6161
13493 1 11.8354 24.3795 56.3434
19336 2 10.9287 26.013 57.5822
13495 1 14.5622 25.9946 56.3088
19010 2 13.6584 24.3991 57.616
13178 1 17.2917 24.3795 56.3434
19008 2 16.385 26.013 57.5822
13176 1 20.0184 25.9946 56.3088
18740 2 19.1146 24.3991 57.6161
14056 1 0.919802 27.6103 56.2737
19619 2 2.7424 27.6274 57.548
19874 2 0.0119036 29.2423 57.5139
14054 1 3.64566 29.2263 56.2383
19621 2 5.46815 29.2423 57.5139
13771 1 6.37606 27.6103 56.2737
13773 1 9.1019 29.2263 56.2383
19288 2 8.19863 27.6274 57.548
13448 1 11.8323 27.6103 56.2737
19286 2 10.9244 29.2423 57.5138
13446 1 14.5582 29.2263 56.2383
19009 2 13.6549 27.6274 57.548
13177 1 17.2885 27.6103 56.2737
19011 2 16.3806 29.2423 57.5139
13179 1 20.0144 29.2263 56.2383
18710 2 19.1111 27.6274 57.548
14055 1 0.914766 30.8425 56.2031
19588 2 2.73731 30.8574 57.4801
19875 2 0.00629575 32.4725 57.4472
14028 1 1.83065 32.4948 58.7206
14057 1 3.63955 32.4588 56.1687
19586 2 5.46252 32.4725 57.4471
13727 1 4.56167 30.881 58.7529
13730 1 9.09578 32.4588 56.1687
13732 1 6.37103 30.8425 56.2031
19287 2 8.19357 30.8574 57.48
13729 1 7.28689 32.4948 58.7206
13447 1 11.8273 30.8425 56.2031
19289 2 10.9188 32.4725 57.4471
13399 1 10.0179 30.881 58.7529
13449 1 14.552 32.4588 56.1687
18966 2 13.6498 30.8574 57.48
13137 1 15.4742 30.881 58.7529
13397 1 12.7432 32.4948 58.7206
13142 1 17.2835 30.8425 56.2031
18964 2 16.375 32.4725 57.4471
13139 1 18.1994 32.4948 58.7206
13140 1 20.0082 32.4588 56.1687
18709 2 19.106 30.8574 57.4801
12904 1 20.9304 30.881 58.7529
14032 1 0.90789 34.0752 56.1358
19587 2 2.73111 34.0877 57.4156
13696 1 4.55563 34.1084 58.6898
13731 1 6.36413 34.0752 56.1358
19248 2 8.18734 34.0877 57.4156
13403 1 11.8204 34.0751 56.1358
13398 1 10.0119 34.1084 58.6898
18965 2 13.6436 34.0877 57.4156
13102 1 15.4681 34.1084 58.6898
13141 1 17.2766 34.0751 56.1358
18678 2 19.0998 34.0877 57.4156
12903 1 20.9243 34.1084 58.6898
19858 2 -0.000364493 35.7028 57.3862
14031 1 0.900087 37.3074 56.0767
19564 2 2.72433 37.3176 57.3595
14029 1 1.82436 35.7218 58.661
14030 1 3.63201 35.6914 56.105
19589 2 5.45584 35.7028 57.3862
13695 1 4.54919 37.3348 58.6348
13733 1 9.08822 35.6914 56.105
13700 1 6.35631 37.3074 56.0767
19247 2 8.18056 37.3176 57.3596
13694 1 7.28059 35.7218 58.661
19246 2 10.9121 35.7027 57.3863
13402 1 11.8126 37.3075 56.0767
13361 1 10.0054 37.3349 58.6348
13401 1 14.5445 35.6914 56.105
18923 2 13.6367 37.3177 57.3595
13400 1 12.7368 35.7218 58.661
13101 1 15.4617 37.3349 58.6348
18967 2 16.3683 35.7027 57.3863
13106 1 17.2688 37.3075 56.0767
13100 1 18.1931 35.7218 58.661
13143 1 20.0007 35.6914 56.105
18677 2 19.093 37.3177 57.3594
12880 1 20.9179 37.3348 58.6348
19859 2 -0.00719742 38.9327 57.3358
14016 1 0.893116 40.5401 56.0302
19563 2 2.71814 40.5477 57.3155
14012 1 1.81823 38.9477 58.6115
14033 1 3.62446 38.9237 56.0516
19562 2 5.44901 38.9327 57.3357
13672 1 4.54352 40.5606 58.5917
13698 1 9.08071 38.9237 56.0516
13699 1 6.34934 40.54 56.0302
19216 2 8.17442 40.5477 57.3155
13697 1 7.27448 38.9477 58.6115
19249 2 10.9053 38.9328 57.3357
13365 1 11.8056 40.54 56.0303
13360 1 9.99975 40.5605 58.5917
13404 1 14.5369 38.9237 56.0516
18922 2 13.6306 40.5477 57.3155
13067 1 15.456 40.5605 58.5918
13359 1 12.7307 38.9477 58.6115
18921 2 16.3616 38.9327 57.3358
13105 1 17.2618 40.54 56.0303
13103 1 18.1869 38.9477 58.6115
13104 1 19.9931 38.9237 56.0516
18646 2 19.0868 40.5477 57.3154
12879 1 20.9122 40.5606 58.5918
14015 1 0.888238 43.773 56.0003
19548 2 2.71375 43.778 57.2874
14013 1 1.81332 42.1732 58.5759
14014 1 3.61848 42.1564 56.0131
19565 2 5.44376 42.1627 57.2993
13671 1 4.53966 43.7858 58.5641
13676 1 6.34452 43.773 56.0003
13701 1 9.0747 42.1565 56.013
19215 2 8.16994 43.7781 57.2874
13670 1 7.26957 42.1732 58.5759
13364 1 11.8008 43.7731 56.0003
19214 2 10.9 42.1627 57.2993
13331 1 9.99589 43.7858 58.5642
13363 1 14.5309 42.1565 56.013
18887 2 13.6262 43.7781 57.2873
13066 1 15.4521 43.7858 58.5641
13362 1 12.7258 42.1732 58.5759
13071 1 17.257 43.7731 56.0003
18924 2 16.3563 42.1627 57.2993
13065 1 18.182 42.1732 58.5759
19850 2 21.8125 42.1627 57.2993
13107 1 19.9872 42.1565 56.0131
18645 2 19.0825 43.778 57.2874
12856 1 20.9084 43.7858 58.5641
14008 1 0.886578 47.0063 55.9898
19547 2 2.71202 47.0089 57.2776
14004 1 1.81054 45.3983 58.557
14017 1 3.61523 45.3896 55.9925
19546 2 5.44074 45.3935 57.2802
13656 1 4.53817 47.0108 58.5544
13674 1 9.07146 45.3896 55.9926
13675 1 6.34283 47.0063 55.9898
19192 2 8.1682 47.0089 57.2776
13673 1 7.26679 45.3983 58.557
13335 1 11.799 47.0063 55.9898
19217 2 10.897 45.3935 57.2802
13330 1 9.99443 47.0108 58.5544
13366 1 14.5277 45.3896 55.9925
18886 2 13.6245 47.0089 57.2776
13039 1 15.4507 47.0108 58.5544
13329 1 12.723 45.3983 58.557
13070 1 17.2553 47.0063 55.9898
18885 2 16.3532 45.3934 57.2802
13068 1 18.1793 45.3983 58.557
19851 2 21.8094 45.3934 57.2802
13069 1 19.9839 45.3896 55.9925
18615 2 19.0807 47.0089 57.2776
12855 1 20.9069 47.0108 58.5544
14007 1 0.887885 50.2399 55.9997
19537 2 2.71338 50.2399 57.2869
14005 1 1.81038 48.6235 58.5566
14006 1 3.61503 48.6232 55.9923
19549 2 5.44059 48.6243 57.2799
13655 1 4.53939 50.2362 58.5634
13657 1 6.34414 50.24 55.9997
13677 1 9.07127 48.6232 55.9923
19191 2 8.1696 50.2399 57.2869
13654 1 7.26662 48.6235 58.5566
13334 1 11.8004 50.24 55.9998
19190 2 10.8968 48.6243 57.2799
13306 1 9.99564 50.2362 58.5634
13333 1 14.5275 48.6232 55.9923
18856 2 13.6258 50.2399 57.2869
13038 1 15.4519 50.2362 58.5633
13332 1 12.7228 48.6235 58.5566
13040 1 17.2566 50.2399 55.9998
18888 2 16.353 48.6244 57.2799
13037 1 18.1791 48.6235 58.5566
19849 2 21.8093 48.6244 57.2799
13072 1 19.9838 48.6232 55.9923
18614 2 19.0821 50.2399 57.2869
12832 1 20.9081 50.2362 58.5633
14191 1 1.85218 0.290466 59.2814
19734 2 0.946935 1.91393 60.5381
13897 1 4.57969 1.89613 59.2631
19768 2 3.67564 0.307527 60.5566
13929 1 7.30841 0.290478 59.2814
19449 2 9.1319 0.307547 60.5566
19450 2 6.40318 1.91396 60.538
13586 1 10.0359 1.89613 59.2631
19102 2 11.8594 1.91396 60.538
13246 1 15.4922 1.89613 59.2631
13585 1 12.7646 0.290471 59.2814
19120 2 14.5881 0.307535 60.5566
13256 1 18.2209 0.290459 59.2814
18786 2 17.3156 1.91394 60.5381
12976 1 20.9484 1.89612 59.2631
18785 2 20.0444 0.307515 60.5566
14192 1 1.85093 3.50212 59.2436
19733 2 0.945695 5.12759 60.4975
13896 1 4.57837 5.10845 59.2231
19732 2 3.67446 3.52064 60.5183
13895 1 7.30717 3.50212 59.2436
19418 2 6.40193 5.12759 60.4975
19451 2 9.13069 3.52064 60.5183
13562 1 10.0346 5.10845 59.2231
19101 2 11.8582 5.12757 60.4976
13245 1 15.4909 5.10846 59.223
13587 1 12.7634 3.50212 59.2436
19100 2 14.5869 3.52062 60.5184
13244 1 18.2196 3.50213 59.2436
18778 2 17.3144 5.12757 60.4976
12975 1 20.9471 5.10847 59.223
18787 2 20.0431 3.52062 60.5184
14156 1 1.84957 6.71515 59.2014
19695 2 0.944331 8.34246 60.4525
13859 1 4.57703 8.32221 59.1786
19735 2 3.67314 6.73486 60.4756
13898 1 7.30581 6.71514 59.2014
19416 2 9.12936 6.73484 60.4756
19417 2 6.40055 8.34244 60.4525
13561 1 10.0333 8.32221 59.1786
19078 2 11.8568 8.34243 60.4526
13230 1 15.4895 8.32222 59.1786
13560 1 12.7621 6.71514 59.2014
19103 2 14.5856 6.73486 60.4756
13247 1 18.2183 6.71515 59.2014
18777 2 17.3131 8.34244 60.4525
12974 1 20.9457 8.32222 59.1786
18776 2 20.0418 6.73488 60.4756
14157 1 1.8483 9.92976 59.1547
19694 2 0.943058 11.5589 60.4031
13858 1 4.57584 11.5379 59.1296
19693 2 3.67177 9.95042 60.4284
13857 1 7.30454 9.92976 59.1547
19378 2 6.39931 11.5588 60.4031
19419 2 9.12801 9.95042 60.4284
13530 1 10.0321 11.5379 59.1296
19077 2 11.8556 11.5589 60.4031
13229 1 15.4883 11.5379 59.1296
13563 1 12.7608 9.92977 59.1547
19076 2 14.5843 9.95044 60.4283
13228 1 18.217 9.92977 59.1547
18762 2 17.3118 11.5589 60.403
12967 1 20.9446 11.5379 59.1296
18779 2 20.0405 9.95044 60.4283
14120 1 1.84722 13.1465 59.1033
19655 2 0.941838 14.7772 60.3491
13814 1 4.57481 14.7558 59.0759
19696 2 3.67057 13.1678 60.3767
13860 1 7.30347 13.1465 59.1033
19376 2 9.12681 13.1678 60.3766
19377 2 6.39808 14.7772 60.3491
13529 1 10.0311 14.7558 59.0759
19046 2 11.8543 14.7773 60.349
13206 1 15.4873 14.7558 59.0759
13528 1 12.7597 13.1465 59.1033
19079 2 14.5831 13.1678 60.3766
13231 1 18.2159 13.1465 59.1033
18761 2 17.3105 14.7773 60.3491
12966 1 20.9435 14.7558 59.0759
18760 2 20.0393 13.1678 60.3766
14121 1 1.84613 16.3657 59.0473
14082 1 0.0364048 16.411 61.5953
19653 2 3.66931 16.3872 60.3203
13811 1 5.49263 16.411 61.5953
13812 1 7.30237 16.3657 59.0473
19379 2 9.12558 16.3872 60.3203
13484 1 10.9489 16.411 61.5953
13531 1 12.7586 16.3657 59.0473
19044 2 14.5818 16.3872 60.3203
13204 1 18.2148 16.3657 59.0473
13203 1 16.4051 16.411 61.5953
18763 2 20.038 16.3872 60.3203
19654 2 0.940474 17.9976 60.2905
14084 1 1.84467 19.5876 58.9867
13764 1 2.76391 18.0217 61.5651
14083 1 0.0350392 19.6328 61.5339
13813 1 4.57358 17.9763 59.0176
19656 2 3.66779 19.6086 60.2596
13762 1 5.49128 19.6328 61.5339
19331 2 6.3967 17.9977 60.2904
13815 1 7.30089 19.5876 58.9867
19329 2 9.12402 19.6085 60.2596
13485 1 8.22015 18.0217 61.5651
13490 1 10.0298 17.9763 59.0176
19045 2 11.8529 17.9977 60.2904
13487 1 10.9475 19.6328 61.5339
13205 1 15.486 17.9763 59.0176
13488 1 12.7571 19.5876 58.9867
19047 2 14.5802 19.6086 60.2597
13170 1 13.6764 18.0217 61.5651
18738 2 17.3092 17.9976 60.2905
13207 1 18.2134 19.5876 58.9867
13168 1 16.4037 19.6328 61.5339
12951 1 20.9423 17.9763 59.0176
18736 2 20.0365 19.6086 60.2597
12948 1 19.1326 18.0217 61.5651
14085 1 1.8427 22.8122 58.9219
19616 2 0.93853 21.2201 60.228
13763 1 2.76227 21.2442 61.5018
14050 1 0.0330528 22.8559 61.4691
13768 1 4.5719 21.1996 58.9548
19614 2 3.66556 22.8321 60.1955
13765 1 5.4893 22.8559 61.4691
13766 1 7.29894 22.8121 58.9219
19330 2 6.39474 21.2201 60.2279
19332 2 9.12177 22.8321 60.1956
13440 1 8.2185 21.2442 61.5018
13489 1 10.0281 21.1996 58.9548
19006 2 11.851 21.2202 60.228
13438 1 10.9455 22.8559 61.4691
13174 1 15.4843 21.1996 58.9547
13491 1 12.7552 22.8121 58.9219
19004 2 14.578 22.8321 60.1956
13169 1 13.6747 21.2442 61.5018
13172 1 18.2114 22.8122 58.9219
18737 2 17.3073 21.2202 60.228
13171 1 16.4018 22.8559 61.4691
12950 1 20.9406 21.1996 58.9548
18739 2 20.0342 22.8321 60.1956
12926 1 19.131 21.2442 61.5018
14052 1 1.84 26.0391 58.8544
19615 2 0.936133 24.4446 60.1625
13724 1 2.75987 24.4679 61.4358
14051 1 0.0302583 26.0799 61.4025
13767 1 4.56963 24.4254 58.8884
19617 2 3.66269 26.0571 60.1293
13722 1 5.4865 26.0799 61.4025
13769 1 7.29624 26.0391 58.8544
19282 2 9.11893 26.0572 60.1293
19284 2 6.39237 24.4445 60.1625
13439 1 8.2161 24.4678 61.4359
13444 1 10.0259 24.4254 58.8884
19005 2 11.8486 24.4445 60.1626
13441 1 10.9427 26.0799 61.4025
13173 1 15.4821 24.4254 58.8884
13442 1 12.7525 26.0391 58.8544
19007 2 14.5752 26.0572 60.1293
13134 1 13.6723 24.4678 61.4359
13175 1 18.2087 26.0391 58.8544
18707 2 17.3048 24.4446 60.1626
13132 1 16.399 26.0799 61.4025
12928 1 20.9384 24.4254 58.8884
18705 2 20.0315 26.0571 60.1293
12925 1 19.1286 24.4678 61.4358
14053 1 1.83608 29.2671 58.7863
19584 2 0.932754 27.6699 60.096
13723 1 2.75655 27.692 61.3692
14026 1 0.026483 29.304 61.3365
13728 1 4.56642 27.6531 58.8202
19582 2 3.65871 29.283 60.063
13725 1 5.48275 29.304 61.3365
13726 1 7.29232 29.2671 58.7863
19283 2 6.38906 27.6699 60.096
19285 2 9.11492 29.2829 60.0631
13395 1 8.21279 27.692 61.3692
13443 1 10.0227 27.6531 58.8202
18962 2 11.8453 27.6699 60.096
13393 1 10.939 29.304 61.3365
13138 1 15.4789 27.6531 58.8202
13445 1 12.7486 29.2671 58.7863
18960 2 14.5712 29.2829 60.0631
13133 1 13.669 27.692 61.3693
13136 1 18.2048 29.2671 58.7863
18706 2 17.3014 27.6699 60.096
13135 1 16.3952 29.304 61.3365
12927 1 20.9351 27.653 58.8202
18708 2 20.0275 29.283 60.063
12902 1 19.1253 27.692 61.3693
19583 2 0.928181 30.8957 60.0308
13692 1 2.75228 30.9157 61.3046
14027 1 0.0217087 32.5271 61.274
19585 2 3.65356 32.5083 59.9997
13690 1 5.47793 32.5271 61.274
19242 2 9.10984 32.5083 59.9997
19244 2 6.38439 30.8956 60.0309
13394 1 8.20851 30.9157 61.3046
18961 2 11.8406 30.8956 60.0309
13396 1 10.9342 32.5271 61.274
18963 2 14.566 32.5084 59.9996
13098 1 13.6648 30.9157 61.3046
18675 2 17.2969 30.8957 60.0308
13096 1 16.3904 32.5272 61.274
18673 2 20.0222 32.5083 59.9997
12901 1 19.121 30.9157 61.3046
19560 2 0.922761 34.1206 59.9701
13691 1 2.74709 34.1382 61.245
19243 2 6.379 34.1207 59.97
13357 1 8.20335 34.1383 61.2449
18919 2 11.8352 34.1207 59.9701
13097 1 13.6596 34.1382 61.2449
18674 2 17.2915 34.1206 59.9702
12878 1 19.1158 34.1382 61.245
14010 1 0.0162675 35.749 61.2179
19559 2 0.916999 37.3447 59.9175
13668 1 2.74173 37.3592 61.1933
19558 2 3.64803 35.7329 59.9425
13693 1 5.4725 35.749 61.2179
19245 2 9.10424 35.7329 59.9425
19212 2 6.37319 37.3447 59.9175
13356 1 8.19798 37.3592 61.1934
13355 1 10.9287 35.749 61.2179
18918 2 11.8295 37.3447 59.9173
18917 2 14.5605 35.7329 59.9425
13063 1 13.6542 37.3592 61.1933
13099 1 16.385 35.749 61.218
18643 2 17.2858 37.3447 59.9174
18676 2 20.0167 35.7329 59.9424
12877 1 19.1105 37.3593 61.1933
19544 2 0.912 40.5681 59.8765
13667 1 2.737 40.5787 61.1532
14011 1 0.0110304 38.9691 61.1717
19561 2 3.6424 38.9565 59.8954
13666 1 5.46725 38.9691 61.1717
19210 2 9.0987 38.9565 59.8954
19211 2 6.36822 40.5681 59.8765
13327 1 8.19325 40.5787 61.1532
18883 2 11.8244 40.5681 59.8765
13358 1 10.9235 38.9691 61.1717
18920 2 14.5549 38.9565 59.8954
13062 1 13.6495 40.5787 61.1532
18642 2 17.2806 40.5681 59.8765
13061 1 16.3797 38.9691 61.1717
18641 2 20.0111 38.9564 59.8954
12854 1 19.1057 40.5787 61.1532
19543 2 0.908368 43.7907 59.8503
13652 1 2.73369 43.7973 61.1276
14002 1 0.00693804 42.1881 61.1385
19542 2 3.63805 42.1793 59.8614
13669 1 5.46315 42.1881 61.1385
19188 2 6.36464 43.7907 59.8503
19213 2 9.09427 42.1793 59.8614
13326 1 8.18992 43.7973 61.1276
18882 2 11.8209 43.7908 59.8503
13325 1 10.9194 42.1881 61.1385
18881 2 14.5505 42.1793 59.8614
13035 1 13.6462 43.7973 61.1276
18612 2 17.2771 43.7907 59.8503
13064 1 16.3757 42.1881 61.1385
18644 2 20.0068 42.1793 59.8614
12853 1 19.1024 43.7973 61.1276
19536 2 0.907033 47.0134 59.8411
13651 1 2.73247 47.0155 61.1184
14003 1 0.00459582 45.4064 61.1209
19545 2 3.6356 45.4021 59.8434
13650 1 5.46083 45.4064 61.1209
19186 2 9.09179 45.4021 59.8434
19187 2 6.36334 47.0134 59.8411
13305 1 8.1887 47.0155 61.1184
18855 2 11.8196 47.0133 59.8411
13328 1 10.9171 45.4064 61.1208
18884 2 14.548 45.4021 59.8435
13034 1 13.6449 47.0155 61.1184
18611 2 17.2758 47.0133 59.8411
13033 1 16.3733 45.4064 61.1208
18610 2 20.0043 45.4021 59.8435
12831 1 19.1012 47.0155 61.1184
19535 2 0.908176 50.2363 59.8494
13641 1 2.73363 50.234 61.1264
14001 1 0.00453165 48.6247 61.1203
19534 2 3.6354 48.6249 59.843
13653 1 5.46076 48.6247 61.1203
19169 2 6.36444 50.2362 59.8494
19189 2 9.09158 48.6249 59.843
13304 1 8.18984 50.234 61.1264
18854 2 11.8207 50.2363 59.8494
13303 1 10.917 48.6247 61.1203
18853 2 14.5479 48.6248 59.8429
13012 1 13.6461 50.234 61.1264
18585 2 17.2769 50.2363 59.8494
13036 1 16.3733 48.6247 61.1203
18613 2 20.0042 48.6248 59.8429
12830 1 19.1023 50.234 61.1264
13893 1 2.76989 1.93197 61.8163
14190 1 0.0423344 0.324788 61.8352
19730 2 1.86596 0.3418 63.1098
13851 1 0.960345 1.96793 64.3694
13892 1 5.49856 0.324792 61.8352
19414 2 4.59351 1.9497 63.0908
13891 1 3.68901 0.359254 64.3887
13558 1 8.22613 1.93198 61.8163
19448 2 7.3222 0.341789 63.1098
13553 1 9.14524 0.35926 64.3887
13554 1 6.41658 1.96793 64.3694
13584 1 10.9548 0.3248 61.8352
19098 2 10.0497 1.94968 63.0908
13222 1 11.8728 1.96793 64.3694
13242 1 13.6824 1.932 61.8163
18774 2 15.506 1.94971 63.0908
19097 2 12.7784 0.341774 63.1098
13240 1 14.6015 0.359251 64.3887
13241 1 16.411 0.324796 61.8352
18784 2 18.2347 0.341785 63.1098
12970 1 17.3291 1.96793 64.3694
12973 1 19.1386 1.93199 61.8163
18536 2 20.9622 1.94973 63.0908
12969 1 20.0577 0.359245 64.3887
13855 1 2.76868 5.14717 61.7752
14154 1 0.0411859 3.53943 61.7964
19731 2 1.86478 3.55782 63.0707
13850 1 0.959129 5.18583 64.3275
13894 1 5.49743 3.53944 61.7964
19413 2 4.5923 5.16619 63.0494
13849 1 3.68788 3.57678 64.3491
13557 1 8.22492 5.14717 61.7752
19412 2 7.32101 3.5578 63.0707
13522 1 6.41536 5.18582 64.3275
13555 1 9.14411 3.57678 64.3491
13556 1 10.9537 3.53945 61.7963
19074 2 10.0486 5.16622 63.0493
13221 1 11.8716 5.18582 64.3275
13226 1 13.6812 5.14717 61.7752
18773 2 15.5048 5.16622 63.0493
19099 2 12.7773 3.55784 63.0706
13220 1 14.6004 3.57678 64.3491
13243 1 16.4099 3.53945 61.7963
18772 2 18.2335 3.55785 63.0706
12962 1 17.3278 5.18583 64.3275
12972 1 19.1374 5.14717 61.7752
18535 2 20.961 5.1662 63.0493
12971 1 20.0566 3.57678 64.3491
13854 1 2.76737 8.36352 61.7296
14155 1 0.0398912 6.75519 61.753
19691 2 1.86355 6.77482 63.027
13806 1 0.957758 8.4045 64.2809
13853 1 5.49614 6.75519 61.753
19374 2 4.59095 8.38371 63.0033
13852 1 3.68656 6.79506 64.3048
13526 1 8.22361 8.36352 61.7296
19415 2 7.31979 6.77484 63.0269
13521 1 6.414 8.40451 64.2809
13520 1 9.1428 6.79506 64.3048
13559 1 10.9524 6.75518 61.753
19073 2 10.0472 8.38373 63.0033
13198 1 11.8702 8.40452 64.2809
13225 1 13.6798 8.3635 61.7296
18758 2 15.5034 8.38369 63.0033
19072 2 12.776 6.77485 63.0269
13223 1 14.5991 6.79507 64.3048
13224 1 16.4086 6.75518 61.753
18775 2 18.2323 6.77483 63.0269
12961 1 17.3265 8.40452 64.2809
12965 1 19.1361 8.36351 61.7296
18534 2 20.9596 8.38366 63.0034
12960 1 20.0553 6.79507 64.3048
13810 1 2.76615 11.5813 61.6793
14118 1 0.038622 9.97221 61.705
19692 2 1.86209 9.99278 62.9786
13805 1 0.956403 11.624 64.2297
13856 1 5.49485 9.9722 61.705
19373 2 4.58953 11.6021 62.9528
13804 1 3.6852 10.0142 64.2559
13525 1 8.22238 11.5813 61.6793
19372 2 7.31833 9.99279 62.9786
13482 1 6.41265 11.624 64.2297
13523 1 9.14145 10.0142 64.2559
13524 1 10.9511 9.9722 61.705
19042 2 10.0458 11.6021 62.9528
13197 1 11.8689 11.624 64.2297
13202 1 13.6786 11.5813 61.6793
18757 2 15.502 11.6021 62.9528
19075 2 12.7745 9.99277 62.9787
13196 1 14.5977 10.0142 64.2559
13227 1 16.4073 9.9722 61.705
18756 2 18.2308 9.99276 62.9787
12946 1 17.3251 11.624 64.2297
12964 1 19.1349 11.5813 61.6793
18527 2 20.9582 11.6021 62.9528
12963 1 20.0539 10.0142 64.2559
13809 1 2.76507 14.8007 61.6244
14119 1 0.0374729 13.1908 61.6524
19651 2 1.86078 13.2119 62.9258
13808 1 5.4937 13.1908 61.6524
19327 2 4.58827 14.8219 62.8977
13807 1 3.68389 13.2341 64.2023
13486 1 8.22131 14.8006 61.6244
19375 2 7.31702 13.2119 62.9258
13480 1 9.14013 13.2341 64.2023
13527 1 10.9499 13.1908 61.6524
19041 2 10.0445 14.8219 62.8977
13201 1 13.6776 14.8007 61.6244
18734 2 15.5007 14.8219 62.8977
19040 2 12.7732 13.2118 62.9259
13199 1 14.5964 13.2341 64.2024
13200 1 16.4062 13.1908 61.6524
18759 2 18.2295 13.2118 62.9258
12949 1 19.1338 14.8007 61.6244
18526 2 20.957 14.8219 62.8977
12944 1 20.0526 13.2341 64.2024
13760 1 0.955147 14.8444 64.1739
19652 2 1.85949 16.4322 62.8685
13758 1 3.68265 16.4548 64.1445
13481 1 6.41139 14.8444 64.1739
19325 2 7.3157 16.4322 62.8686
13483 1 9.13889 16.4548 64.1445
13166 1 11.8676 14.8443 64.1739
19043 2 12.772 16.4322 62.8686
13164 1 14.5951 16.4548 64.1445
12945 1 17.3239 14.8444 64.1739
18732 2 18.2282 16.4322 62.8685
12947 1 20.0514 16.4548 64.1445
13759 1 0.953855 18.0655 64.1142
19612 2 1.85793 19.6535 62.8075
19326 2 4.5869 18.0427 62.8385
13761 1 3.68123 19.6763 64.0829
13436 1 6.41009 18.0655 64.1141
19328 2 7.3142 19.6535 62.8075
13434 1 9.13747 19.6762 64.083
19002 2 10.0431 18.0427 62.8385
13165 1 11.8663 18.0655 64.1142
18733 2 15.4994 18.0427 62.8385
19000 2 12.7704 19.6535 62.8075
13167 1 14.5937 19.6762 64.0829
12923 1 17.3226 18.0655 64.1142
18735 2 18.2267 19.6535 62.8075
18511 2 20.9556 18.0427 62.8385
12921 1 20.0499 19.6763 64.0829
19613 2 1.85568 22.8758 62.7436
13720 1 0.95222 21.287 64.051
19280 2 4.58498 21.2646 62.776
13718 1 3.6793 22.8977 64.0186
19278 2 7.31193 22.8758 62.7436
13435 1 6.40845 21.287 64.051
13437 1 9.13552 22.8977 64.0186
19001 2 10.0412 21.2646 62.7759
13130 1 11.8647 21.287 64.051
18703 2 15.4975 21.2646 62.7759
19003 2 12.7682 22.8758 62.7436
13128 1 14.5918 22.8977 64.0186
18701 2 18.2244 22.8758 62.7436
12922 1 17.3209 21.287 64.051
18510 2 20.9537 21.2646 62.7759
12924 1 20.048 22.8977 64.0186
19580 2 1.85283 26.0982 62.6783
13719 1 0.949924 24.5083 63.9859
19279 2 4.58248 24.4871 62.711
13721 1 3.67652 26.1188 63.9532
19281 2 7.30906 26.0982 62.6783
13389 1 9.13276 26.1188 63.9532
13391 1 6.40616 24.5083 63.9859
18958 2 10.0387 24.4871 62.711
13129 1 11.8624 24.5083 63.9859
18702 2 15.495 24.4871 62.711
18956 2 12.7653 26.0982 62.6783
13131 1 14.589 26.1188 63.9532
18704 2 18.2215 26.0982 62.6783
12899 1 17.3186 24.5083 63.9859
18491 2 20.9512 24.4871 62.711
12897 1 20.0452 26.1188 63.9532
19581 2 1.84914 29.3201 62.6141
13688 1 0.946711 27.729 63.9209
19240 2 4.57927 27.7092 62.646
13686 1 3.67288 29.3389 63.8892
19238 2 7.30537 29.3202 62.614
13390 1 6.40296 27.729 63.9209
13392 1 9.12912 29.3389 63.8892
18957 2 10.0355 27.7092 62.6459
13094 1 11.8592 27.729 63.9209
18671 2 15.4917 27.7092 62.6459
18959 2 12.7616 29.3201 62.6141
13092 1 14.5854 29.3389 63.8892
18669 2 18.2179 29.3201 62.6142
12898 1 17.3154 27.729 63.9209
18490 2 20.948 27.7092 62.646
12900 1 20.0416 29.3389 63.8892
19556 2 1.84466 32.541 62.5534
13687 1 0.94276 30.9484 63.8584
19239 2 4.57515 30.9308 62.583
13689 1 3.6686 32.5575 63.8291
19241 2 7.30089 32.541 62.5535
13351 1 9.12482 32.5575 63.8291
13353 1 6.39899 30.9484 63.8585
18915 2 10.0313 30.9307 62.5831
13093 1 11.8552 30.9484 63.8585
18670 2 15.4875 30.9307 62.5831
18913 2 12.7571 32.541 62.5534
13095 1 14.5811 32.5575 63.8291
18672 2 18.2134 32.5411 62.5534
12875 1 17.3115 30.9484 63.8585
18471 2 20.9438 30.9308 62.583
12873 1 20.0373 32.5575 63.8291
13664 1 0.938199 34.1661 63.8015
19208 2 4.57028 34.1508 62.5253
13352 1 6.39446 34.1661 63.8015
18914 2 10.0265 34.1508 62.5253
13059 1 11.8507 34.1661 63.8014
18639 2 15.4829 34.1509 62.5253
12874 1 17.3069 34.1661 63.8015
18470 2 20.9391 34.1508 62.5254
19557 2 1.83976 35.7602 62.4992
13663 1 0.933516 37.3819 63.7526
13662 1 3.66392 35.7742 63.7759
19207 2 4.56548 37.3693 62.4756
19206 2 7.2961 35.7602 62.4992
13354 1 9.12015 35.7742 63.7758
13323 1 6.38978 37.3819 63.7526
18879 2 10.0216 37.3693 62.4756
13058 1 11.846 37.3818 63.7526
18916 2 12.7522 35.7602 62.4993
13057 1 14.5764 35.7742 63.7758
18638 2 15.478 37.3693 62.4756
18637 2 18.2084 35.7601 62.4993
12851 1 17.3022 37.3818 63.7526
12876 1 20.0326 35.7742 63.7759
18451 2 20.9343 37.3693 62.4756
19540 2 1.83502 38.9779 62.455
13648 1 0.929484 40.5957 63.7149
19184 2 4.56119 40.5864 62.4373
13665 1 3.65948 38.989 63.7322
19209 2 7.29132 38.9779 62.455
13321 1 9.11571 38.989 63.7322
13322 1 6.38574 40.5957 63.7149
18878 2 10.0174 40.5864 62.4372
13031 1 11.842 40.5957 63.7148
18608 2 15.4737 40.5864 62.4373
18877 2 12.7476 38.978 62.4549
13060 1 14.572 38.989 63.7322
18640 2 18.2038 38.978 62.4549
12850 1 17.2982 40.5957 63.7148
18450 2 20.9299 40.5864 62.4373
12849 1 20.0282 38.989 63.7322
19541 2 1.83136 42.1945 62.423
13647 1 0.926707 43.8084 63.6907
19183 2 4.55824 43.8024 62.4127
13646 1 3.65598 42.2021 63.7009
19182 2 7.28765 42.1945 62.4231
13301 1 6.38297 43.8083 63.6907
13324 1 9.11221 42.2022 63.7009
18851 2 10.0144 43.8023 62.4127
13030 1 11.8392 43.8083 63.6907
18607 2 15.4708 43.8024 62.4127
18880 2 12.7438 42.1945 62.4231
13029 1 14.5685 42.2021 63.7009
18606 2 18.2 42.1945 62.4231
12828 1 17.2954 43.8083 63.6907
18431 2 20.927 43.8024 62.4126
12852 1 20.0247 42.2021 63.7009
19532 2 1.8293 45.4103 62.4061
13640 1 0.925714 47.0204 63.6819
19168 2 4.55717 47.0181 62.4038
13649 1 3.65407 45.4144 63.6843
19185 2 7.28558 45.4103 62.4062
13299 1 9.11029 45.4144 63.6843
13300 1 6.38198 47.0204 63.6819
18850 2 10.0134 47.0182 62.4039
13011 1 11.8382 47.0204 63.6818
18584 2 15.4696 47.0181 62.4039
18849 2 12.7419 45.4104 62.4061
13032 1 14.5665 45.4144 63.6843
18609 2 18.1981 45.4103 62.4061
12827 1 17.2944 47.0204 63.6819
18430 2 20.9259 47.0181 62.4039
12826 1 20.0228 45.4144 63.6843
19533 2 1.82933 48.626 62.4054
13639 1 0.926641 50.2328 63.689
19167 2 4.55813 50.2341 62.4112
13638 1 3.6541 48.6265 63.6834
19166 2 7.28557 48.626 62.4054
13284 1 6.38287 50.2328 63.689
13302 1 9.11031 48.6265 63.6834
18828 2 10.0144 50.2342 62.4112
13010 1 11.8391 50.2328 63.689
18583 2 15.4707 50.2342 62.4112
18852 2 12.7418 48.626 62.4055
13009 1 14.5665 48.6265 63.6834
18582 2 18.198 48.626 62.4055
12809 1 17.2954 50.2328 63.689
18411 2 20.9269 50.2342 62.4112
12829 1 20.0228 48.6265 63.6834
19410 2 2.7841 1.98536 65.6427
19729 2 0.0565914 0.375933 65.662
13847 1 1.87952 0.394397 66.9429
19409 2 5.51284 0.375926 65.662
13518 1 4.60703 2.00453 66.9235
19070 2 8.24034 1.98537 65.6427
13552 1 7.33575 0.394399 66.9429
19096 2 10.9691 0.375931 65.662
13218 1 10.0633 2.00453 66.9235
18770 2 13.6966 1.98537 65.6427
12958 1 15.5195 2.00453 66.9235
13217 1 12.792 0.394395 66.943
18769 2 16.4253 0.375938 65.662
12968 1 18.2482 0.394392 66.943
18533 2 19.1528 1.98537 65.6427
12784 1 20.9758 2.00453 66.9235
19370 2 2.78284 5.20466 65.6006
19689 2 0.055349 3.59491 65.6222
13848 1 1.87829 3.61475 66.9028
19411 2 5.51158 3.59493 65.6222
13517 1 4.60573 5.22507 66.8809
19069 2 8.2391 5.20467 65.6006
13516 1 7.33453 3.61475 66.9028
19068 2 10.9678 3.59495 65.6222
13194 1 10.062 5.22507 66.8809
18754 2 13.6953 5.20464 65.6006
12957 1 15.5182 5.22507 66.8809
13219 1 12.7908 3.61476 66.9028
18771 2 16.4241 3.59493 65.6222
12956 1 18.247 3.61476 66.9028
18532 2 19.1515 5.20464 65.6006
12783 1 20.9744 5.22507 66.8809
19369 2 2.78144 8.42452 65.5538
19690 2 0.0540766 6.81455 65.5778
13802 1 1.87688 6.83548 66.8579
19368 2 5.5103 6.81455 65.5778
13478 1 4.60424 8.44596 66.8337
19038 2 8.23766 8.4245 65.5539
13519 1 7.33312 6.83549 66.8579
19071 2 10.9665 6.81452 65.5778
13193 1 10.0605 8.44596 66.8337
18753 2 13.6939 8.42453 65.5538
12942 1 15.5167 8.44596 66.8337
13192 1 12.7894 6.83548 66.8579
18752 2 16.4228 6.81453 65.5778
12959 1 18.2456 6.83547 66.8579
18525 2 19.1502 8.42454 65.5538
12782 1 20.973 8.44596 66.8337
19323 2 2.77982 11.6448 65.5025
19649 2 0.0524954 10.0346 65.5287
13803 1 1.87534 10.0565 66.8083
19371 2 5.50873 10.0346 65.5287
13477 1 4.60268 11.667 66.7819
19037 2 8.23605 11.6448 65.5025
13476 1 7.33158 10.0565 66.8083
19036 2 10.965 10.0346 65.5287
13162 1 10.0589 11.667 66.7819
18730 2 13.6923 11.6448 65.5025
12941 1 15.5152 11.667 66.7819
13195 1 12.7878 10.0565 66.8083
18755 2 16.4212 10.0346 65.5287
12940 1 18.2441 10.0565 66.8083
18524 2 19.1486 11.6448 65.5025
12775 1 20.9714 11.667 66.7819
19650 2 0.0509049 13.2552 65.4752
13756 1 1.87377 13.2775 66.7543
19321 2 5.50718 13.2552 65.4752
13479 1 7.33001 13.2776 66.7543
19039 2 10.9634 13.2552 65.4752
13160 1 12.7863 13.2776 66.7543
18728 2 16.4196 13.2552 65.4752
12943 1 18.2425 13.2776 66.7543
19322 2 2.7783 14.8657 65.4469
19610 2 0.0494697 16.4762 65.4175
13757 1 1.87224 16.4986 66.6961
13432 1 4.60114 14.8881 66.7257
19324 2 5.50568 16.4762 65.4175
18998 2 8.23454 14.8657 65.4468
13430 1 7.32848 16.4986 66.6962
13161 1 10.0574 14.8881 66.7257
18996 2 10.9619 16.4762 65.4175
18729 2 13.6908 14.8657 65.4469
12919 1 15.5136 14.8881 66.7257
13163 1 12.7847 16.4986 66.6962
18731 2 16.4182 16.4762 65.4175
12917 1 18.241 16.4986 66.6962
18509 2 19.147 14.8657 65.4469
12774 1 20.9698 14.8881 66.7257
19276 2 2.77683 18.0867 65.3873
19611 2 0.0478824 19.6972 65.3565
13716 1 1.8706 19.7193 66.6347
13431 1 4.59959 18.109 66.6658
19274 2 5.50409 19.6972 65.3564
18997 2 8.2331 18.0867 65.3873
13433 1 7.32685 19.7193 66.6347
13126 1 10.0558 18.109 66.6658
18999 2 10.9603 19.6972 65.3564
18699 2 13.6893 18.0867 65.3873
12918 1 15.5121 18.109 66.6658
13124 1 12.7831 19.7193 66.6347
18697 2 16.4166 19.6972 65.3565
12920 1 18.2393 19.7193 66.6347
18508 2 19.1455 18.0867 65.3873
12763 1 20.9683 18.109 66.6658
19275 2 2.77494 21.3076 65.325
19578 2 0.0456104 22.9179 65.2932
13717 1 1.86868 22.9392 66.5712
19277 2 5.50187 22.9179 65.2932
13387 1 4.59782 21.3294 66.6031
18954 2 8.23118 21.3076 65.325
13385 1 7.32492 22.9392 66.5712
18952 2 10.9581 22.9179 65.2931
13125 1 10.054 21.3294 66.6031
18698 2 13.6874 21.3077 65.325
12895 1 15.5103 21.3294 66.6031
13127 1 12.7812 22.9392 66.5712
18700 2 16.4143 22.9179 65.2932
12893 1 18.2374 22.9392 66.5712
18489 2 19.1436 21.3077 65.325
12762 1 20.9665 21.3294 66.6031
19236 2 2.77244 24.528 65.2609
19579 2 0.0429057 26.1377 65.2289
13684 1 1.8661 26.1575 66.5072
19234 2 5.49915 26.1377 65.2289
13386 1 4.59563 24.5486 66.5391
18953 2 8.22866 24.528 65.261
13388 1 7.32234 26.1575 66.5072
18955 2 10.9554 26.1377 65.2289
13090 1 10.0519 24.5486 66.5391
18667 2 13.6849 24.528 65.261
12894 1 15.5081 24.5486 66.5391
13088 1 12.7786 26.1575 66.5072
18665 2 16.4116 26.1377 65.2289
12896 1 18.2348 26.1575 66.5072
18488 2 19.1412 24.528 65.261
12751 1 20.9643 24.5486 66.5391
19235 2 2.76931 27.747 65.1972
19554 2 0.0393737 29.3558 65.1664
13685 1 1.86275 29.3738 66.4449
19237 2 5.49565 29.3559 65.1664
13349 1 4.59262 27.7659 66.4757
18911 2 8.22554 27.747 65.1972
13347 1 7.31898 29.3738 66.4449
18909 2 10.9519 29.3559 65.1664
13089 1 10.0489 27.7659 66.4757
18666 2 13.6818 27.7471 65.1972
12871 1 15.5051 27.7659 66.4757
13091 1 12.7752 29.3738 66.4449
18668 2 16.4081 29.3558 65.1664
12869 1 18.2315 29.3738 66.4449
18469 2 19.1381 27.747 65.1972
12750 1 20.9613 27.7659 66.4757
19204 2 2.76562 30.9643 65.1364
19555 2 0.0353737 32.5723 65.1079
13660 1 1.85887 32.5879 66.3868
19202 2 5.49158 32.5723 65.1079
13348 1 4.58894 30.9811 66.4151
18910 2 8.22183 30.9643 65.1364
13350 1 7.31512 32.5878 66.3868
18912 2 10.9479 32.5722 65.1079
13055 1 10.0452 30.9811 66.4151
18635 2 13.678 30.9643 65.1365
12870 1 15.5014 30.9811 66.4151
13053 1 12.7713 32.5878 66.3868
18633 2 16.4041 32.5723 65.1079
12872 1 18.2276 32.5878 66.3868
18468 2 19.1343 30.9643 65.1365
12739 1 20.9576 30.9811 66.4151
19203 2 2.76133 34.1795 65.0811
13319 1 4.58488 34.1939 66.3602
18875 2 8.21761 34.1795 65.0811
13054 1 10.0411 34.1939 66.3602
18634 2 13.6738 34.1795 65.081
12847 1 15.4974 34.1939 66.3602
18449 2 19.13 34.1795 65.0811
12738 1 20.9536 34.1939 66.3602
19538 2 0.0311162 35.7864 65.0561
13661 1 1.85476 35.7994 66.3357
19180 2 2.75718 37.3926 65.0337
19205 2 5.48731 35.7864 65.0561
13318 1 4.58089 37.404 66.3135
13317 1 7.31101 35.7995 66.3357
18874 2 8.21342 37.3926 65.0337
18873 2 10.9436 35.7864 65.0561
13027 1 10.0371 37.404 66.3136
13056 1 12.7672 35.7994 66.3357
18604 2 13.6697 37.3926 65.0337
12846 1 15.4933 37.404 66.3136
18636 2 16.3999 35.7864 65.0561
12845 1 18.2235 35.7994 66.3357
18448 2 19.1259 37.3926 65.0337
12727 1 20.9496 37.404 66.3135
19179 2 2.75349 40.6039 64.9973
19539 2 0.027046 38.9984 65.0139
13644 1 1.85093 39.0084 66.2941
19178 2 5.48332 38.9984 65.014
13297 1 4.5774 40.6124 66.2776
18847 2 8.20969 40.6039 64.9973
13320 1 7.30716 39.0084 66.2941
18876 2 10.9395 38.9984 65.014
13026 1 10.0336 40.6124 66.2776
18603 2 13.666 40.604 64.9973
12824 1 15.4899 40.6124 66.2775
13025 1 12.7634 39.0085 66.2941
18602 2 16.3957 38.9984 65.014
12848 1 18.2196 39.0085 66.2941
18429 2 19.1222 40.604 64.9973
12726 1 20.9461 40.6124 66.2776
19164 2 2.75099 43.8137 64.974
19530 2 0.0239243 42.2089 64.9839
13645 1 1.84794 42.216 66.2643
19181 2 5.48022 42.2089 64.9839
13296 1 4.57503 43.8193 66.2545
18846 2 8.20724 43.8137 64.974
13295 1 7.30418 42.216 66.2643
18845 2 10.9365 42.2089 64.9838
13007 1 10.0312 43.8193 66.2545
18580 2 13.6634 43.8137 64.9739
12823 1 15.4875 43.8193 66.2545
13028 1 12.7604 42.2159 66.2643
18605 2 16.3927 42.2089 64.9839
12822 1 18.2167 42.2159 66.2643
18428 2 19.1197 43.8137 64.974
12715 1 20.9438 43.8193 66.2545
19163 2 2.75004 47.0231 64.9655
19531 2 0.0223201 45.4185 64.9678
13636 1 1.84634 45.4225 66.2483
19162 2 5.4785 45.4184 64.9678
13283 1 4.57419 47.0255 66.2459
18827 2 8.20626 47.0231 64.9654
13298 1 7.30259 45.4225 66.2483
18848 2 10.9347 45.4184 64.9678
13006 1 10.0304 47.0255 66.2458
18579 2 13.6625 47.0231 64.9654
12808 1 15.4867 47.0256 66.2458
13005 1 12.7588 45.4225 66.2482
18578 2 16.391 45.4184 64.9677
12825 1 18.215 45.4225 66.2482
18410 2 19.1188 47.0231 64.9654
12714 1 20.9429 47.0256 66.2459
19153 2 2.75098 50.2326 64.9722
19529 2 0.0222177 48.6278 64.9669
13637 1 1.84632 48.6287 66.2472
19165 2 5.47849 48.6278 64.9668
13282 1 4.57499 50.232 66.2523
18826 2 8.20719 50.2325 64.9722
13281 1 7.30258 48.6287 66.2472
18825 2 10.9347 48.6278 64.9668
12992 1 10.0312 50.232 66.2523
18561 2 13.6634 50.2325 64.9722
12807 1 15.4875 50.232 66.2524
13008 1 12.7588 48.6287 66.2472
18581 2 16.3909 48.6277 64.9669
12806 1 18.215 48.6287 66.2472
18409 2 19.1197 50.2326 64.9722
12703 1 20.9437 50.232 66.2523
13514 1 2.79677 2.04019 69.4817
13846 1 0.0693543 0.428571 69.5014
19366 2 0.974876 2.02072 68.193
13513 1 5.52559 0.428571 69.5014
19408 2 3.7037 0.409758 68.2126
13190 1 8.25301 2.04019 69.4817
19065 2 9.15996 0.409771 68.2125
19066 2 6.43111 2.02073 68.193
13216 1 10.9818 0.428575 69.5014
18750 2 11.8874 2.02072 68.193
12954 1 13.7092 2.04019 69.4817
18768 2 14.6162 0.409763 68.2126
12953 1 16.4381 0.428574 69.5014
18530 2 17.3436 2.02071 68.193
12781 1 19.1655 2.04018 69.4817
18529 2 20.0724 0.40975 68.2126
13474 1 2.79525 5.26336 69.4389
13800 1 0.0679151 3.65178 69.4609
19365 2 0.973394 5.24282 68.1505
13515 1 5.52415 3.65179 69.4609
19364 2 3.70225 3.63173 68.1723
13189 1 8.2515 5.26337 69.4389
19034 2 6.42963 5.24283 68.1505
19067 2 9.15848 3.63173 68.1723
13188 1 10.9804 3.65179 69.4609
18749 2 11.8859 5.24282 68.1505
12938 1 13.7077 5.26337 69.4389
18748 2 14.6147 3.63173 68.1723
12955 1 16.4366 3.65179 69.4609
18522 2 17.3421 5.24281 68.1505
12780 1 19.164 5.26336 69.4389
18531 2 20.071 3.63173 68.1723
13473 1 2.79355 8.48638 69.3912
13801 1 0.0663034 6.8749 69.4156
19319 2 0.971879 8.46515 68.1032
13472 1 5.52255 6.87491 69.4156
19367 2 3.70077 6.85399 68.1274
13158 1 8.24979 8.48638 69.3912
19032 2 9.15699 6.85398 68.1274
19033 2 6.42812 8.46514 68.1032
13191 1 10.9788 6.8749 69.4156
18726 2 11.8844 8.46516 68.1032
12937 1 13.706 8.48638 69.3912
18751 2 14.6132 6.85397 68.1274
12936 1 16.435 6.8749 69.4156
18521 2 17.3406 8.46516 68.1032
12773 1 19.1623 8.48638 69.3912
18520 2 20.0695 6.85398 68.1274
13428 1 2.79174 11.709 69.3392
13754 1 0.0645278 10.0977 69.3657
19318 2 0.970077 11.6872 68.0514
13475 1 5.52076 10.0977 69.3657
19317 2 3.69916 10.0762 68.0778
13157 1 8.24798 11.709 69.3392
18994 2 6.42631 11.6872 68.0515
19035 2 9.15539 10.0762 68.0779
13156 1 10.977 10.0977 69.3657
18725 2 11.8825 11.6872 68.0514
12915 1 13.7042 11.7089 69.3392
18724 2 14.6116 10.0762 68.0779
12939 1 16.4332 10.0977 69.3657
18506 2 17.3388 11.6872 68.0514
12772 1 19.1604 11.7089 69.3392
18523 2 20.0679 10.0762 68.0779
13755 1 0.0626597 13.32 69.3116
13426 1 5.5189 13.32 69.3116
19320 2 3.69725 13.2982 68.0241
18992 2 9.1535 13.2982 68.0241
13159 1 10.9751 13.32 69.3116
18727 2 14.6098 13.2982 68.0241
12913 1 16.4314 13.32 69.3116
18504 2 20.066 13.2982 68.0241
13427 1 2.78982 14.9307 69.283
19272 2 0.968246 14.9092 67.9957
13714 1 0.0607774 16.5412 69.2536
13429 1 5.51702 16.5412 69.2536
19270 2 3.69552 16.5199 67.9664
13122 1 8.24606 14.9307 69.283
18993 2 6.42452 14.9092 67.9957
18995 2 9.15175 16.5199 67.9663
18695 2 11.8808 14.9092 67.9956
13120 1 10.9733 16.5413 69.2536
12914 1 13.7023 14.9308 69.283
18693 2 14.6079 16.5199 67.9664
18505 2 17.337 14.9092 67.9957
12916 1 16.4295 16.5413 69.2536
12761 1 19.1586 14.9308 69.283
18507 2 20.0642 16.5199 67.9664
13383 1 2.78794 18.1514 69.2233
19271 2 0.966466 18.1304 67.9362
13715 1 0.0589296 19.7612 69.1923
13381 1 5.51517 19.7612 69.1923
19273 2 3.69363 19.7406 67.9055
13121 1 8.24419 18.1514 69.2233
18950 2 6.4227 18.1304 67.9362
18948 2 9.14987 19.7406 67.9055
18694 2 11.8789 18.1304 67.9362
13123 1 10.9714 19.7612 69.1923
12891 1 13.7004 18.1514 69.2232
18696 2 14.6061 19.7406 67.9055
18486 2 17.3352 18.1304 67.9362
12889 1 16.4276 19.7612 69.1923
12760 1 19.1566 18.1514 69.2233
18484 2 20.0624 19.7406 67.9055
13382 1 2.786 21.3706 69.161
13682 1 0.0568881 22.9795 69.1297
19232 2 0.964481 21.3505 67.8743
13384 1 5.51312 22.9795 69.1297
19230 2 3.69145 22.9599 67.8428
13086 1 8.24224 21.3706 69.161
18949 2 6.42073 21.3505 67.8743
18951 2 9.14766 22.9599 67.8428
13084 1 10.9694 22.9795 69.1297
18663 2 11.8769 21.3505 67.8743
12890 1 13.6985 21.3706 69.161
18661 2 14.604 22.9599 67.8428
12892 1 16.4256 22.9795 69.1297
18485 2 17.3332 21.3505 67.8743
12749 1 19.1547 21.3706 69.161
18487 2 20.0602 22.9599 67.8428
13345 1 2.78379 24.5876 69.0984
13683 1 0.0544357 26.1952 69.0672
19231 2 0.962073 24.5688 67.8113
13343 1 5.51066 26.1952 69.0672
19233 2 3.68884 26.1772 67.7799
13085 1 8.24003 24.5876 69.0984
18905 2 9.14506 26.1771 67.7799
18907 2 6.41832 24.5688 67.8113
13087 1 10.9669 26.1952 69.0672
18662 2 11.8746 24.5689 67.8113
12867 1 13.6963 24.5877 69.0984
18664 2 14.6012 26.1771 67.7799
12865 1 16.4232 26.1952 69.0672
18466 2 17.3308 24.5688 67.8113
12748 1 19.1525 24.5877 69.0984
18464 2 20.0575 26.1771 67.7799
13344 1 2.78109 27.8021 69.0365
13658 1 0.051387 29.408 69.0066
19200 2 0.959161 27.7848 67.749
13346 1 5.50761 29.408 69.0066
19198 2 3.68547 29.3917 67.7189
13051 1 8.23733 27.802 69.0365
18906 2 6.41532 27.7848 67.7491
18908 2 9.14179 29.3918 67.7189
13049 1 10.9638 29.4081 69.0066
18631 2 11.8716 27.7848 67.749
12866 1 13.6936 27.802 69.0365
18629 2 14.598 29.3919 67.7188
12868 1 16.4201 29.4081 69.0066
18465 2 17.3279 27.7848 67.749
12737 1 19.1498 27.802 69.0365
18467 2 20.0542 29.3918 67.7188
13315 1 2.77781 31.0133 68.9777
13659 1 0.0478837 32.6178 68.9503
19199 2 0.955565 30.998 67.6899
13313 1 5.50415 32.6178 68.9503
19201 2 3.68176 32.6037 67.6623
13050 1 8.23405 31.0133 68.9777
18869 2 9.13793 32.6037 67.6623
18871 2 6.41185 30.9981 67.6899
13052 1 10.9604 32.6177 68.9503
18630 2 11.8681 30.998 67.6899
12843 1 13.6903 31.0133 68.9777
18632 2 14.5942 32.6036 67.6623
12841 1 16.4166 32.6177 68.9503
18446 2 17.3243 30.998 67.6899
12736 1 19.1465 31.0133 68.9777
18444 2 20.0505 32.6037 67.6623
13314 1 2.77426 34.2214 68.9246
19176 2 0.95169 34.2085 67.6363
18839 2 4.59752 34.2383 70.1879
13023 1 8.23047 34.2214 68.9246
18870 2 6.40795 34.2085 67.6364
18600 2 11.8642 34.2085 67.6364
18595 2 10.0537 34.2383 70.188
12842 1 13.6867 34.2214 68.9246
18422 2 15.51 34.2382 70.188
18445 2 17.3204 34.2085 67.6363
12725 1 19.143 34.2214 68.9246
18343 2 20.9662 34.2382 70.1879
13642 1 0.0443036 35.8245 68.9009
13293 1 2.77075 37.4268 68.8795
19175 2 0.947931 37.4161 67.5907
19173 2 1.86766 35.8397 70.1648
13316 1 5.50054 35.8245 68.9009
19174 2 3.67797 35.8126 67.6125
18838 2 4.59409 37.4402 70.1438
18872 2 9.13421 35.8127 67.6124
13022 1 8.22699 37.4269 68.8795
18843 2 6.40422 37.4162 67.5907
18837 2 7.32384 35.8397 70.1648
13021 1 10.9568 35.8245 68.9009
18599 2 11.8604 37.4161 67.5908
18572 2 10.0504 37.4403 70.1438
18598 2 14.5905 35.8127 67.6124
12820 1 13.6832 37.4269 68.8795
18597 2 12.78 35.8397 70.1648
18421 2 15.5066 37.4403 70.1438
12844 1 16.413 35.8245 68.9009
18426 2 17.3166 37.4161 67.5908
18420 2 18.2363 35.8398 70.1647
18447 2 20.0467 35.8126 67.6125
12724 1 19.1395 37.4268 68.8795
18336 2 20.9628 37.4402 70.1438
13292 1 2.76774 40.6298 68.8449
13643 1 0.0409914 39.0286 68.8608
19160 2 0.944696 40.6216 67.5559
19156 2 1.86433 39.0401 70.1255
13291 1 5.49726 39.0286 68.8608
19177 2 3.67443 39.0189 67.5719
18819 2 4.59111 40.6394 70.1099
13003 1 8.22394 40.6298 68.8449
18841 2 9.13059 39.0188 67.5719
18842 2 6.40098 40.6215 67.5559
18840 2 7.32057 39.0401 70.1254
13024 1 10.9535 39.0285 68.8608
18576 2 11.8573 40.6215 67.5557
18571 2 10.0474 40.6393 70.11
12819 1 13.6802 40.6298 68.8449
18601 2 14.5868 39.0189 67.5719
18403 2 15.5036 40.6393 70.1099
18570 2 12.7768 39.0401 70.1254
12818 1 16.4097 39.0286 68.8608
18425 2 17.3135 40.6216 67.5558
18423 2 18.233 39.0401 70.1255
12713 1 19.1365 40.6298 68.8449
18424 2 20.0432 39.019 67.5719
18335 2 20.9598 40.6394 70.1098
13279 1 2.7657 43.831 68.8226
13634 1 0.0384541 42.2305 68.8321
19159 2 0.942602 43.8251 67.5334
19157 2 1.86184 42.238 70.0974
13294 1 5.4947 42.2305 68.8321
19158 2 3.67164 42.2234 67.5431
18818 2 4.58904 43.8363 70.0882
13002 1 8.22194 43.831 68.8226
18823 2 6.39884 43.8251 67.5335
18844 2 9.12786 42.2235 67.543
18817 2 7.31804 42.238 70.0974
13001 1 10.951 42.2306 68.8321
18575 2 11.855 43.825 67.5336
18556 2 10.0453 43.8363 70.0882
12804 1 13.6782 43.831 68.8226
18574 2 14.5841 42.2235 67.543
18402 2 15.5016 43.8362 70.0883
18573 2 12.7743 42.238 70.0974
12821 1 16.4072 42.2306 68.8321
18407 2 17.3112 43.825 67.5335
18401 2 18.2305 42.238 70.0974
12712 1 19.1344 43.831 68.8226
18427 2 20.0404 42.2234 67.5431
18328 2 20.9578 43.8362 70.0882
13278 1 2.76496 47.0312 68.8142
13635 1 0.0370754 45.4312 68.8166
19152 2 0.941737 47.0279 67.5252
19148 2 1.86046 45.4343 70.0822
13277 1 5.49331 45.4312 68.8166
19161 2 3.67009 45.4266 67.5275
18807 2 4.58841 47.0319 70.08
12991 1 8.2212 47.0313 68.8142
18821 2 9.1263 45.4266 67.5275
18822 2 6.39807 47.0279 67.5251
18820 2 7.31668 45.4342 70.0823
13004 1 10.9495 45.4312 68.8166
18560 2 11.8544 47.028 67.525
18555 2 10.0446 47.032 70.0799
12803 1 13.6774 47.0313 68.8142
18577 2 14.5826 45.4266 67.5274
18391 2 15.5008 47.032 70.0799
18554 2 12.7729 45.4343 70.0824
12802 1 16.4058 45.4312 68.8166
18406 2 17.3105 47.028 67.5251
18404 2 18.2291 45.4343 70.0823
12702 1 19.1337 47.0313 68.8142
18405 2 20.0388 45.4267 67.5275
18327 2 20.9571 47.032 70.08
13270 1 2.76565 50.2316 68.8203
13633 1 0.0370175 48.6313 68.8154
19151 2 0.942422 50.2309 67.5312
19149 2 1.86038 48.6298 70.0811
13280 1 5.49325 48.6314 68.8154
19150 2 3.67004 48.6294 67.5264
18806 2 4.58904 50.2278 70.0858
12990 1 8.22187 50.2316 68.8203
18808 2 6.39869 50.2309 67.5313
18824 2 9.12623 48.6294 67.5265
18805 2 7.3166 48.6298 70.0812
12989 1 10.9495 48.6314 68.8154
18559 2 11.8549 50.2308 67.5313
18545 2 10.0453 50.2278 70.0858
12793 1 13.6781 50.2316 68.8203
18558 2 14.5825 48.6293 67.5264
18390 2 15.5015 50.2278 70.0858
18557 2 12.7729 48.6297 70.0812
12805 1 16.4057 48.6313 68.8154
18392 2 17.3111 50.2309 67.5312
18389 2 18.2292 48.6297 70.0811
12701 1 19.1344 50.2316 68.8203
18408 2 20.0388 48.6293 67.5264
18320 2 20.9577 50.2278 70.0858
13470 1 0.981511 2.07673 72.057
19362 2 1.89444 0.442382 70.7585
13512 1 3.7105 0.463673 72.0767
19030 2 4.62173 2.05494 70.7389
13185 1 9.16674 0.463658 72.0767
13186 1 6.43774 2.07673 72.057
19064 2 7.35067 0.442358 70.7585
12934 1 11.894 2.07673 72.057
18746 2 10.078 2.05493 70.7389
12952 1 14.623 0.463662 72.0767
18518 2 15.5342 2.05493 70.7388
18745 2 12.8069 0.442364 70.7585
12778 1 17.3502 2.07673 72.057
18528 2 18.2632 0.442388 70.7585
12777 1 20.0792 0.463676 72.0767
18376 2 20.9904 2.05494 70.7389
13469 1 0.979689 5.30248 72.0139
19363 2 1.89276 3.66749 70.718
13468 1 3.70873 3.68968 72.036
19029 2 4.61998 5.27997 70.6961
13154 1 6.43591 5.30248 72.0139
13187 1 9.16496 3.68968 72.036
19028 2 7.34898 3.66747 70.718
12933 1 11.8922 5.30248 72.0139
18722 2 10.0762 5.27999 70.696
12932 1 14.6212 3.68968 72.036
18517 2 15.5325 5.28 70.696
18747 2 12.8052 3.66749 70.718
12770 1 17.3484 5.30248 72.0139
18516 2 18.2615 3.66751 70.718
12779 1 20.0774 3.68968 72.036
18375 2 20.9887 5.27998 70.6961
13424 1 0.977729 8.52752 71.9662
19315 2 1.89098 6.89242 70.6729
13471 1 3.70685 6.9151 71.9906
18990 2 4.61821 8.50478 70.6486
13152 1 9.16309 6.91511 71.9906
13153 1 6.43397 8.52752 71.9662
19031 2 7.34723 6.89244 70.6729
12911 1 11.8902 8.52752 71.9662
18721 2 10.0745 8.50478 70.6486
12935 1 14.6193 6.91511 71.9906
18502 2 15.5307 8.50478 70.6486
18720 2 12.8035 6.89243 70.6729
12769 1 17.3464 8.52752 71.9662
18519 2 18.2597 6.89241 70.6729
12768 1 20.0756 6.9151 71.9906
18374 2 20.9869 8.50478 70.6486
13423 1 0.975636 11.7515 71.9142
19316 2 1.88913 10.117 70.6233
13422 1 3.70481 10.1397 71.9407
18989 2 4.61622 11.729 70.5968
13118 1 6.43188 11.7515 71.9142
13155 1 9.16105 10.1397 71.9407
18988 2 7.3454 10.117 70.6233
12910 1 11.8881 11.7515 71.9141
18691 2 10.0724 11.729 70.5969
12909 1 14.6173 10.1397 71.9407
18501 2 15.5287 11.729 70.5969
18723 2 12.8016 10.117 70.6232
12758 1 17.3443 11.7515 71.9142
18500 2 18.2578 10.117 70.6233
12771 1 20.0735 10.1397 71.9407
18368 2 20.9849 11.729 70.5968
19268 2 1.88706 13.3408 70.5695
13425 1 3.70271 13.363 71.8867
13116 1 9.15894 13.363 71.8867
18991 2 7.34329 13.3408 70.5695
12912 1 14.6152 13.363 71.8867
18689 2 12.7995 13.3408 70.5695
18503 2 18.2558 13.3408 70.5695
12756 1 20.0714 13.363 71.8867
13379 1 0.973584 14.9741 71.8581
19269 2 1.88499 16.5633 70.512
19226 2 0.0726232 16.6068 73.0448
18946 2 4.61415 14.9523 70.5412
13377 1 3.70067 16.5846 71.8289
18943 2 5.52883 16.6068 73.0448
13117 1 6.42982 14.9741 71.8581
13119 1 9.15691 16.5847 71.8289
18944 2 7.34121 16.5633 70.512
18690 2 10.0704 14.9523 70.5412
12887 1 11.8861 14.9741 71.8581
18653 2 10.9851 16.6068 73.0448
18482 2 15.5266 14.9523 70.5411
12885 1 14.6131 16.5846 71.8289
18692 2 12.7974 16.5634 70.512
12757 1 17.3423 14.9741 71.8581
18480 2 18.2537 16.5634 70.512
18479 2 16.4414 16.6069 73.0448
18367 2 20.9829 14.9523 70.5411
12759 1 20.0694 16.5846 71.8289
13378 1 0.971573 18.1946 71.7988
19228 2 1.88268 19.7839 70.4516
18899 2 2.79958 18.2179 73.0154
19227 2 0.070097 19.8279 72.9854
18945 2 4.61196 18.1738 70.4821
13380 1 3.69873 19.8038 71.7674
18897 2 5.52635 19.828 72.9854
13082 1 6.42783 18.1946 71.7988
13080 1 9.15498 19.8038 71.7674
18947 2 7.33892 19.784 70.4516
18654 2 8.25582 18.2179 73.0153
12886 1 11.8841 18.1946 71.7988
18659 2 10.0682 18.1738 70.482
18656 2 10.9826 19.828 72.9854
18481 2 15.5245 18.1739 70.4821
12888 1 14.6112 19.8038 71.7674
18657 2 12.7952 19.7839 70.4516
18458 2 13.7121 18.218 73.0153
12746 1 17.3403 18.1946 71.7988
18483 2 18.2514 19.7839 70.4516
18456 2 16.4388 19.828 72.9854
18360 2 20.9807 18.1739 70.4821
12744 1 20.0675 19.8038 71.7674
18357 2 19.1683 18.2179 73.0154
13341 1 0.969601 21.4124 71.7365
19229 2 1.88046 23.0022 70.3897
18898 2 2.79711 21.4369 72.955
19194 2 0.067919 23.045 72.9245
13339 1 3.69673 23.0201 71.7058
18903 2 4.60974 21.3935 70.4207
18900 2 5.52413 23.045 72.9245
13081 1 6.42585 21.4124 71.7365
13083 1 9.15296 23.0201 71.7058
18901 2 7.33669 23.0022 70.3897
18623 2 8.25335 21.437 72.955
12863 1 11.8821 21.4123 71.7365
18658 2 10.066 21.3934 70.4207
18621 2 10.9803 23.045 72.9246
12861 1 14.6092 23.0201 71.7058
18462 2 15.5222 21.3935 70.4207
18660 2 12.793 23.0022 70.3897
18457 2 13.7095 21.4369 72.9551
12745 1 17.3383 21.4123 71.7366
18460 2 18.2492 23.0022 70.3897
18459 2 16.4366 23.045 72.9246
12747 1 20.0655 23.0201 71.7057
18359 2 20.9784 21.3935 70.4207
18350 2 19.1658 21.4369 72.9551
13340 1 0.967578 24.6271 71.6751
19196 2 1.87782 26.2172 70.3281
19195 2 0.0653521 26.2581 72.864
18863 2 2.79476 24.652 72.8941
13342 1 3.69453 26.2332 71.6447
18902 2 4.60738 24.6101 70.3588
18861 2 5.52159 26.2581 72.8639
13045 1 9.15077 26.2333 71.6447
13047 1 6.4238 24.6271 71.6751
18904 2 7.33409 26.2172 70.3281
18622 2 8.25103 24.652 72.8941
12862 1 11.88 24.6271 71.6751
18627 2 10.0636 24.6101 70.3588
18624 2 10.9778 26.2581 72.8639
12864 1 14.607 26.2333 71.6447
18461 2 15.5198 24.6101 70.3588
18625 2 12.7904 26.2172 70.3281
18438 2 13.7073 24.6521 72.8941
12734 1 17.3363 24.6271 71.6752
18463 2 18.2466 26.2172 70.328
18436 2 16.4341 26.2581 72.864
12732 1 20.0632 26.2332 71.6447
18352 2 20.9761 24.6101 70.3588
18349 2 19.1635 24.6521 72.8941
13311 1 0.965184 27.8385 71.6149
19197 2 1.87479 29.4284 70.2683
18862 2 2.79203 27.8629 72.8342
19170 2 0.0623643 29.4664 72.8054
13309 1 3.6919 29.4428 71.5858
18867 2 4.60454 27.8234 70.2977
18864 2 5.51861 29.4664 72.8055
13046 1 6.42141 27.8385 71.6149
13048 1 9.14814 29.4428 71.5858
18865 2 7.33102 29.4284 70.2684
18592 2 8.24827 27.8629 72.8343
12839 1 11.8776 27.8385 71.6149
18626 2 10.0607 27.8234 70.2978
18590 2 10.9748 29.4664 72.8055
12837 1 14.6044 29.4428 71.5858
18442 2 15.517 27.8234 70.2978
18628 2 12.7873 29.4284 70.2684
18437 2 13.7045 27.8628 72.8343
12733 1 17.3339 27.8385 71.6149
18440 2 18.2435 29.4284 70.2683
18439 2 16.4311 29.4664 72.8054
12735 1 20.0606 29.4429 71.5858
18351 2 20.9732 27.8234 70.2978
18342 2 19.1607 27.8628 72.8343
13310 1 0.962328 31.0462 71.5578
18835 2 2.78888 31.0686 72.7778
18866 2 4.6011 31.0326 70.24
13019 1 6.41857 31.0462 71.5578
18591 2 8.24512 31.0687 72.7777
12838 1 11.8748 31.0462 71.5578
18596 2 10.0574 31.0327 70.24
18441 2 15.5136 31.0327 70.24
18418 2 13.7014 31.0687 72.7777
12722 1 17.331 31.0462 71.5578
18344 2 20.9698 31.0327 70.24
18341 2 19.1576 31.0686 72.7777
19172 2 1.87127 32.6359 70.2132
19171 2 0.0590007 32.6696 72.7513
13289 1 0.959282 34.2499 71.5062
18834 2 2.78551 34.2694 72.7268
13312 1 3.68895 32.6485 71.5312
18833 2 5.5153 32.6697 72.7514
13017 1 9.14517 32.6485 71.5312
18868 2 7.3275 32.636 70.2131
13018 1 6.41553 34.2499 71.5062
18568 2 8.24169 34.2693 72.7268
18593 2 10.9716 32.6697 72.7514
12816 1 11.8718 34.2499 71.5062
12840 1 14.6014 32.6485 71.5312
18594 2 12.7837 32.6359 70.2131
18417 2 13.6979 34.2693 72.7269
18443 2 18.24 32.6359 70.2132
18416 2 16.4277 32.6697 72.7514
12721 1 17.328 34.2499 71.5062
12720 1 20.0577 32.6485 71.5312
18334 2 19.1542 34.2694 72.7269
13288 1 0.956348 37.4501 71.4624
19154 2 0.0555563 35.8682 72.7041
18815 2 2.78216 37.4657 72.6838
13287 1 3.68595 35.8504 71.4831
18836 2 5.51179 35.8681 72.7042
13020 1 9.14218 35.8504 71.4832
12999 1 6.41259 37.4501 71.4624
18567 2 8.23838 37.4657 72.6837
12815 1 11.8688 37.4501 71.4624
18566 2 10.9681 35.8681 72.7042
12814 1 14.5984 35.8504 71.4832
18399 2 13.6946 37.4657 72.6837
12710 1 17.3251 37.4501 71.4624
18419 2 16.4243 35.8682 72.7041
12723 1 20.0547 35.8504 71.4832
18333 2 19.1508 37.4657 72.6838
13275 1 0.953884 40.6473 71.4288
18814 2 2.77933 40.658 72.6507
19155 2 0.0524635 39.0622 72.6658
13290 1 3.68317 39.049 71.4442
18813 2 5.50871 39.0622 72.6658
12997 1 9.13942 39.049 71.4442
12998 1 6.41012 40.6473 71.4288
18552 2 8.2355 40.658 72.6507
12800 1 11.8664 40.6473 71.4288
18569 2 10.965 39.0622 72.6659
12817 1 14.5957 39.049 71.4442
18398 2 13.6917 40.658 72.6506
12709 1 17.3226 40.6473 71.4288
18397 2 16.4212 39.0621 72.6659
12708 1 20.0519 39.049 71.4442
18326 2 19.148 40.658 72.6506
13274 1 0.95223 43.8423 71.4072
18803 2 2.77739 43.8474 72.6294
19146 2 0.0501608 42.2529 72.6385
13273 1 3.68103 42.245 71.4164
18816 2 5.50639 42.2529 72.6385
12987 1 6.40847 43.8423 71.4072
13000 1 9.13727 42.245 71.4164
18551 2 8.23369 43.8474 72.6294
12799 1 11.8647 43.8423 71.4072
18550 2 10.9627 42.253 72.6385
12798 1 14.5935 42.245 71.4164
18387 2 13.6899 43.8474 72.6295
12699 1 17.3209 43.8423 71.4072
18400 2 16.4189 42.253 72.6385
12711 1 20.0498 42.245 71.4164
18325 2 19.146 43.8474 72.6295
13269 1 0.951623 47.0361 71.399
18802 2 2.77674 47.0353 72.6213
19147 2 0.0488198 45.4415 72.6237
13276 1 3.67988 45.4393 71.4014
18801 2 5.5051 45.4415 72.6237
12985 1 9.13611 45.4393 71.4014
12986 1 6.40788 47.0361 71.399
18544 2 8.23294 47.0353 72.6213
12792 1 11.8641 47.0361 71.399
18553 2 10.9613 45.4414 72.6238
12801 1 14.5924 45.4393 71.4014
18386 2 13.6892 47.0353 72.6213
12698 1 17.3204 47.0361 71.399
18385 2 16.4175 45.4414 72.6237
12697 1 20.0486 45.4393 71.4014
18319 2 19.1455 47.0353 72.6213
13268 1 0.952178 50.2298 71.4048
18796 2 2.77745 50.2231 72.627
19145 2 0.0487793 48.6291 72.6225
13267 1 3.67987 48.6329 71.4002
18804 2 5.50504 48.6291 72.6224
12980 1 6.40843 50.2298 71.4048
12988 1 9.13609 48.6329 71.4002
18543 2 8.23365 50.2231 72.6269
12791 1 11.8647 50.2298 71.4048
18542 2 10.9613 48.6291 72.6224
12790 1 14.5923 48.6329 71.4001
18380 2 13.6899 50.2231 72.627
12692 1 17.3209 50.2298 71.4047
18388 2 16.4175 48.6291 72.6225
12700 1 20.0486 48.6329 71.4002
18318 2 19.1462 50.2231 72.6271
13466 1 1.83627 0.511427 74.7277
18982 2 0.971617 2.12907 75.7446
19026 2 2.81051 2.08836 73.2704
19361 2 0.0833707 0.474143 73.29
13150 1 4.5634 2.12537 74.708
19024 2 3.70084 0.513849 75.7641
19025 2 5.5396 0.474145 73.29
13184 1 7.29251 0.511431 74.7277
18713 2 9.15708 0.513843 75.7641
18714 2 6.42786 2.12905 75.7446
18718 2 8.26675 2.08836 73.2704
12930 1 10.0196 2.12537 74.708
18494 2 11.8841 2.12906 75.7446
18744 2 10.9958 0.474133 73.29
12766 1 15.4759 2.12537 74.708
12929 1 12.7488 0.511431 74.7277
18512 2 14.6133 0.51384 75.7641
18514 2 13.723 2.08837 73.2704
12776 1 18.205 0.511427 74.7277
18370 2 17.3403 2.12908 75.7446
18513 2 16.4521 0.474132 73.2901
12688 1 20.9321 2.12537 74.708
18369 2 20.0696 0.513847 75.7641
18373 2 19.1792 2.08837 73.2704
13467 1 1.83431 3.73896 74.6872
18981 2 0.969371 5.35875 75.7022
18986 2 2.80848 5.31644 73.2276
19313 2 0.0813948 3.70249 73.2496
13149 1 4.56153 5.35216 74.6652
18980 2 3.69861 3.74403 75.724
19027 2 5.53765 3.70249 73.2495
13148 1 7.29056 3.73897 74.6872
18683 2 6.42562 5.35876 75.7022
18715 2 9.15485 3.74404 75.724
18717 2 8.26472 5.31643 73.2277
12907 1 10.0178 5.35215 74.6652
18493 2 11.8818 5.35876 75.7022
18716 2 10.9939 3.70247 73.2496
12765 1 15.474 5.35215 74.6652
12931 1 12.7468 3.73896 74.6872
18492 2 14.6111 3.74404 75.724
18498 2 13.7209 5.31643 73.2276
12764 1 18.203 3.73895 74.6872
18363 2 17.3381 5.35875 75.7022
18515 2 16.4501 3.70247 73.2496
12687 1 20.9302 5.35215 74.6652
18371 2 20.0673 3.74403 75.724
18372 2 19.1772 5.31643 73.2276
13420 1 1.83255 6.96487 74.6421
18938 2 0.967167 8.58732 75.6556
18985 2 2.80636 8.54394 73.1804
19314 2 0.0792807 6.93024 73.2045
13114 1 4.55985 8.57718 74.6178
18983 2 3.69638 6.97323 75.6794
18984 2 5.53555 6.93024 73.2045
13151 1 7.28878 6.96486 74.6421
18681 2 9.15262 6.97322 75.6794
18682 2 6.4234 8.58731 75.6555
18687 2 8.26257 8.54393 73.1804
12906 1 10.0161 8.57718 74.6178
18474 2 11.8796 8.5873 75.6556
18719 2 10.9918 6.93025 73.2045
12754 1 15.4723 8.57718 74.6178
12905 1 12.745 6.96486 74.6421
18495 2 14.6089 6.97321 75.6794
18497 2 13.7188 8.54392 73.1803
12767 1 18.2013 6.96487 74.6421
18362 2 17.3359 8.58731 75.6556
18496 2 16.448 6.93024 73.2045
12686 1 20.9286 8.57717 74.6178
18361 2 20.0651 6.97322 75.6794
18366 2 19.1751 8.54394 73.1803
13421 1 1.83097 10.189 74.5926
18937 2 0.965094 11.814 75.6049
18942 2 2.80419 11.7705 73.1289
19266 2 0.0771828 10.1574 73.1551
13113 1 4.55844 11.8003 74.5663
18936 2 3.69422 10.201 75.6307
18987 2 5.53341 10.1574 73.1551
13112 1 7.28721 10.189 74.5926
18651 2 6.42132 11.814 75.6049
18684 2 9.15046 10.201 75.6307
18686 2 8.26046 11.7705 73.1288
12883 1 10.0147 11.8003 74.5663
18473 2 11.8776 11.8141 75.6049
18685 2 10.9897 10.1574 73.1551
12753 1 15.4709 11.8003 74.5663
12908 1 12.7434 10.189 74.5926
18472 2 14.6067 10.201 75.6307
18478 2 13.7167 11.7705 73.1288
12752 1 18.1997 10.189 74.5926
18355 2 17.3338 11.8141 75.6049
18499 2 16.4459 10.1574 73.1551
12685 1 20.9272 11.8003 74.5663
18364 2 20.0629 10.201 75.6307
18365 2 19.1729 11.7705 73.1289
13375 1 1.82981 13.411 74.5392
19267 2 0.0749663 13.3831 73.1017
18939 2 3.69223 13.4265 75.5781
18940 2 5.53121 13.3831 73.1016
13115 1 7.28605 13.411 74.5392
18649 2 9.14849 13.4266 75.5781
18688 2 10.9874 13.3831 73.1017
12881 1 12.7423 13.411 74.5392
18475 2 14.6047 13.4266 75.5781
12755 1 18.1985 13.411 74.5392
18476 2 16.4436 13.3831 73.1017
18353 2 20.0609 13.4265 75.5782
18895 2 0.963145 15.0384 75.5507
18941 2 2.80183 14.9952 73.0736
13376 1 1.82923 16.6306 74.4823
13078 1 4.55763 15.0212 74.5111
18893 2 3.69039 16.6495 75.5225
18650 2 6.41938 15.0384 75.5507
18655 2 8.25806 14.9952 73.0736
13076 1 7.28546 16.6306 74.4824
18652 2 9.14662 16.6495 75.5225
12882 1 10.0139 15.0212 74.5111
18454 2 11.8756 15.0384 75.5507
12742 1 15.4701 15.0212 74.5111
18477 2 13.7143 14.9952 73.0736
12884 1 12.7417 16.6306 74.4824
18452 2 14.6029 16.6495 75.5226
18354 2 17.3319 15.0384 75.5507
12740 1 18.1979 16.6306 74.4823
12684 1 20.9263 15.0212 74.5111
18358 2 19.1706 14.9953 73.0736
18356 2 20.0591 16.6495 75.5225
18894 2 0.96144 18.2598 75.4941
13337 1 1.82958 19.8472 74.4232
13077 1 4.55731 18.2394 74.453
18896 2 3.6888 19.869 75.4656
18619 2 6.41768 18.2598 75.4941
13079 1 7.28581 19.8472 74.4232
18617 2 9.14504 19.869 75.4657
12859 1 10.0135 18.2394 74.453
18453 2 11.8739 18.2598 75.4941
12741 1 15.4698 18.2394 74.453
12857 1 12.7421 19.8472 74.4232
18455 2 14.6013 19.869 75.4656
18347 2 17.3302 18.2597 75.4941
12743 1 18.1983 19.8472 74.4232
12683 1 20.926 18.2394 74.453
18345 2 20.0575 19.8691 75.4656
13338 1 1.82999 23.0598 74.3625
18859 2 0.959943 21.4772 75.4362
13043 1 4.55784 21.4539 74.3929
18857 2 3.68747 23.0844 75.4061
13041 1 7.28624 23.0598 74.3625
18618 2 6.41615 21.4772 75.4362
18620 2 9.14369 23.0844 75.4061
12858 1 10.0141 21.4539 74.3929
18434 2 11.8724 21.4772 75.4361
12730 1 15.4703 21.4538 74.3929
12860 1 12.7425 23.0598 74.3625
18432 2 14.5999 23.0844 75.4062
12728 1 18.1987 23.0598 74.3625
18346 2 17.3287 21.4773 75.4361
12682 1 20.9265 21.4538 74.3929
18348 2 20.0562 23.0844 75.4062
13307 1 1.83064 26.2696 74.3016
18858 2 0.958665 24.6903 75.3763
13042 1 4.55836 24.6651 74.3318
18860 2 3.68612 26.295 75.3469
13044 1 7.28691 26.2696 74.3016
18586 2 9.1423 26.295 75.3469
18588 2 6.41492 24.6903 75.3763
12835 1 10.0146 24.6651 74.3318
18433 2 11.8711 24.6903 75.3764
12729 1 15.4708 24.6651 74.3318
12833 1 12.7432 26.2696 74.3016
18435 2 14.5986 26.295 75.3468
12731 1 18.1994 26.2696 74.3016
18339 2 17.3274 24.6903 75.3764
12681 1 20.9271 24.6651 74.3318
18337 2 20.0549 26.295 75.3468
13308 1 1.8317 29.4762 74.2431
18831 2 0.957267 27.8985 75.318
13015 1 4.55932 27.8734 74.2719
18829 2 3.68462 29.5007 75.29
13013 1 7.28791 29.4761 74.2431
18587 2 6.41355 27.8985 75.318
18589 2 9.14085 29.5007 75.2901
12834 1 10.0156 27.8734 74.2719
18414 2 11.8698 27.8986 75.318
12718 1 15.4718 27.8734 74.2719
12836 1 12.7441 29.4761 74.2431
18412 2 14.5971 29.5006 75.2901
12716 1 18.2004 29.4761 74.2431
18338 2 17.326 27.8985 75.318
12680 1 20.928 27.8734 74.2719
18340 2 20.0533 29.5007 75.29
18830 2 0.955711 31.1014 75.2632
13014 1 4.56029 31.0778 74.2153
18564 2 6.4119 31.1014 75.2632
12812 1 10.0166 31.0779 74.2153
18413 2 11.8681 31.1014 75.2632
12717 1 15.4728 31.0779 74.2153
18331 2 17.3244 31.1014 75.2632
12679 1 20.929 31.0778 74.2153
13285 1 1.8327 32.6785 74.189
18811 2 0.953816 34.2983 75.2138
18832 2 3.68283 32.7006 75.2376
12995 1 4.56134 34.2781 74.1642
13016 1 7.28895 32.6785 74.1889
18562 2 9.13912 32.7006 75.2376
18563 2 6.41008 34.2984 75.2137
12811 1 10.0176 34.278 74.1642
18395 2 11.8663 34.2984 75.2137
12810 1 12.7452 32.6786 74.1889
18415 2 14.5954 32.7006 75.2376
12706 1 15.4738 34.278 74.1642
12719 1 18.2014 32.6785 74.1889
18330 2 17.3225 34.2983 75.2138
18329 2 20.0516 32.7006 75.2376
12678 1 20.93 34.278 74.1642
13286 1 1.83366 35.8766 74.1414
18810 2 0.952009 37.4899 75.1721
18809 2 3.68103 35.8948 75.1918
12994 1 4.56222 37.474 74.1207
12993 1 7.28984 35.8766 74.1414
18565 2 9.13727 35.8947 75.1919
18548 2 6.40823 37.4899 75.1721
12796 1 10.0185 37.4741 74.1207
18394 2 11.8644 37.4899 75.172
12813 1 12.7461 35.8766 74.1414
18393 2 14.5935 35.8947 75.192
12705 1 15.4748 37.4741 74.1207
12704 1 18.2024 35.8766 74.1414
18323 2 17.3207 37.49 75.172
18332 2 20.0497 35.8947 75.1919
12677 1 20.9309 37.474 74.1207
13271 1 1.83449 39.0707 74.1027
18799 2 0.950477 40.6768 75.1402
12983 1 4.56297 40.6664 74.0874
18812 2 3.67927 39.0839 75.1549
12996 1 7.2907 39.0707 74.1027
18546 2 9.13557 39.0839 75.1549
18547 2 6.40675 40.6767 75.1402
12795 1 10.0192 40.6664 74.0874
18383 2 11.8629 40.6767 75.1402
12695 1 15.4755 40.6664 74.0874
12794 1 12.7469 39.0707 74.1027
18396 2 14.5919 39.0839 75.1549
12707 1 18.2031 39.0706 74.1027
18322 2 17.3191 40.6767 75.1402
12676 1 20.9317 40.6664 74.0874
18321 2 20.048 39.0839 75.1549
13272 1 1.83526 42.2614 74.0751
18798 2 0.949434 43.8599 75.1198
12982 1 4.56366 43.856 74.066
18797 2 3.67803 42.2686 75.1284
12981 1 7.29149 42.2615 74.0751
18540 2 6.40567 43.8599 75.1198
18549 2 9.13426 42.2686 75.1284
12788 1 10.0199 43.856 74.066
18382 2 11.8619 43.8598 75.1198
12694 1 15.4762 43.856 74.066
12797 1 12.7477 42.2615 74.0751
18381 2 14.5905 42.2686 75.1285
12693 1 18.2039 42.2615 74.0751
18316 2 17.3182 43.8598 75.1198
12675 1 20.9324 43.856 74.066
18324 2 20.0468 42.2687 75.1285
13265 1 1.83584 45.4502 74.0602
18795 2 0.949282 47.041 75.112
12979 1 4.56417 47.0441 74.0579
18800 2 3.67745 45.4506 75.1143
18539 2 6.4055 47.041 75.112
18538 2 9.13367 45.4506 75.1143
12984 1 7.29208 45.4502 74.0602
12787 1 10.0204 47.044 74.0579
18379 2 11.8618 47.041 75.112
12691 1 15.4766 47.044 74.0578
12786 1 12.7483 45.4502 74.0602
18384 2 14.5899 45.4506 75.1142
12696 1 18.2046 45.4502 74.0602
18315 2 17.318 47.041 75.112
12674 1 20.9329 47.0441 74.0578
18314 2 20.0461 45.4506 75.1142
13266 1 1.83628 48.638 74.0589
18794 2 0.949856 50.222 75.1173
12978 1 4.56453 50.232 74.0635
18793 2 3.67758 48.6314 75.113
18541 2 9.13382 48.6314 75.1131
18537 2 6.4061 50.222 75.1173
12977 1 7.29249 48.638 74.0589
18378 2 11.8623 50.222 75.1174
12785 1 10.0208 50.232 74.0635
18377 2 14.59 48.6314 75.1131
12789 1 12.7488 48.6379 74.059
12690 1 15.477 50.2321 74.0635
18313 2 17.3186 50.222 75.1174
12689 1 18.205 48.6379 74.0589
18317 2 20.0462 48.6314 75.113
12673 1 20.9332 50.232 74.0635
10351 2 2.76509 51.6847 -4.0678
10343 2 0.934603 51.6834 -1.57427
10366 2 0.0361905 53.2756 -4.06075
4096 1 1.8768 53.2622 -3.00887
4062 1 4.60617 51.6738 -3.016
10352 2 5.49247 53.2756 -4.06072
10341 2 3.66221 53.2722 -1.56697
10254 2 8.22136 51.6847 -4.06776
10250 2 6.39083 51.6834 -1.57433
10251 2 9.1184 53.2722 -1.56702
4060 1 7.33302 53.2622 -3.00887
3935 1 10.0624 51.6738 -3.01601
10055 2 11.8471 51.6834 -1.57428
10252 2 10.9487 53.2757 -4.06074
3710 1 15.5186 51.6738 -3.01602
10063 2 13.6776 51.6847 -4.06776
3936 1 12.7893 53.2622 -3.00887
10053 2 14.5746 53.2723 -1.5671
9773 2 17.3033 51.6834 -1.57422
3708 1 18.2455 53.2622 -3.00887
10064 2 16.4049 53.2756 -4.06077
3392 1 20.9749 51.6738 -3.01601
9776 2 19.1339 51.6848 -4.0678
9774 2 20.0309 53.2722 -1.56705
10347 2 2.76335 54.8661 -4.05178
10342 2 0.933369 54.8607 -1.55759
4061 1 4.60337 54.8504 -2.99966
10253 2 8.21958 54.8661 -4.05173
10242 2 6.38963 54.8607 -1.55771
3931 1 10.0596 54.8504 -2.99967
10054 2 11.8459 54.8607 -1.55774
3709 1 15.5158 54.8504 -2.99967
10059 2 13.6759 54.8661 -4.05162
9767 2 17.3021 54.8607 -1.55762
3391 1 20.972 54.8504 -2.99967
9775 2 19.1321 54.8661 -4.05167
10367 2 0.0341006 56.456 -4.04069
10346 2 2.7609 58.0452 -4.02782
10332 2 0.931833 58.0357 -1.53317
4092 1 1.87332 56.4382 -2.98848
10345 2 5.49038 56.456 -4.04065
10344 2 3.6608 56.4486 -1.54631
4054 1 4.59927 58.0254 -2.97539
10246 2 8.21712 58.0452 -4.02789
10241 2 6.388 58.0357 -1.53317
4063 1 7.32953 56.4381 -2.98848
10240 2 9.11706 56.4486 -1.5463
10255 2 10.9466 56.456 -4.04067
3930 1 10.0555 58.0255 -2.97539
10043 2 11.8443 58.0357 -1.53315
3702 1 15.5118 58.0254 -2.97541
3929 1 12.7858 56.4381 -2.98847
10056 2 14.5732 56.4485 -1.54639
10058 2 13.6734 58.0452 -4.02787
3711 1 18.2421 56.4382 -2.98847
9766 2 17.3006 58.0358 -1.53316
10057 2 16.4028 56.456 -4.04071
3390 1 20.968 58.0254 -2.9754
9765 2 20.0295 56.4486 -1.5464
9770 2 19.1297 58.0452 -4.02781
10364 2 0.0313907 59.6337 -4.01332
10336 2 2.75794 61.2214 -3.99712
10331 2 0.930021 61.2079 -1.50168
4093 1 1.86875 59.6122 -2.96057
10348 2 5.48764 59.6338 -4.01327
10330 2 3.65905 59.6222 -1.51823
4053 1 4.59422 61.1983 -2.94411
10245 2 8.2141 61.2214 -3.99715
10243 2 9.11538 59.6222 -1.51821
4052 1 7.32497 59.6122 -2.96059
10226 2 6.38626 61.2079 -1.5017
10244 2 10.9438 59.6337 -4.01324
3919 1 10.0505 61.1983 -2.9441
10042 2 11.8425 61.2079 -1.5017
3701 1 15.5067 61.1983 -2.94408
3932 1 12.7812 59.6122 -2.96057
10041 2 14.5716 59.6222 -1.51815
10047 2 13.6704 61.2214 -3.99718
3700 1 18.2375 59.6122 -2.96055
9753 2 17.2987 61.2079 -1.50168
10060 2 16.4001 59.6337 -4.01328
3383 1 20.9629 61.1983 -2.94409
9768 2 20.0277 59.6222 -1.51818
9769 2 19.1267 61.2214 -3.99715
10365 2 0.0281615 62.8081 -3.97956
10335 2 2.75457 64.3938 -3.96065
10320 2 0.927894 64.3766 -1.46413
4088 1 1.86327 62.7837 -2.9261
10334 2 5.4844 62.808 -3.97955
10333 2 3.65708 62.7927 -1.48366
4039 1 4.58833 64.3684 -2.90676
4055 1 7.3195 62.7837 -2.92612
10224 2 9.11339 62.7927 -1.48361
10225 2 6.38418 64.3767 -1.46412
10230 2 8.21076 64.3938 -3.96067
10247 2 10.9407 62.8081 -3.97951
3918 1 10.0446 64.3684 -2.90676
10023 2 11.8404 64.3767 -1.46418
3686 1 15.5008 64.3684 -2.90674
3917 1 12.7757 62.7837 -2.92611
10044 2 14.5697 62.7928 -1.48356
10046 2 13.667 64.3938 -3.96066
3703 1 18.232 62.7837 -2.9261
9752 2 17.2966 64.3766 -1.46418
10045 2 16.3969 62.8081 -3.97952
3382 1 20.957 64.3684 -2.90674
9751 2 20.0258 62.7927 -1.48361
9756 2 19.1233 64.3938 -3.96064
10362 2 0.0246302 65.9786 -3.94061
10324 2 2.75077 67.5622 -3.91952
10319 2 0.925647 67.5416 -1.42194
4089 1 1.85701 65.9522 -2.88621
10337 2 5.48085 65.9786 -3.94059
10318 2 3.6549 65.9596 -1.44352
4038 1 4.5818 67.5351 -2.86463
4037 1 7.31325 65.9522 -2.88621
10203 2 6.38191 67.5416 -1.42189
10227 2 9.11113 65.9596 -1.44353
10229 2 8.20702 67.5622 -3.91952
3899 1 10.038 67.5351 -2.86464
10022 2 11.8381 67.5416 -1.42184
10228 2 10.9371 65.9785 -3.94055
3685 1 15.4943 67.5352 -2.86465
3920 1 12.7695 65.9522 -2.88622
10021 2 14.5674 65.9595 -1.44352
10027 2 13.6633 67.5622 -3.91953
3684 1 18.2257 65.9522 -2.88622
9731 2 17.2943 67.5416 -1.42189
10048 2 16.3934 65.9786 -3.94057
3367 1 20.9505 67.5352 -2.86464
9754 2 20.0236 65.9595 -1.44351
9755 2 19.1195 67.5622 -3.91953
10363 2 0.0206767 69.1446 -3.89756
10323 2 2.74672 70.726 -3.87508
10308 2 0.923209 70.7026 -1.37613
4084 1 1.85017 69.1171 -2.84215
10322 2 5.47692 69.1447 -3.8976
10321 2 3.6526 69.1226 -1.39935
4023 1 4.57474 70.6982 -2.81892
4040 1 7.30643 69.1171 -2.84215
10201 2 9.10881 69.1226 -1.39934
10202 2 6.37949 70.7026 -1.37621
10207 2 8.20294 70.726 -3.87505
3898 1 10.031 70.6981 -2.81893
9995 2 11.8358 70.7026 -1.37614
10231 2 10.9331 69.1447 -3.8976
3662 1 15.4872 70.6981 -2.81892
3897 1 12.7627 69.1171 -2.84215
10024 2 14.565 69.1226 -1.39943
10026 2 13.6592 70.726 -3.87501
3687 1 18.2189 69.1171 -2.84215
9730 2 17.292 70.7026 -1.37606
10025 2 16.3894 69.1446 -3.89756
3366 1 20.9434 70.6981 -2.81891
9729 2 20.0213 69.1227 -1.39944
9734 2 19.1155 70.726 -3.87504
10360 2 0.0165199 72.3062 -3.85201
10312 2 2.74248 73.8854 -3.82847
10307 2 0.920718 73.8598 -1.32817
4085 1 1.84289 72.2782 -2.79512
10325 2 5.47274 72.3062 -3.85197
10306 2 3.65015 72.2817 -1.35239
4022 1 4.5672 73.8573 -2.77089
4021 1 7.29912 72.2782 -2.7951
10179 2 6.37691 73.8598 -1.32812
10204 2 9.10633 72.2817 -1.35233
10206 2 8.19875 73.8854 -3.82851
3872 1 10.0235 73.8574 -2.77091
9994 2 11.8332 73.8598 -1.32813
10205 2 10.929 72.3062 -3.852
3661 1 15.4797 73.8574 -2.77092
3900 1 12.7554 72.2782 -2.7951
9993 2 14.5625 72.2816 -1.35231
9999 2 13.655 73.8854 -3.82854
3660 1 18.2116 72.2782 -2.79511
9701 2 17.2894 73.8598 -1.32818
10028 2 16.3852 72.3063 -3.85204
3343 1 20.9359 73.8574 -2.77091
9732 2 20.0188 72.2817 -1.35237
9733 2 19.1112 73.8854 -3.82851
10361 2 0.0121685 75.4634 -3.80471
4080 1 1.83528 75.4356 -2.74648
10311 2 2.73803 77.0405 -3.78067
10296 2 0.917971 77.0132 -1.27921
10310 2 5.46839 75.4635 -3.80472
10309 2 3.64744 75.4369 -1.30374
4007 1 4.55957 77.0129 -2.72201
4024 1 7.29153 75.4356 -2.74649
10177 2 9.10369 75.437 -1.3038
10178 2 6.37425 77.0132 -1.2792
10183 2 8.19426 77.0404 -3.78063
10208 2 10.9246 75.4635 -3.80467
3871 1 10.0158 77.0128 -2.72201
9960 2 11.8304 77.0132 -1.27921
3870 1 12.7477 75.4356 -2.74649
9996 2 14.56 75.437 -1.30376
3630 1 15.472 77.0129 -2.72199
9998 2 13.6505 77.0405 -3.78064
3663 1 18.204 75.4356 -2.74648
9997 2 16.3809 75.4634 -3.80466
9700 2 17.2866 77.0132 -1.27922
9699 2 20.0162 75.4369 -1.30369
3342 1 20.9283 77.0129 -2.72199
9704 2 19.1067 77.0405 -3.78069
10358 2 0.00761192 78.6164 -3.75661
4081 1 1.82767 78.5892 -2.69757
10313 2 5.46385 78.6164 -3.7566
10294 2 3.64469 78.5886 -1.25465
4005 1 7.2839 78.5892 -2.69756
10180 2 9.1009 78.5885 -1.25464
10181 2 10.9201 78.6164 -3.75659
3873 1 12.7401 78.5892 -2.69757
9958 2 14.5572 78.5885 -1.25463
3628 1 18.1964 78.5892 -2.69757
10000 2 16.3764 78.6164 -3.7566
9702 2 20.0134 78.5886 -1.25464
10300 2 2.73348 80.1912 -3.73267
10295 2 0.915121 80.1632 -1.23018
4076 1 1.82026 81.7393 -2.64917
10298 2 5.4594 81.7651 -3.70896
4006 1 4.55205 80.1647 -2.67326
4008 1 7.27648 81.7393 -2.64917
10155 2 6.37136 80.1632 -1.23019
10182 2 8.18974 80.1912 -3.73271
3844 1 10.0083 80.1647 -2.67327
9959 2 11.8276 80.1631 -1.23024
10184 2 10.9157 81.7651 -3.70899
3629 1 15.4645 80.1647 -2.67327
3842 1 12.7327 81.7393 -2.64918
9964 2 13.646 80.1913 -3.73271
3631 1 18.189 81.7393 -2.64917
9663 2 17.2839 80.1632 -1.23023
9962 2 16.3718 81.7651 -3.70896
10359 2 21.8281 81.7651 -3.70893
3311 1 20.9208 80.1647 -2.67326
9703 2 19.1022 80.1912 -3.73267
10299 2 2.7291 83.3382 -3.68557
4077 1 1.81322 84.8862 -2.602
10301 2 5.45516 84.9104 -3.6627
3991 1 4.54478 83.3132 -2.62536
3989 1 7.26945 84.8862 -2.60199
10159 2 8.18535 83.3382 -3.68559
3843 1 10.001 83.3132 -2.62536
10157 2 10.9114 84.9104 -3.66269
3591 1 15.4573 83.3132 -2.62537
3845 1 12.7257 84.8862 -2.60198
9963 2 13.6416 83.3381 -3.68559
3589 1 18.1819 84.8862 -2.60198
9965 2 16.3676 84.9104 -3.66271
10356 2 21.8239 84.9105 -3.66271
3310 1 20.9135 83.3131 -2.62538
9666 2 19.0978 83.3381 -3.68557
10288 2 2.72504 86.482 -3.64029
4072 1 1.80678 88.0304 -2.55688
10286 2 5.45122 88.0528 -3.61845
3990 1 4.53803 86.4586 -2.57914
3992 1 7.26304 88.0304 -2.55688
10158 2 8.18128 86.482 -3.64027
3816 1 9.99425 86.4586 -2.57912
10160 2 10.9075 88.0529 -3.61846
3590 1 15.4505 86.4587 -2.57914
3814 1 12.7193 88.0304 -2.55689
9928 2 13.6375 86.482 -3.64031
3592 1 18.1755 88.0304 -2.55689
9926 2 16.3637 88.0528 -3.61842
10357 2 21.8199 88.0528 -3.61841
3271 1 20.9068 86.4587 -2.57916
9665 2 19.0938 86.482 -3.64033
10287 2 2.72123 89.6231 -3.59722
4073 1 1.80116 91.1721 -2.5145
10289 2 5.44753 91.1926 -3.57662
3975 1 4.53201 89.6016 -2.53531
3973 1 7.2574 91.1722 -2.51449
10135 2 8.17747 89.623 -3.59721
3815 1 9.98826 89.6016 -2.53533
10133 2 10.9038 91.1926 -3.57658
3551 1 15.4445 89.6016 -2.5353
3817 1 12.7136 91.1721 -2.51448
9927 2 13.6337 89.623 -3.59713
3549 1 18.1699 91.1721 -2.51449
9929 2 16.36 91.1927 -3.5766
10354 2 21.8163 91.1927 -3.57664
3270 1 20.9007 89.6015 -2.53529
9621 2 19.0899 89.623 -3.59714
10276 2 2.71773 92.7617 -3.55685
4068 1 1.79631 94.3118 -2.47529
10274 2 5.44427 94.3303 -3.53791
3974 1 4.52676 92.7422 -2.49446
3976 1 7.25254 94.3118 -2.47528
10134 2 8.17397 92.7617 -3.55685
3788 1 9.98299 92.7422 -2.49446
10136 2 10.9005 94.3303 -3.53794
3550 1 15.4392 92.7422 -2.49447
3786 1 12.7088 94.3118 -2.47529
9892 2 13.6302 92.7617 -3.55689
3552 1 18.165 94.3118 -2.47529
9890 2 16.3568 94.3303 -3.53796
10355 2 21.813 94.3302 -3.53792
3224 1 20.8955 92.7422 -2.49447
9620 2 19.0865 92.7618 -3.55689
10275 2 2.71469 95.8983 -3.5198
4069 1 1.79211 97.4496 -2.43961
3960 1 4.52224 95.8809 -2.45699
10277 2 5.44149 97.4661 -3.50264
3958 1 7.24834 97.4496 -2.43962
10112 2 8.17092 95.8984 -3.51981
3787 1 9.97847 95.8809 -2.45698
10110 2 10.8977 97.4661 -3.50265
3512 1 15.4347 95.8809 -2.45699
3789 1 12.7046 97.4496 -2.43962
9891 2 13.6272 95.8984 -3.51983
3510 1 18.1608 97.4496 -2.43961
9893 2 16.3539 97.4661 -3.50266
10353 2 21.8102 97.4661 -3.50265
3223 1 20.891 95.8809 -2.457
9575 2 19.0834 95.8983 -3.51982
10265 2 2.71216 99.0335 -3.4865
6143 1 1.78868 100.586 -2.40786
3959 1 4.51842 99.018 -2.42324
12526 2 5.43918 100.601 -3.4713
10111 2 8.1684 99.0335 -3.48649
6112 1 7.24491 100.586 -2.40786
3761 1 9.97466 99.018 -2.42324
12432 2 10.8954 100.601 -3.47128
3511 1 15.4309 99.018 -2.42323
9857 2 13.6246 99.0335 -3.48647
5982 1 12.7011 100.586 -2.40786
12238 2 16.3517 100.601 -3.47129
5760 1 18.1574 100.586 -2.40786
3176 1 20.8871 99.018 -2.42323
9574 2 19.0809 99.0335 -3.48648
12544 2 21.8079 100.601 -3.47131
4058 1 2.7584 51.6765 -0.355535
10340 2 1.84559 53.2642 0.978814
4090 1 0.0296438 53.2635 -0.348252
10238 2 4.5742 51.678 0.971416
4059 1 5.48587 53.2635 -0.348234
3927 1 8.21465 51.6765 -0.355518
10236 2 7.30179 53.2642 0.97875
10051 2 10.0305 51.678 0.971383
3925 1 10.9421 53.2635 -0.348212
3706 1 13.6709 51.6765 -0.355497
9763 2 15.4867 51.678 0.971338
10052 2 12.758 53.2642 0.97878
3707 1 16.3984 53.2635 -0.34823
9761 2 18.2143 53.2642 0.978845
3389 1 19.1271 51.6765 -0.355514
9408 2 20.9429 51.678 0.971371
4050 1 2.75703 54.8501 -0.338862
10237 2 4.57301 54.8501 0.988402
3926 1 8.21328 54.8501 -0.338866
10039 2 10.0292 54.8501 0.988412
3698 1 13.6695 54.8501 -0.338863
9762 2 15.4855 54.8501 0.988379
3388 1 19.1257 54.8501 -0.338859
9407 2 20.9417 54.8501 0.98837
10328 2 1.84412 56.4355 0.999939
4049 1 2.75522 58.0219 -0.314286
4091 1 0.0280771 56.4363 -0.32753
4048 1 5.4843 56.4363 -0.327522
10222 2 4.57138 58.0204 1.01338
3915 1 8.21145 58.0219 -0.314257
10239 2 7.30033 56.4355 0.999907
3928 1 10.9405 56.4363 -0.32752
10038 2 10.0276 58.0204 1.0134
3697 1 13.6677 58.0219 -0.314272
9749 2 15.4838 58.0204 1.0134
10037 2 12.7566 56.4355 0.999896
3696 1 16.3968 56.4363 -0.327528
9764 2 18.2128 56.4355 0.999928
3381 1 19.1239 58.0219 -0.314301
9406 2 20.9401 58.0204 1.01338
10329 2 1.84228 59.6046 1.02868
4035 1 2.75295 61.1913 -0.282558
4086 1 0.0260066 59.6069 -0.299258
4051 1 5.48225 59.6069 -0.299219
10221 2 4.56936 61.1881 1.04553
3914 1 8.20918 61.1913 -0.282524
10220 2 7.29849 59.6047 1.02865
3913 1 10.9385 59.6069 -0.299233
10019 2 10.0256 61.1881 1.04556
3682 1 13.6654 61.1913 -0.282545
9748 2 15.4818 61.1882 1.04559
10040 2 12.7547 59.6046 1.0286
3699 1 16.3947 59.6069 -0.299272
9747 2 18.211 59.6046 1.02863
3380 1 19.1217 61.1913 -0.282579
9399 2 20.9381 61.1881 1.04557
10316 2 1.84013 62.771 1.06405
4034 1 2.75038 64.358 -0.244823
4087 1 0.0235915 62.775 -0.264384
4033 1 5.47984 62.775 -0.264375
10199 2 4.56706 64.3531 1.08382
3895 1 8.2066 64.358 -0.244836
10223 2 7.2964 62.7709 1.06402
3916 1 10.9361 62.775 -0.264368
10018 2 10.0234 64.3531 1.08385
3681 1 13.6629 64.3579 -0.244825
9727 2 15.4796 64.353 1.0838
10017 2 12.7526 62.771 1.06396
3680 1 16.3923 62.775 -0.264376
9750 2 18.2088 62.771 1.06399
3365 1 19.1191 64.358 -0.244811
9398 2 20.9358 64.3531 1.08377
10317 2 1.8378 65.9344 1.1048
4019 1 2.74753 67.5214 -0.202243
4082 1 0.0208738 65.9401 -0.224059
4036 1 5.47712 65.9401 -0.224065
10198 2 4.56463 67.5149 1.12691
3894 1 8.20375 67.5214 -0.202259
10197 2 7.294 65.9344 1.10486
3893 1 10.9334 65.9401 -0.224064
9991 2 10.0209 67.5149 1.12694
3658 1 13.66 67.5214 -0.202248
9726 2 15.4771 67.5149 1.12694
10020 2 12.7502 65.9344 1.10485
3683 1 16.3896 65.9401 -0.224057
9725 2 18.2065 65.9344 1.1048
3364 1 19.1162 67.5214 -0.202232
9383 2 20.9334 67.5149 1.12691
10304 2 1.83519 69.0946 1.14988
4018 1 2.7444 70.6815 -0.156112
4083 1 0.0178879 69.1019 -0.179537
4017 1 5.4741 69.1019 -0.179543
10175 2 4.56197 70.6735 1.17355
3868 1 8.20065 70.6815 -0.156117
10200 2 7.29149 69.0946 1.14985
3896 1 10.9304 69.1019 -0.179558
9990 2 10.0182 70.6735 1.17354
3657 1 13.6569 70.6816 -0.156141
9697 2 15.4744 70.6735 1.17359
9989 2 12.7477 69.0946 1.14985
3656 1 16.3866 69.1019 -0.179553
9728 2 18.2039 69.0946 1.14989
3341 1 19.1131 70.6816 -0.156136
9382 2 20.9307 70.6735 1.1736
10305 2 1.83238 72.2516 1.19788
4003 1 2.74106 73.8383 -0.107711
4078 1 0.0146323 72.2603 -0.132116
4020 1 5.47087 72.2604 -0.132114
10174 2 4.55903 73.8289 1.22253
3867 1 8.19729 73.8383 -0.107711
10173 2 7.28863 72.2516 1.19791
3866 1 10.9271 72.2603 -0.132123
9956 2 10.0153 73.8289 1.22251
3626 1 13.6535 73.8383 -0.107703
9696 2 15.4715 73.8289 1.22253
9992 2 12.7449 72.2516 1.1979
3659 1 16.3833 72.2603 -0.132126
9695 2 18.2011 72.2516 1.19787
3340 1 19.1098 73.8383 -0.107703
9359 2 20.9277 73.8289 1.22254
10292 2 1.82942 75.4054 1.24735
4079 1 0.0112048 75.4155 -0.0830389
4002 1 2.73758 76.9918 -0.0582405
4001 1 5.46745 75.4155 -0.0830281
10151 2 4.55598 76.9812 1.27226
10176 2 7.2856 75.4054 1.24736
3840 1 8.19382 76.9918 -0.0582589
3869 1 10.9237 75.4155 -0.0830252
9955 2 10.0123 76.9813 1.27223
9954 2 12.7419 75.4054 1.24739
3625 1 13.6501 76.9918 -0.0582436
9659 2 15.4684 76.9813 1.27223
3624 1 16.3799 75.4155 -0.0830362
9698 2 18.1982 75.4054 1.24738
3309 1 19.1063 76.9918 -0.0582254
9358 2 20.9246 76.9812 1.27226
10293 2 1.82636 78.5564 1.29713
4074 1 0.00768635 78.5674 -0.0334955
4004 1 5.46393 78.5674 -0.0334919
10149 2 7.28256 78.5564 1.2971
3838 1 10.9202 78.5674 -0.0334859
9957 2 12.7388 78.5564 1.29712
3627 1 16.3764 78.5674 -0.0334896
9657 2 18.1951 78.5564 1.29715
10280 2 1.82309 81.7049 1.34644
3987 1 2.73401 80.1422 -0.00887031
10297 2 3.64184 81.7371 -1.20603
3985 1 5.46036 81.7164 0.0154516
10150 2 4.55287 80.131 1.32189
10153 2 9.09808 81.7371 -1.20598
3839 1 8.19026 80.1422 -0.00887752
10152 2 7.27936 81.7049 1.34644
3841 1 10.9166 81.7164 0.0154576
9920 2 10.0091 80.131 1.32193
9961 2 14.5543 81.7371 -1.20605
3587 1 13.6465 80.1422 -0.00888497
9658 2 15.4654 80.131 1.32188
9918 2 12.7356 81.705 1.34641
3585 1 16.3728 81.7164 0.0154728
9660 2 18.1918 81.705 1.34641
9661 2 20.0106 81.7371 -1.2061
4075 1 21.8291 81.7164 0.0154666
3308 1 19.1027 80.1422 -0.0088778
9327 2 20.9216 80.131 1.32185
10284 2 0.912336 83.3102 -1.18218
10281 2 1.81988 84.8514 1.39431
3986 1 2.73047 83.2899 0.0394158
10282 2 3.63901 84.8826 -1.15873
3988 1 5.45682 84.8629 0.0629525
10127 2 4.54959 83.2784 1.3706
10154 2 6.36851 83.3102 -1.18218
10156 2 9.09528 84.8826 -1.15876
3812 1 8.18672 83.2899 0.0394242
10125 2 7.27613 84.8513 1.39436
9924 2 11.8248 83.3103 -1.18218
3810 1 10.9131 84.8629 0.0629543
9919 2 10.0058 83.2784 1.37059
9922 2 14.5515 84.8826 -1.15875
3586 1 13.6429 83.2899 0.0394433
9614 2 15.4621 83.2784 1.37062
9921 2 12.7323 84.8513 1.39434
9662 2 17.2811 83.3102 -1.18218
3588 1 16.3693 84.8629 0.0629677
9612 2 18.1886 84.8513 1.3943
9664 2 20.0077 84.8826 -1.15872
4070 1 21.8255 84.8629 0.0629659
3269 1 19.0992 83.2899 0.0394349
9326 2 20.9183 83.2784 1.37063
10283 2 0.909574 86.4545 -1.13585
10268 2 1.81677 87.9957 1.44002
3971 1 2.72696 86.4353 0.0859643
10285 2 3.63631 88.0258 -1.11355
3969 1 5.4534 88.0072 0.108363
10126 2 4.5464 86.4238 1.41752
10129 2 9.09254 88.0257 -1.11359
10131 2 6.36581 86.4545 -1.13588
3811 1 8.18321 86.4353 0.0859584
10128 2 7.27302 87.9958 1.44003
9923 2 11.822 86.4544 -1.13583
3813 1 10.9096 88.0072 0.108366
9884 2 10.0026 86.4238 1.41751
9925 2 14.5488 88.0258 -1.11361
3547 1 13.6394 86.4353 0.0859676
9613 2 15.4589 86.4238 1.41747
9882 2 12.7293 87.9958 1.44
9618 2 17.2782 86.4545 -1.13579
3545 1 16.3659 88.0072 0.10837
9615 2 18.1855 87.9958 1.43999
9616 2 20.0051 88.0259 -1.11358
4071 1 21.8221 88.0072 0.108367
3268 1 19.0957 86.4353 0.0859736
9287 2 20.9152 86.4238 1.41748
10272 2 0.906807 89.5966 -1.09197
10269 2 1.81397 91.1385 1.48278
3970 1 2.72368 89.5786 0.13008
10270 2 3.63376 91.167 -1.07121
3972 1 5.45027 91.1496 0.151028
10104 2 4.54347 89.5673 1.46178
10130 2 6.36311 89.5967 -1.09198
10132 2 9.08997 91.167 -1.07121
3784 1 8.1799 89.5786 0.13008
10102 2 7.2702 91.1385 1.48271
9888 2 11.8194 89.5967 -1.09208
3782 1 10.9065 91.1496 0.151036
9883 2 9.99972 89.5674 1.46179
9886 2 14.5462 91.1669 -1.07116
3546 1 13.6362 89.5786 0.130074
9568 2 15.4559 89.5673 1.46178
9885 2 12.7264 91.1385 1.48275
9617 2 17.2756 89.5967 -1.09208
3548 1 16.3627 91.1496 0.151033
9566 2 18.1827 91.1385 1.48281
9619 2 20.0024 91.1669 -1.07116
4066 1 21.819 91.1496 0.151025
3222 1 19.0924 89.5786 0.130073
9286 2 20.9122 89.5673 1.46177
10271 2 0.904383 92.7368 -1.05118
10260 2 1.81134 94.2801 1.52222
3956 1 2.7207 92.7202 0.171195
10273 2 3.63132 94.3063 -1.032
3954 1 5.44745 94.2905 0.190519
10103 2 4.54076 92.7095 1.50289
10106 2 9.08755 94.3063 -1.03196
10108 2 6.36059 92.7368 -1.05114
3783 1 8.17694 92.7202 0.171199
10105 2 7.26756 94.2801 1.52222
9887 2 11.8168 92.7368 -1.05111
3785 1 10.9037 94.2905 0.190514
9852 2 9.99699 92.7095 1.50289
9889 2 14.5438 94.3064 -1.03193
3508 1 13.6332 92.7202 0.171195
9567 2 15.4532 92.7094 1.50294
9850 2 12.7238 94.2801 1.52221
9572 2 17.2731 92.7368 -1.05115
3506 1 16.3599 94.2905 0.19051
9569 2 18.1801 94.2802 1.52222
9570 2 20 94.3063 -1.03197
4067 1 21.8162 94.2905 0.190515
3221 1 19.0894 92.7202 0.171192
9240 2 20.9095 92.7095 1.50293
10264 2 0.902159 95.8755 -1.01369
10261 2 1.80897 97.4206 1.55814
3955 1 2.71805 95.8604 0.208924
10262 2 3.62922 97.4443 -0.996262
3957 1 5.44497 97.4301 0.226381
10088 2 4.53821 95.8505 1.54066
10107 2 6.35837 95.8755 -1.01371
10109 2 9.08548 97.4443 -0.996263
3760 1 8.1743 95.8604 0.208922
10086 2 7.2652 97.4206 1.55818
9856 2 11.8146 95.8755 -1.01365
3758 1 10.9012 97.4301 0.226376
9851 2 9.99445 95.8505 1.54064
9854 2 14.5417 97.4443 -0.996305
3507 1 13.6305 95.8604 0.20892
9528 2 15.4507 95.8505 1.54065
9853 2 12.7214 97.4206 1.55818
9571 2 17.2709 95.8755 -1.01363
3509 1 16.3575 97.4301 0.22637
9526 2 18.1777 97.4206 1.55813
9573 2 19.9979 97.4443 -0.996304
4065 1 21.8137 97.4301 0.226375
3175 1 19.0868 95.8604 0.208922
9239 2 20.9069 95.8505 1.54067
10263 2 0.900156 99.0127 -0.979823
3945 1 2.71575 98.9995 0.242864
12515 2 1.80699 100.56 1.59027
10087 2 4.53604 98.9905 1.57471
6105 1 5.44286 100.569 0.258364
12525 2 3.62743 100.581 -0.964397
10089 2 6.3564 99.0127 -0.97984
3759 1 8.17199 98.9995 0.242867
12424 2 7.26324 100.56 1.59027
12425 2 9.08367 100.581 -0.964408
9855 2 11.8127 99.0128 -0.979868
9825 2 9.99226 98.9905 1.57472
5981 1 10.8991 100.569 0.258361
3473 1 13.6282 98.9995 0.242855
9527 2 15.4485 98.9906 1.57471
12226 2 12.7195 100.56 1.59026
12237 2 14.5399 100.581 -0.964401
9529 2 17.2689 99.0128 -0.979852
11947 2 18.1757 100.56 1.59026
5753 1 16.3553 100.569 0.258368
3174 1 19.0845 98.9995 0.242852
9192 2 20.9048 98.9905 1.57469
6142 1 21.8116 100.569 0.258371
11948 2 19.9961 100.581 -0.964388
4046 1 0.939101 51.6737 2.23202
10234 2 2.75785 51.6742 3.53026
10326 2 0.029226 53.2581 3.53797
4044 1 3.66658 53.2584 2.23954
10235 2 5.48537 53.258 3.53794
3923 1 6.39532 51.6737 2.23201
10035 2 8.21413 51.6742 3.53035
3924 1 9.12283 53.2584 2.23955
3694 1 11.8516 51.6737 2.23201
10033 2 10.9416 53.258 3.53794
9759 2 13.6703 51.6742 3.5304
3692 1 14.579 53.2584 2.23954
3386 1 17.3078 51.6737 2.23202
9760 2 16.3979 53.2581 3.53797
9405 2 19.1265 51.6742 3.53031
3387 1 20.0353 53.2584 2.23953
4045 1 0.937819 54.8428 2.24919
10218 2 2.7565 54.8416 3.54774
3911 1 6.39404 54.8428 2.24918
10034 2 8.21283 54.8416 3.54776
3693 1 11.8503 54.8428 2.24918
9745 2 13.6691 54.8416 3.54771
3378 1 17.3065 54.8428 2.24919
9404 2 19.1252 54.8416 3.54769
10327 2 0.0276999 56.4248 3.55962
4031 1 0.936058 58.0103 2.27448
10217 2 2.75476 58.0075 3.57331
4047 1 3.66506 56.4268 2.26086
10216 2 5.48389 56.4248 3.55957
3909 1 9.12131 56.4268 2.26088
3910 1 6.39228 58.0103 2.27446
10015 2 8.21105 58.0075 3.57338
3678 1 11.8485 58.0103 2.27446
10036 2 10.9401 56.4248 3.55957
3695 1 14.5775 56.4268 2.26088
9744 2 13.6673 58.0075 3.57343
3377 1 17.3048 58.0103 2.27448
9743 2 16.3964 56.4248 3.55962
3376 1 20.0338 56.4268 2.26086
9397 2 19.1235 58.0075 3.57336
10314 2 0.0256273 59.5897 3.58903
4030 1 0.933917 61.1757 2.30699
10195 2 2.75255 61.1713 3.60638
4029 1 3.66311 59.5933 2.28988
10219 2 5.48188 59.5896 3.58906
3891 1 6.39017 61.1757 2.30696
3912 1 9.11936 59.5933 2.28989
10014 2 8.20882 61.1713 3.60636
3677 1 11.8464 61.1757 2.30697
10013 2 10.938 59.5896 3.58902
3676 1 14.5756 59.5933 2.28992
9723 2 13.6651 61.1712 3.60639
3362 1 17.3026 61.1757 2.30699
9746 2 16.3943 59.5897 3.589
3379 1 20.0318 59.5933 2.28991
9396 2 19.1214 61.1713 3.60641
10315 2 0.0232229 62.7523 3.62526
4015 1 0.931431 64.3388 2.34569
10194 2 2.75005 64.3327 3.64547
4032 1 3.6608 62.7576 2.32564
10193 2 5.4795 62.7524 3.62534
3889 1 9.11705 62.7576 2.32562
3890 1 6.38767 64.3388 2.34571
9987 2 8.20621 64.3327 3.64543
3654 1 11.8439 64.3388 2.34569
10016 2 10.9357 62.7523 3.62529
3679 1 14.5733 62.7576 2.32562
9722 2 13.6625 64.3328 3.64551
3361 1 17.3001 64.3388 2.34567
9721 2 16.3919 62.7523 3.62521
3360 1 20.0295 62.7576 2.32564
9381 2 19.1188 64.3327 3.64556
10302 2 0.0205397 65.9124 3.66699
4014 1 0.928662 67.4991 2.3893
10171 2 2.74721 67.4915 3.68951
4013 1 3.6582 65.9193 2.36695
10196 2 5.47685 65.9123 3.66695
3864 1 6.3849 67.4991 2.38929
3892 1 9.11443 65.9193 2.36696
9986 2 8.20346 67.4914 3.68948
3653 1 11.8411 67.4991 2.38929
9985 2 10.9331 65.9124 3.66692
3652 1 14.5707 65.9193 2.36698
9693 2 13.6597 67.4914 3.68948
3338 1 17.2974 67.4991 2.38929
9724 2 16.3892 65.9124 3.66696
3363 1 20.0269 65.9193 2.36697
9380 2 19.1159 67.4914 3.68952
10303 2 0.0176799 69.0699 3.71292
3999 1 0.925636 70.6567 2.43646
10170 2 2.74417 70.6476 3.73715
4016 1 3.6553 69.0783 2.41252
10169 2 5.47381 69.0698 3.71299
3862 1 9.11155 69.0783 2.41251
3863 1 6.3819 70.6567 2.43645
9952 2 8.20043 70.6477 3.73713
3622 1 11.8381 70.6567 2.43645
9988 2 10.9301 69.0698 3.71298
3655 1 14.5678 69.0783 2.4125
9692 2 13.6567 70.6477 3.73709
3337 1 17.2944 70.6567 2.43646
9691 2 16.3864 69.0699 3.71291
3336 1 20.024 69.0783 2.41251
9357 2 19.1129 70.6476 3.73711
10290 2 0.0144867 72.2248 3.76188
3998 1 0.922412 73.8115 2.48592
10147 2 2.74098 73.8014 3.78697
3997 1 3.65217 72.2345 2.46098
10172 2 5.47075 72.2249 3.76182
3836 1 6.37864 73.8115 2.48594
3865 1 9.1084 72.2344 2.461
9951 2 8.19715 73.8013 3.78698
3621 1 11.8349 73.8115 2.48593
9950 2 10.9269 72.2249 3.7619
3620 1 14.5646 72.2344 2.46099
9655 2 13.6534 73.8014 3.78697
3306 1 17.2911 73.8115 2.48592
9694 2 16.3832 72.2248 3.76196
3339 1 20.0209 72.2344 2.46098
9356 2 19.1097 73.8014 3.78696
10291 2 0.0110795 75.3773 3.81226
3983 1 0.918992 76.9636 2.53643
10146 2 2.73754 76.9527 3.83758
4000 1 3.64884 75.3879 2.51113
10145 2 5.46735 75.3773 3.81226
3834 1 9.10508 75.3879 2.51113
3835 1 6.37523 76.9636 2.53642
9916 2 8.19376 76.9527 3.83757
9953 2 10.9237 75.3773 3.81222
3583 1 11.8315 76.9636 2.53642
3623 1 14.5613 75.3879 2.51113
9654 2 13.65 76.9527 3.83756
9653 2 16.3799 75.3774 3.81222
3305 1 17.2877 76.9636 2.53643
3304 1 20.0175 75.3879 2.51113
9325 2 19.1063 76.9527 3.83756
10278 2 0.00767687 78.5275 3.8628
3981 1 3.64533 78.5388 2.56167
10148 2 5.4639 78.5275 3.86284
3837 1 9.10158 78.5388 2.56167
9914 2 10.9202 78.5275 3.86286
3581 1 14.5578 78.5388 2.56167
9656 2 16.3764 78.5275 3.86282
3307 1 20.0141 78.5388 2.56167
3982 1 0.915454 80.1134 2.58672
10123 2 2.73406 80.1018 3.88795
3984 1 3.64179 81.6875 2.61148
10121 2 5.46045 81.6758 3.91272
3806 1 9.09803 81.6875 2.61148
3808 1 6.37168 80.1134 2.58672
9915 2 8.19033 80.1018 3.88797
3582 1 11.8279 80.1134 2.58673
9917 2 10.9166 81.6757 3.91276
3584 1 14.5543 81.6875 2.61148
9610 2 13.6466 80.1018 3.888
3266 1 17.2842 80.1134 2.58673
9608 2 16.3729 81.6757 3.91279
10279 2 21.8292 81.6758 3.91275
3264 1 20.0105 81.6875 2.61147
9324 2 19.1028 80.1018 3.88798
3967 1 0.911918 83.2611 2.63585
10122 2 2.73051 83.2493 3.93714
3965 1 3.63832 84.8342 2.6597
10124 2 5.45686 84.8224 3.96106
3807 1 6.36816 83.2611 2.63584
3809 1 9.09456 84.8342 2.65968
9880 2 8.18676 83.2492 3.93717
3543 1 11.8244 83.2611 2.63583
9878 2 10.9131 84.8225 3.961
3541 1 14.5508 84.8342 2.6597
9609 2 13.643 83.2493 3.93718
3265 1 17.2806 83.2611 2.63583
9611 2 16.3694 84.8225 3.96103
10266 2 21.8256 84.8224 3.96108
3267 1 20.007 84.8342 2.65971
9285 2 19.0992 83.2493 3.93716
3966 1 0.908506 86.407 2.68296
10100 2 2.72702 86.3953 3.98427
3968 1 3.63497 87.9794 2.7056
10098 2 5.45344 87.9678 4.00687
3778 1 9.09119 87.9794 2.70561
3780 1 6.36474 86.407 2.68297
9879 2 8.18326 86.3953 3.98426
3542 1 11.821 86.407 2.68299
9881 2 10.9096 87.9677 4.0069
3544 1 14.5474 87.9794 2.70559
9564 2 13.6394 86.3953 3.9843
3219 1 17.2772 86.407 2.68298
9562 2 16.3659 87.9678 4.00686
10267 2 21.8222 87.9678 4.00682
3217 1 20.0037 87.9794 2.70558
9284 2 19.0957 86.3952 3.98432
3952 1 0.905234 89.5515 2.7275
10099 2 2.72371 89.54 4.02878
3950 1 3.63181 91.1232 2.74861
10101 2 5.45031 91.112 4.04986
3779 1 6.36147 89.5515 2.7275
3781 1 9.08806 91.1232 2.74861
9848 2 8.17995 89.5399 4.02877
3504 1 11.8177 89.5515 2.72749
9846 2 10.9066 91.112 4.04986
3502 1 14.5443 91.1232 2.74861
9563 2 13.6362 89.54 4.0287
3218 1 17.274 89.5515 2.72749
9565 2 16.3628 91.112 4.04986
10258 2 21.819 91.112 4.04987
3220 1 20.0005 91.1232 2.74862
9238 2 19.0925 89.54 4.02871
3951 1 0.902224 92.6948 2.76892
10084 2 2.72073 92.6839 4.07017
3953 1 3.62897 94.266 2.78834
10082 2 5.4475 94.2556 4.08958
3754 1 9.08521 94.266 2.78835
3756 1 6.35847 92.6948 2.76891
9847 2 8.17699 92.6839 4.07017
3503 1 11.8147 92.6948 2.76891
9849 2 10.9037 94.2556 4.08958
3505 1 14.5414 94.266 2.78835
9524 2 13.6332 92.6839 4.07016
3172 1 17.2709 92.6947 2.76892
9522 2 16.36 94.2556 4.0896
10259 2 21.8162 94.2556 4.08959
3170 1 19.9977 94.266 2.78834
9237 2 19.0895 92.6839 4.07015
3944 1 0.899565 95.8371 2.80688
10083 2 2.71806 95.8272 4.10805
3942 1 3.6265 97.4079 2.8245
10085 2 5.44496 97.3987 4.12561
3755 1 6.3558 95.8371 2.80689
3757 1 9.08273 97.4079 2.8245
9824 2 8.1743 95.8272 4.10805
3472 1 11.812 95.8371 2.80689
9822 2 10.9012 97.3986 4.12561
3470 1 14.539 97.4079 2.82451
9523 2 13.6305 95.8272 4.10808
3171 1 17.2683 95.8371 2.80688
9525 2 16.3574 97.3986 4.12564
10257 2 21.8137 97.3987 4.12563
3173 1 19.9952 97.4079 2.8245
9191 2 19.0868 95.8272 4.10808
3943 1 0.89725 98.9786 2.84111
10073 2 2.71574 98.9699 4.14221
6104 1 3.62432 100.549 2.85669
12409 2 5.44284 100.541 4.15778
3737 1 6.35349 98.9786 2.84111
9823 2 8.17197 98.9699 4.14221
5970 1 9.08056 100.549 2.85669
3471 1 11.8097 98.9786 2.84111
12225 2 10.8991 100.541 4.15775
9489 2 13.6282 98.9699 4.14221
5752 1 14.5368 100.549 2.85668
3129 1 17.266 98.9786 2.84111
11934 2 16.3553 100.541 4.15774
9190 2 19.0845 98.9699 4.14221
12514 2 21.8116 100.541 4.15776
5433 1 19.993 100.549 2.85669
10214 2 0.941321 51.6722 6.09374
4043 1 1.84951 53.2544 4.81184
3907 1 4.57815 51.6721 4.80409
10212 2 3.66875 53.2541 6.10158
10031 2 6.39756 51.6722 6.09371
3905 1 7.30576 53.2544 4.81184
10032 2 9.12505 53.254 6.10158
3690 1 10.0344 51.6721 4.8041
9741 2 11.8538 51.6722 6.09366
3374 1 15.4906 51.6721 4.80412
3691 1 12.762 53.2544 4.81184
9739 2 14.5813 53.254 6.1016
9402 2 17.31 51.6723 6.09369
3372 1 18.2182 53.2544 4.81184
3008 1 20.9469 51.6721 4.80411
9403 2 20.0374 53.254 6.1016
10213 2 0.939897 54.8355 6.11162
3906 1 4.57682 54.8367 4.82183
10011 2 6.39611 54.8355 6.11172
3674 1 10.033 54.8367 4.82182
9740 2 11.8523 54.8355 6.11172
3373 1 15.4893 54.8367 4.82183
9394 2 17.3086 54.8355 6.11163
3007 1 20.9455 54.8367 4.82184
4027 1 1.84785 56.4187 4.83389
10191 2 0.937897 57.9973 6.13811
3887 1 4.57501 58.0003 4.84792
10215 2 3.66703 56.4165 6.12387
3908 1 7.3041 56.4187 4.8339
10009 2 9.12329 56.4165 6.1239
10010 2 6.3942 57.9973 6.13809
3673 1 10.0312 58.0003 4.84792
9719 2 11.8504 57.9973 6.13807
3358 1 15.4875 58.0003 4.84794
3672 1 12.7603 56.4187 4.8339
9742 2 14.5796 56.4166 6.1239
3375 1 18.2166 56.4187 4.8339
9393 2 17.3066 57.9973 6.13809
3006 1 20.9437 58.0003 4.84794
9392 2 20.0358 56.4166 6.12387
4028 1 1.84575 59.5815 4.86385
10190 2 0.935503 61.1575 6.17202
3886 1 4.57269 61.1621 4.88149
10189 2 3.66486 59.5777 6.15417
3885 1 7.302 59.5815 4.86385
9983 2 6.39176 61.1575 6.17203
10012 2 9.12109 59.5777 6.15413
3650 1 10.0289 61.1621 4.88148
9718 2 11.848 61.1575 6.17203
3357 1 15.4852 61.1621 4.88146
3675 1 12.7583 59.5815 4.86383
9717 2 14.5774 59.5776 6.15418
3356 1 18.2145 59.5815 4.86384
9378 2 17.3042 61.1575 6.17202
2999 1 20.9414 61.1621 4.88148
9395 2 20.0336 59.5777 6.15422
4011 1 1.84325 62.7422 4.9007
10167 2 0.932724 64.3155 6.21226
3860 1 4.57001 64.3218 4.9213
10192 2 3.66223 62.7368 6.19137
3888 1 7.29947 62.7422 4.9007
9981 2 9.11846 62.7368 6.19139
9982 2 6.38897 64.3155 6.21223
3649 1 10.0263 64.3218 4.92132
9689 2 11.8452 64.3156 6.21222
3334 1 15.4825 64.3218 4.92133
3648 1 12.7557 62.7422 4.90072
9720 2 14.5747 62.7369 6.1914
3359 1 18.212 62.7422 4.90071
9377 2 17.3014 64.3155 6.21225
2998 1 20.9387 64.3218 4.9213
9376 2 20.031 62.7368 6.19139
4012 1 1.84042 65.9007 4.94319
10166 2 0.929523 67.4714 6.25738
3859 1 4.56701 67.4791 4.96616
10165 2 3.65927 65.8938 6.23423
3858 1 7.29665 65.9007 4.94318
9948 2 6.38577 67.4714 6.2574
9984 2 9.11552 65.8938 6.23421
3618 1 10.0233 67.4791 4.96616
9688 2 11.842 67.4714 6.25737
3333 1 15.4795 67.4791 4.96616
3651 1 12.7529 65.9007 4.94319
9687 2 14.5717 65.8938 6.23427
3332 1 18.2091 65.9007 4.94319
9354 2 17.2982 67.4714 6.25734
2983 1 20.9357 67.4791 4.96616
9379 2 20.028 65.8938 6.23428
3995 1 1.83731 69.0569 4.98996
10143 2 0.926103 70.625 6.306
3832 1 4.56376 70.6341 5.01452
10168 2 3.65602 69.0484 6.28131
3861 1 7.29356 69.0569 4.98999
9946 2 9.11224 69.0484 6.2813
9947 2 6.38241 70.625 6.30603
3617 1 10.02 70.6341 5.01453
9651 2 11.8387 70.625 6.30604
3302 1 15.4763 70.6342 5.01454
3616 1 12.7498 69.0569 4.99001
9690 2 14.5685 69.0484 6.28131
3335 1 18.206 69.0569 4.98998
9353 2 17.2948 70.625 6.30601
2982 1 20.9325 70.6341 5.01454
9352 2 20.0247 69.0484 6.28133
3996 1 1.83395 72.2108 5.03959
10142 2 0.922599 73.7768 6.35681
3831 1 4.56029 73.7869 5.06503
10141 2 3.65249 72.2012 6.33127
3830 1 7.2902 72.2108 5.03959
9912 2 6.37885 73.7768 6.35682
9949 2 9.10875 72.2012 6.33123
3579 1 10.0165 73.7869 5.06505
9650 2 11.8351 73.7767 6.35686
3301 1 15.4728 73.7869 5.06506
3619 1 12.7464 72.2108 5.03961
9649 2 14.565 72.2011 6.33118
3300 1 18.2027 72.2108 5.03961
9322 2 17.2913 73.7767 6.35684
2959 1 20.929 73.7869 5.06504
9355 2 20.0212 72.2011 6.33122
3979 1 1.83037 75.3625 5.09072
10119 2 0.918789 76.9267 6.40842
10144 2 3.64883 75.352 6.3826
3804 1 4.55664 76.9376 5.11643
3833 1 7.2866 75.3625 5.09072
9910 2 9.10505 75.352 6.3827
9911 2 6.37499 76.9267 6.40839
3578 1 10.0129 76.9376 5.11643
9606 2 11.8313 76.9268 6.40836
3577 1 12.7429 75.3625 5.0907
9652 2 14.5613 75.352 6.38265
3262 1 15.4691 76.9376 5.11642
3303 1 18.1991 75.3625 5.0907
9321 2 17.2875 76.9268 6.40839
9320 2 20.0175 75.352 6.38255
2958 1 20.9253 76.9376 5.11642
3980 1 1.82666 78.5124 5.14202
10117 2 3.645 78.5011 6.43395
3802 1 7.28289 78.5124 5.14202
9913 2 9.10127 78.5012 6.43395
3580 1 12.7391 78.5124 5.14204
9604 2 14.5574 78.5011 6.43403
3260 1 18.1954 78.5124 5.14204
9323 2 20.0136 78.5011 6.43403
3963 1 1.82281 81.6606 5.19247
10118 2 0.914979 80.0753 6.45931
3803 1 4.55285 80.0867 5.16742
10120 2 3.64115 81.649 6.48436
3805 1 7.27907 81.6607 5.19246
9874 2 9.0974 81.649 6.48428
9876 2 6.3712 80.0753 6.4593
3539 1 10.0091 80.0867 5.16742
9605 2 11.8274 80.0752 6.45931
3261 1 15.4653 80.0867 5.16741
3537 1 12.7353 81.6607 5.19245
9607 2 14.5537 81.649 6.48423
3263 1 18.1915 81.6607 5.19245
9282 2 17.2837 80.0752 6.45933
2927 1 20.9216 80.0867 5.16741
9280 2 20.01 81.6491 6.48431
3964 1 1.81907 84.8076 5.24112
10096 2 0.911125 83.2226 6.50886
3776 1 4.54906 83.2343 5.21706
10094 2 3.63744 84.7959 6.53286
3774 1 7.27531 84.8076 5.24114
9875 2 6.36742 83.2226 6.50887
9877 2 9.09362 84.7959 6.53289
3538 1 10.0053 83.2343 5.21706
9560 2 11.8237 83.2226 6.50884
3215 1 15.4615 83.2343 5.21706
3540 1 12.7316 84.8076 5.24112
9558 2 14.5498 84.7959 6.53289
3213 1 18.1878 84.8076 5.2411
9281 2 17.2799 83.2226 6.50883
2926 1 20.9178 83.2343 5.21706
9283 2 20.0061 84.7959 6.53286
3948 1 1.81555 87.9535 5.28736
10095 2 0.907421 86.3691 6.55621
3775 1 4.5454 86.3806 5.26459
10097 2 3.63377 87.9422 6.57881
3777 1 7.27179 87.9535 5.28736
9842 2 9.09 87.9422 6.57883
9844 2 6.36366 86.3691 6.55621
3500 1 10.0016 86.3807 5.26458
9559 2 11.8199 86.3692 6.55622
3214 1 15.4579 86.3806 5.26458
3498 1 12.728 87.9535 5.28737
9561 2 14.5462 87.9422 6.57888
3216 1 18.1843 87.9535 5.28737
9235 2 17.2761 86.3691 6.55622
2887 1 20.9141 86.3806 5.26459
9233 2 20.0024 87.9422 6.57886
3949 1 1.81221 91.0986 5.33066
10080 2 0.903935 89.5152 6.60075
3752 1 4.54196 89.5261 5.30941
10078 2 3.63034 91.0878 6.62196
3750 1 7.26845 91.0986 5.33065
9843 2 6.36013 89.5151 6.60075
9845 2 9.08662 91.0879 6.62194
3499 1 9.9982 89.5261 5.30942
9520 2 11.8163 89.5151 6.60077
3168 1 15.4544 89.5261 5.30941
3501 1 12.7247 91.0986 5.33065
9518 2 14.5429 91.0879 6.62193
3166 1 18.1809 91.0986 5.33066
9234 2 17.2726 89.5152 6.60077
2886 1 20.9107 89.5261 5.3094
9236 2 19.9991 91.0879 6.62195
3940 1 1.8092 94.2431 5.3705
10079 2 0.900746 92.6605 6.64227
3751 1 4.53878 92.6709 5.35102
10081 2 3.62747 94.2331 6.66162
3753 1 7.26544 94.2431 5.37049
9818 2 9.08371 94.2331 6.66161
9820 2 6.35699 92.6605 6.64226
3468 1 9.99502 92.6709 5.35103
9519 2 11.8132 92.6605 6.64225
3167 1 15.4513 92.6709 5.35103
3466 1 12.7217 94.2431 5.37049
9521 2 14.54 94.2331 6.6616
3169 1 18.1779 94.2431 5.3705
9188 2 17.2695 92.6605 6.64225
2841 1 20.9075 92.671 5.35102
9186 2 19.9962 94.2332 6.6616
3941 1 1.8066 97.3873 5.40665
10072 2 0.898003 95.8057 6.68003
3736 1 4.53598 95.8153 5.38905
10070 2 3.62489 97.3782 6.69752
3734 1 7.26284 97.3873 5.40665
9819 2 6.35425 95.8057 6.68004
9821 2 9.08112 97.3782 6.69752
3467 1 9.99222 95.8153 5.38905
9488 2 11.8105 95.8057 6.68003
3128 1 15.4485 95.8153 5.38905
3469 1 12.7191 97.3873 5.40665
9486 2 14.5374 97.3782 6.69753
3126 1 18.1753 97.3873 5.40666
9187 2 17.2667 95.8057 6.68001
2840 1 20.9047 95.8153 5.38906
9189 2 19.9936 97.3782 6.69752
10071 2 0.895607 98.9506 6.71408
6090 1 1.8044 100.531 5.43888
3735 1 4.53356 98.9595 5.42327
12408 2 3.62262 100.523 6.72967
9801 2 6.35185 98.9506 6.7141
5969 1 7.26063 100.531 5.43888
12206 2 9.07886 100.523 6.72967
3441 1 9.98979 98.9595 5.42327
9487 2 11.8081 98.9506 6.71413
3127 1 15.446 98.9595 5.42327
5737 1 12.7169 100.531 5.43888
11933 2 14.5351 100.523 6.72966
9145 2 17.2643 98.9506 6.71411
5432 1 18.1731 100.531 5.43888
2795 1 20.9023 98.9595 5.42327
11577 2 19.9914 100.523 6.72966
3903 1 2.76134 51.671 7.37134
3879 1 0.944927 51.6703 9.93674
4025 1 0.0326755 53.2518 7.37941
10211 2 1.85226 53.2508 8.66607
10007 2 4.58121 51.671 8.65794
3904 1 5.4889 53.2518 7.3794
3877 1 3.67209 53.2492 9.94517
3670 1 8.2176 51.671 7.37134
3666 1 6.40118 51.6703 9.93675
3667 1 9.12831 53.2492 9.94517
10005 2 7.30854 53.2509 8.6661
3350 1 11.8574 51.6703 9.93674
9737 2 10.0374 51.671 8.65793
3668 1 10.9451 53.2518 7.37937
3370 1 13.6738 51.671 7.37134
9390 2 15.4937 51.671 8.65795
3348 1 14.5846 53.2492 9.94518
9738 2 12.7648 53.2508 8.66607
3002 1 17.3136 51.6703 9.93673
3371 1 16.4014 53.2518 7.37938
9388 2 18.221 53.2508 8.66605
3005 1 19.1301 51.671 7.37134
9024 2 20.95 51.671 8.65796
3003 1 20.0408 53.2492 9.94517
3883 1 2.75992 54.8323 7.38974
3878 1 0.943112 54.8279 9.95583
10006 2 4.57954 54.8304 8.67663
3669 1 8.21616 54.8323 7.38976
3642 1 6.39938 54.8279 9.95584
3349 1 11.8556 54.8279 9.95588
9715 2 10.0357 54.8305 8.6766
3354 1 13.6724 54.8323 7.38976
9389 2 15.4919 54.8305 8.67664
2994 1 17.3118 54.8279 9.95587
3004 1 19.1286 54.8323 7.38974
9023 2 20.9482 54.8305 8.67667
3882 1 2.75786 57.9923 7.41691
4026 1 0.0309109 56.4125 7.40229
3852 1 0.940736 57.9843 9.98413
10187 2 1.85019 56.4097 8.68931
3881 1 5.48717 56.4125 7.4023
3880 1 3.6701 56.4063 9.9689
9979 2 4.57722 57.9887 8.70415
3646 1 8.21411 57.9923 7.41691
3640 1 9.12631 56.4063 9.9689
3641 1 6.39698 57.9844 9.98413
10008 2 7.3065 56.4097 8.68933
3671 1 10.9434 56.4125 7.40227
3326 1 11.8532 57.9843 9.98412
9714 2 10.0334 57.9887 8.70411
3353 1 13.6704 57.9923 7.41691
3351 1 14.5826 56.4063 9.9689
9374 2 15.4896 57.9887 8.70404
9713 2 12.7628 56.4098 8.68934
3352 1 16.3996 56.4125 7.40226
2993 1 17.3095 57.9843 9.98412
9391 2 18.219 56.4098 8.68933
2997 1 19.1266 57.9923 7.41691
2992 1 20.0388 56.4063 9.9689
9022 2 20.9459 57.9886 8.70409
3856 1 2.75533 61.1507 7.4517
4009 1 0.0285603 59.5718 7.43342
3851 1 0.93783 61.1394 10.0204
10188 2 1.84776 59.5672 8.72077
3884 1 5.48481 59.5718 7.43345
3850 1 3.6675 59.5621 10.0014
9978 2 4.57445 61.1453 8.73926
3645 1 8.21154 61.1507 7.4517
3610 1 6.39407 61.1394 10.0204
3643 1 9.12372 59.5621 10.0013
9977 2 7.30393 59.5672 8.72081
3644 1 10.941 59.5718 7.43346
3325 1 11.8503 61.1394 10.0204
9685 2 10.0307 61.1453 8.7393
3330 1 13.6678 61.1507 7.45172
3324 1 14.5799 59.5621 10.0014
9373 2 15.4868 61.1453 8.73926
9716 2 12.7602 59.5672 8.72083
3355 1 16.3973 59.5718 7.43343
2978 1 17.3065 61.1394 10.0204
9372 2 18.2165 59.5672 8.72079
2996 1 19.1241 61.1507 7.45171
2995 1 20.0362 59.5621 10.0014
9015 2 20.943 61.1453 8.73921
3855 1 2.75231 64.3071 7.49286
4010 1 0.0257319 62.7292 7.47156
3824 1 0.934483 64.2926 10.0633
10163 2 1.84477 62.723 8.75949
3854 1 5.48199 62.7291 7.47159
3853 1 3.66433 62.7163 10.0411
9944 2 4.57125 64.3001 8.78099
3614 1 8.20854 64.3071 7.49285
3608 1 9.12058 62.7162 10.0411
3609 1 6.3907 64.2926 10.0632
9980 2 7.30095 62.7229 8.75944
3647 1 10.9382 62.7292 7.47159
3294 1 11.8469 64.2926 10.0632
9684 2 10.0275 64.3001 8.78101
3329 1 13.6648 64.3071 7.49284
3327 1 14.5768 62.7162 10.0411
9350 2 15.4837 64.3001 8.78096
9683 2 12.7572 62.7229 8.75946
3328 1 16.3944 62.7292 7.47155
2977 1 17.3032 64.2926 10.0632
9375 2 18.2135 62.723 8.7595
2981 1 19.1211 64.3071 7.49285
2976 1 20.033 62.7163 10.0411
9014 2 20.9399 64.3002 8.78095
3828 1 2.74899 67.4615 7.53903
3993 1 0.0225357 65.8846 7.51541
3823 1 0.930739 67.4441 10.111
10164 2 1.84142 65.8768 8.8038
3857 1 5.47881 65.8846 7.51541
3822 1 3.66074 65.8686 10.0866
9943 2 4.56778 67.4531 8.82758
3613 1 8.20522 67.4615 7.53902
3571 1 6.38696 67.4441 10.111
3611 1 9.11698 65.8686 10.0866
9942 2 7.29761 65.8768 8.80376
3612 1 10.9351 65.8846 7.5154
3293 1 11.8432 67.4441 10.111
9647 2 10.024 67.4531 8.82761
3298 1 13.6615 67.4615 7.53902
3292 1 14.5732 65.8686 10.0866
9349 2 15.4802 67.4529 8.82759
9686 2 12.7539 65.8768 8.80373
3331 1 16.3913 65.8846 7.5154
2954 1 17.2994 67.4441 10.111
9348 2 18.2102 65.8768 8.80377
2980 1 19.1177 67.4615 7.53902
2979 1 20.0295 65.8686 10.0866
8999 2 20.9364 67.4529 8.82755
3827 1 2.74541 70.614 7.58873
3994 1 0.0191018 69.038 7.56351
3796 1 0.926701 70.5939 10.1621
10139 2 1.83782 69.0287 8.85219
3826 1 5.47533 69.038 7.56353
3825 1 3.65685 69.0191 10.1362
9908 2 4.56394 70.604 8.87745
3575 1 8.20165 70.614 7.58872
3569 1 9.11308 69.0191 10.1362
3570 1 6.38296 70.5939 10.1621
9945 2 7.29402 69.0287 8.85225
3615 1 10.9316 69.038 7.56353
3254 1 11.8392 70.5939 10.1621
9646 2 10.0202 70.604 8.87741
3297 1 13.6579 70.614 7.58871
3295 1 14.5693 69.0191 10.1362
9318 2 15.4765 70.6042 8.87742
9645 2 12.7502 69.0288 8.85226
3296 1 16.3878 69.038 7.5635
2953 1 17.2954 70.5939 10.1621
9351 2 18.2065 69.0288 8.85221
2957 1 19.1141 70.614 7.58872
2952 1 20.0256 69.0191 10.1362
8998 2 20.9327 70.6041 8.87746
3800 1 2.74163 73.7647 7.64032
3977 1 0.0154144 72.1895 7.61438
3795 1 0.922537 73.7425 10.2149
10140 2 1.83395 72.1789 8.90313
3829 1 5.47165 72.1895 7.61436
3794 1 3.65275 72.1683 10.1884
9907 2 4.56006 73.7536 8.92912
3574 1 8.19787 73.7647 7.64031
3531 1 6.3788 73.7425 10.2149
3572 1 9.109 72.1683 10.1884
9906 2 7.29024 72.1789 8.90312
3573 1 10.9279 72.1896 7.61436
3253 1 11.835 73.7425 10.2149
9602 2 10.0163 73.7535 8.92913
3258 1 13.6541 73.7647 7.64032
3252 1 14.5653 72.1683 10.1884
9317 2 15.4726 73.7535 8.92922
9648 2 12.7464 72.1789 8.90313
3299 1 16.3841 72.1895 7.61438
2922 1 17.2912 73.7425 10.2149
9316 2 18.2026 72.1789 8.90314
2956 1 19.1103 73.7647 7.64033
2955 1 20.0215 72.1683 10.1884
8975 2 20.9288 73.7536 8.92921
3978 1 0.0115588 75.3395 7.66643
10115 2 1.82986 75.328 8.9554
3799 1 2.73767 76.9139 7.69252
3798 1 5.46779 75.3394 7.66642
9872 2 4.55594 76.9021 8.98151
9909 2 7.28615 75.3279 8.95541
3535 1 8.19393 76.9139 7.69252
3576 1 10.924 75.3394 7.66642
9601 2 10.0121 76.9021 8.98148
9600 2 12.7424 75.3279 8.95538
3257 1 13.6502 76.9139 7.69251
9278 2 15.4684 76.9021 8.9815
3256 1 16.3803 75.3394 7.66643
9319 2 18.1986 75.3279 8.95537
2925 1 19.1064 76.9139 7.6925
8974 2 20.9247 76.9021 8.98153
3961 1 0.00752754 78.4881 7.71848
10116 2 1.82568 78.476 9.00749
3801 1 5.46377 78.4881 7.71848
9870 2 7.2819 78.476 9.0075
3533 1 10.92 78.4881 7.71845
9603 2 12.7382 78.4761 9.00747
3259 1 16.3763 78.4881 7.71846
9276 2 18.1944 78.4761 9.00747
3772 1 2.73364 80.0621 7.74412
10092 2 1.82161 81.6235 9.05815
3770 1 5.45971 81.6359 7.76937
9871 2 4.5517 80.0498 9.03307
3534 1 8.18988 80.0621 7.74412
9873 2 7.27779 81.6235 9.05816
3536 1 10.9159 81.6358 7.76939
9556 2 10.008 80.0498 9.03303
3211 1 13.6461 80.062 7.74413
9277 2 15.4642 80.0498 9.03302
9554 2 12.734 81.6235 9.05821
3209 1 16.3722 81.6358 7.76937
9279 2 18.1903 81.6234 9.0582
3962 1 21.8284 81.6359 7.76935
2924 1 19.1023 80.0621 7.74414
8943 2 20.9204 80.0498 9.03305
3771 1 2.72957 83.2094 7.79413
10093 2 1.8176 84.7706 9.10693
3773 1 5.45569 84.7829 7.8183
9840 2 4.5477 83.1971 9.08281
3496 1 8.18579 83.2095 7.79413
9838 2 7.27386 84.7706 9.1069
3494 1 10.9119 84.7829 7.81831
9555 2 10.0039 83.1971 9.08286
3210 1 13.642 83.2095 7.79412
9231 2 15.4602 83.1971 9.08284
9557 2 12.7301 84.7706 9.10687
3212 1 16.3682 84.7829 7.81831
9229 2 18.1863 84.7706 9.10691
3946 1 21.8244 84.7829 7.8183
2885 1 19.0983 83.2095 7.79412
8942 2 20.9164 83.1971 9.08279
3748 1 2.72566 86.3562 7.84182
10076 2 1.81384 87.9176 9.15296
3746 1 5.45194 87.9295 7.86461
9839 2 4.54384 86.344 9.13033
3495 1 8.18189 86.3562 7.84182
9841 2 7.2701 87.9176 9.15297
3497 1 10.9082 87.9295 7.86461
9516 2 10.0001 86.344 9.13034
3164 1 13.6381 86.3562 7.84183
9230 2 15.4563 86.344 9.13036
9514 2 12.7264 87.9175 9.15296
3162 1 16.3644 87.9295 7.86462
9232 2 18.1826 87.9176 9.15295
3947 1 21.8207 87.9295 7.86463
2884 1 19.0944 86.3562 7.84183
8904 2 20.9125 86.344 9.13035
3747 1 2.72207 89.5027 7.88663
10077 2 1.81036 91.0646 9.19579
3749 1 5.44851 91.0758 7.90785
9816 2 4.54016 89.4911 9.17478
3464 1 8.17832 89.5026 7.88664
9814 2 7.26658 91.0646 9.19583
3462 1 10.9048 91.0758 7.90783
9515 2 9.99639 89.4911 9.17476
3163 1 13.6346 89.5026 7.88664
9184 2 15.4526 89.4911 9.17476
9517 2 12.7228 91.0646 9.19582
3165 1 16.361 91.0758 7.90783
9182 2 18.1791 91.0646 9.19578
3938 1 21.8172 91.0758 7.90784
2839 1 19.0908 89.5026 7.88664
8903 2 20.9089 89.4911 9.17478
3732 1 2.71879 92.6488 7.92816
10068 2 1.80732 94.2114 9.23532
3730 1 5.44543 94.2219 7.94756
9815 2 4.5369 92.6379 9.21603
3463 1 8.17504 92.6488 7.92816
9817 2 7.26355 94.2114 9.23531
3465 1 10.9017 94.2219 7.94756
9484 2 9.99314 92.638 9.21603
3124 1 13.6313 92.6488 7.92815
9183 2 15.4494 92.638 9.21602
9482 2 12.7198 94.2114 9.23533
3122 1 16.3579 94.2219 7.94756
9185 2 18.176 94.2114 9.23534
3939 1 21.8141 94.2219 7.94756
2838 1 19.0875 92.6488 7.92816
8864 2 20.9056 92.638 9.21602
3731 1 2.71594 95.795 7.96601
10069 2 1.80473 97.3585 9.27103
3733 1 5.44277 97.368 7.9835
9800 2 4.53409 95.7849 9.25364
3440 1 8.17218 95.795 7.96602
9798 2 7.261 97.3585 9.27099
3438 1 10.899 97.368 7.98351
9483 2 9.99033 95.7849 9.25364
3123 1 13.6284 95.795 7.96602
9144 2 15.4466 95.7849 9.25364
9485 2 12.7172 97.3585 9.27098
3125 1 16.3552 97.368 7.98352
9142 2 18.1734 97.3585 9.27102
3937 1 21.8115 97.368 7.98351
2794 1 19.0847 95.795 7.96601
8863 2 20.9028 95.7849 9.25364
3721 1 2.71348 98.941 8.00006
12386 2 1.80253 100.506 9.30289
9799 2 4.53172 98.9321 9.28743
5950 1 5.44054 100.514 8.01568
3439 1 8.16971 98.941 8.00007
12205 2 7.25876 100.506 9.30291
9457 2 9.98797 98.9321 9.28743
5736 1 10.8968 100.514 8.01568
3089 1 13.6259 98.941 8.00008
9143 2 15.4442 98.932 9.28745
11912 2 12.715 100.506 9.30292
11576 2 18.1712 100.506 9.30291
5417 1 16.353 100.514 8.01567
2793 1 19.0822 98.941 8.00007
8824 2 20.9004 98.9321 9.28745
6089 1 21.8093 100.514 8.01567
10003 2 2.76479 51.67 11.2222
3876 1 1.85578 53.2466 12.5097
10185 2 0.035822 53.248 11.2307
3638 1 4.58488 51.6696 12.5009
10004 2 5.49209 53.248 11.2307
9711 2 8.22107 51.67 11.2222
3636 1 7.31204 53.2467 12.5097
3346 1 10.0411 51.6696 12.5009
9709 2 10.9483 53.2481 11.2306
2990 1 15.4974 51.6696 12.5009
9386 2 13.6774 51.67 11.2222
3347 1 12.7683 53.2467 12.5097
2988 1 18.2245 53.2466 12.5097
9387 2 16.4045 53.248 11.2307
2640 1 20.9536 51.6696 12.5009
9021 2 19.1336 51.67 11.2222
9975 2 2.76293 54.8257 11.2417
3637 1 4.58261 54.8235 12.5211
9710 2 8.21915 54.8257 11.2416
3322 1 10.0388 54.8235 12.5211
2989 1 15.4951 54.8235 12.5211
9370 2 13.6754 54.8257 11.2417
2639 1 20.9513 54.8235 12.5211
9020 2 19.1316 54.8257 11.2418
3848 1 1.85308 56.4001 12.5348
9974 2 2.76011 57.9804 11.2705
10186 2 0.0334545 56.4032 11.2549
3606 1 4.57965 57.9764 12.5508
9973 2 5.48974 56.4032 11.2549
3639 1 7.30932 56.4001 12.5348
9681 2 8.21629 57.9804 11.2705
3321 1 10.0359 57.9764 12.5508
9712 2 10.946 56.4031 11.2549
2974 1 15.4921 57.9764 12.5508
3320 1 12.7656 56.4001 12.5348
9369 2 13.6726 57.9804 11.2704
2991 1 18.2218 56.4001 12.5348
9368 2 16.4022 56.4031 11.2549
2638 1 20.9484 57.9764 12.5507
9013 2 19.1289 57.9804 11.2705
3849 1 1.84996 59.5523 12.5688
9940 2 2.75689 61.1335 11.3073
10161 2 0.0304203 59.5571 11.288
3605 1 4.57633 61.1279 12.5889
9976 2 5.48669 59.5571 11.288
3604 1 7.30618 59.5523 12.5688
9680 2 8.21313 61.1335 11.3073
3290 1 10.0326 61.1279 12.5889
9679 2 10.943 59.5572 11.288
2973 1 15.4888 61.1279 12.5889
3323 1 12.7624 59.5523 12.5688
9346 2 13.6694 61.1334 11.3073
2972 1 18.2187 59.5523 12.5688
9371 2 16.3992 59.5572 11.288
2631 1 20.945 61.1279 12.5888
9012 2 19.1256 61.1334 11.3073
3820 1 1.84641 62.7031 12.6106
9939 2 2.75325 64.2849 11.3506
10162 2 0.0270533 62.7094 11.3282
3567 1 4.57252 64.2779 12.6337
9938 2 5.48326 62.7094 11.3283
3607 1 7.30265 62.7031 12.6106
9643 2 8.20947 64.2849 11.3506
3289 1 10.0287 64.2778 12.6337
9682 2 10.9395 62.7094 11.3283
2950 1 15.485 64.2778 12.6337
3288 1 12.7589 62.7031 12.6106
9345 2 13.6658 64.285 11.3506
2975 1 18.2151 62.7031 12.6106
9344 2 16.3958 62.7093 11.3283
2630 1 20.9412 64.2779 12.6337
8997 2 19.122 64.2849 11.3506
3821 1 1.84238 65.8523 12.6581
9904 2 2.74932 67.4349 11.3989
10137 2 0.0231597 65.8601 11.3743
3566 1 4.5683 67.4262 12.6834
9941 2 5.47942 65.8601 11.3743
3565 1 7.29862 65.8523 12.6581
9642 2 8.20557 67.4349 11.3989
3250 1 10.0245 67.4263 12.6834
9641 2 10.9357 65.8601 11.3743
2949 1 15.4808 67.4262 12.6834
3291 1 12.7549 65.8523 12.6581
9314 2 13.6618 67.4349 11.3989
2948 1 18.2111 65.8523 12.6581
9347 2 16.3919 65.8602 11.3743
2615 1 20.937 67.4262 12.6834
8996 2 19.118 67.4349 11.3989
3792 1 1.838 68.9999 12.7095
9903 2 2.74512 70.5834 11.4503
10138 2 0.0190667 69.0094 11.4243
3527 1 4.5638 70.5734 12.7361
9902 2 5.47532 69.0093 11.4243
3568 1 7.29424 68.9999 12.7095
9598 2 8.20131 70.5833 11.4503
3249 1 10.02 70.5733 12.7362
9644 2 10.9316 69.0092 11.4243
2918 1 15.4763 70.5733 12.7362
3248 1 12.7505 68.9999 12.7095
9313 2 13.6575 70.5833 11.4503
2951 1 18.2067 68.9999 12.7095
9312 2 16.3878 69.0093 11.4244
2614 1 20.9325 70.5734 12.7361
8973 2 19.1138 70.5833 11.4503
3793 1 1.8334 72.1466 12.7631
9868 2 2.74078 73.7308 11.5032
10113 2 0.0148234 72.1571 11.4766
3526 1 4.55919 73.7198 12.7902
9905 2 5.47103 72.1571 11.4766
3525 1 7.28963 72.1466 12.7631
9597 2 8.19702 73.7309 11.5031
3203 1 10.0154 73.7198 12.7902
9596 2 10.9273 72.1572 11.4766
2917 1 15.4717 73.7198 12.7902
3251 1 12.7459 72.1466 12.7631
9274 2 13.6532 73.7308 11.5031
2916 1 18.2021 72.1466 12.7631
9315 2 16.3836 72.1572 11.4765
2591 1 20.9279 73.7198 12.7903
8972 2 19.1095 73.7307 11.5032
3768 1 0.918253 76.8901 10.268
3764 1 1.82875 75.2928 12.8172
10114 2 0.0104958 75.3043 11.5297
9867 2 2.73632 76.8777 11.5563
3797 1 3.64853 75.3164 10.2415
9866 2 5.46673 75.3043 11.5297
3488 1 4.55455 76.8659 12.844
3529 1 9.10476 75.3164 10.2415
3530 1 6.3745 76.8901 10.268
3528 1 7.285 75.2929 12.8172
9552 2 8.19256 76.8777 11.5563
3207 1 11.8307 76.8901 10.268
9599 2 10.9229 75.3043 11.5298
3202 1 10.0108 76.8659 12.8441
3255 1 14.561 75.3164 10.2415
3201 1 12.7412 75.2928 12.8172
2878 1 15.467 76.8659 12.8441
9273 2 13.6488 76.8778 11.5563
2921 1 17.287 76.8901 10.268
2919 1 18.1975 75.2928 12.8173
9272 2 16.3791 75.3043 11.5298
2920 1 20.0173 75.3164 10.2415
2590 1 20.9233 76.8659 12.844
8941 2 19.1051 76.8779 11.5562
3767 1 0.913963 80.0374 10.3201
3765 1 1.82413 78.439 12.8705
10090 2 0.00591689 78.4512 11.5825
9836 2 2.73185 80.0247 11.6082
3766 1 3.64424 78.4638 10.2942
9869 2 5.46218 78.4513 11.5825
3487 1 4.55 80.0122 12.8965
3532 1 9.10048 78.4638 10.2942
3492 1 6.37019 80.0374 10.3201
3486 1 7.28038 78.439 12.8705
9551 2 8.1881 80.0247 11.6083
3206 1 11.8264 80.0374 10.3201
9550 2 10.9184 78.4513 11.5825
3156 1 10.0062 80.0122 12.8965
3205 1 14.5567 78.4638 10.2942
3204 1 12.7366 78.439 12.8705
2877 1 15.4625 80.0122 12.8965
9227 2 13.6443 80.0246 11.6083
2882 1 17.2827 80.0374 10.3201
2876 1 18.1929 78.439 12.8705
9275 2 16.3747 78.4513 11.5825
2923 1 20.0129 78.4638 10.2942
2559 1 20.9187 80.0122 12.8965
8940 2 19.1005 80.0247 11.6082
3740 1 1.81966 81.5856 12.9219
3769 1 3.63994 81.611 10.3455
9834 2 5.45777 81.5982 11.6335
3490 1 9.09619 81.611 10.3455
3489 1 7.2759 81.5856 12.9219
9553 2 10.914 81.5982 11.6335
3208 1 14.5524 81.611 10.3455
3154 1 12.7321 81.5856 12.9219
2879 1 18.1884 81.5856 12.9219
9225 2 16.3703 81.5982 11.6335
2880 1 20.0086 81.611 10.3455
10091 2 21.8265 81.5982 11.6335
3744 1 0.909706 83.1845 10.3703
3741 1 1.81541 84.733 12.9706
9835 2 2.72756 83.1719 11.6581
3742 1 3.63575 84.7581 10.3944
3456 1 4.54564 83.1592 12.9466
9837 2 5.45369 84.7456 11.6821
3491 1 6.36594 83.1845 10.3703
3493 1 9.09199 84.7581 10.3944
3454 1 7.27164 84.733 12.9706
9512 2 8.18381 83.1719 11.6581
3160 1 11.8222 83.1845 10.3703
3155 1 10.0019 83.1592 12.9466
9510 2 10.9099 84.7456 11.6822
3158 1 14.5482 84.7581 10.3944
2832 1 15.4581 83.1592 12.9466
3157 1 12.7279 84.733 12.9706
9226 2 13.6401 83.1719 11.6581
2881 1 17.2784 83.1845 10.3703
2830 1 18.1841 84.733 12.9706
9228 2 16.3662 84.7456 11.6821
10074 2 21.8224 84.7456 11.6821
2883 1 20.0045 84.7581 10.3944
2558 1 20.9144 83.1592 12.9466
8902 2 19.0963 83.1718 11.6581
3743 1 0.905605 86.3317 10.4179
3724 1 1.81143 87.8811 13.0164
9812 2 2.72363 86.3193 11.7055
3745 1 3.63183 87.9054 10.4406
3455 1 4.5415 86.3069 12.9939
9810 2 5.4499 87.8932 11.728
3458 1 9.08805 87.9054 10.4406
3460 1 6.36184 86.3317 10.4179
3457 1 7.26767 87.8811 13.0164
9511 2 8.17988 86.3193 11.7055
3159 1 11.8181 86.3317 10.4179
3116 1 9.99774 86.3069 12.9939
9513 2 10.9061 87.8931 11.728
3161 1 14.5443 87.9054 10.4406
2831 1 15.454 86.307 12.9939
3114 1 12.7239 87.8811 13.0164
9180 2 13.6361 86.3194 11.7055
2836 1 17.2743 86.3317 10.4179
2833 1 18.1802 87.8811 13.0164
9178 2 16.3623 87.8931 11.728
2834 1 20.0005 87.9054 10.4406
10075 2 21.8186 87.8932 11.728
2523 1 20.9102 86.307 12.9939
8901 2 19.0924 86.3193 11.7055
3728 1 0.901921 89.4791 10.4625
3725 1 1.80798 91.0299 13.0589
9811 2 2.71997 89.4673 11.7497
3726 1 3.62835 91.0528 10.4836
3432 1 4.53776 89.4554 13.0381
9813 2 5.4464 91.0414 11.7705
3459 1 6.35815 89.4791 10.4625
3461 1 9.08459 91.0528 10.4836
3430 1 7.26421 91.0299 13.0589
9480 2 8.17619 89.4672 11.7497
3120 1 11.8144 89.4791 10.4625
3115 1 9.99399 89.4554 13.0381
9478 2 10.9026 91.0414 11.7704
3118 1 14.5408 91.0528 10.4836
2787 1 15.4502 89.4554 13.0381
3117 1 12.7205 91.0299 13.0589
9179 2 13.6324 89.4672 11.7497
2835 1 17.2706 89.4791 10.4625
2785 1 18.1767 91.0299 13.0589
9181 2 16.3589 91.0414 11.7705
2837 1 19.9971 91.0528 10.4836
10066 2 21.8151 91.0414 11.7705
2522 1 20.9065 89.4554 13.0381
8862 2 19.0887 89.4673 11.7497
3727 1 0.898648 92.6267 10.5037
9796 2 2.71667 92.6156 11.7904
3729 1 3.62528 94.2006 10.523
9794 2 5.44333 94.19 11.8096
3436 1 6.35489 92.6267 10.5037
3434 1 9.08153 94.2006 10.523
9479 2 8.17292 92.6156 11.7904
3119 1 11.8111 92.6267 10.5037
9481 2 10.8996 94.19 11.8096
3121 1 14.5378 94.2006 10.523
9140 2 13.6292 92.6157 11.7904
2791 1 17.2674 92.6267 10.5037
9138 2 16.3558 94.19 11.8096
10067 2 21.812 94.19 11.8096
2789 1 19.994 94.2006 10.523
8861 2 19.0854 92.6156 11.7904
3720 1 0.895794 95.7746 10.5413
9795 2 2.71389 95.7645 11.8277
3718 1 3.62264 97.3487 10.5587
9797 2 5.44081 97.3391 11.845
3435 1 6.35203 95.7746 10.5413
3437 1 9.07889 97.3487 10.5587
9456 2 8.17012 95.7645 11.8277
3088 1 11.8083 95.7746 10.5413
9454 2 10.897 97.3391 11.845
3086 1 14.5351 97.3487 10.5586
9139 2 13.6264 95.7644 11.8278
2790 1 17.2645 95.7746 10.5413
9141 2 16.3533 97.3391 11.8449
10065 2 21.8095 97.3391 11.8449
2792 1 19.9914 97.3487 10.5587
8823 2 19.0826 95.7645 11.8277
3719 1 0.893377 98.9228 10.5751
9785 2 2.71162 98.9139 11.8612
12178 2 5.43871 100.489 11.8765
5949 1 3.62045 100.497 10.5905
3417 1 6.34962 98.9228 10.5751
9455 2 8.16784 98.9139 11.8612
5713 1 9.07669 100.497 10.5905
3087 1 11.8059 98.9228 10.5751
11911 2 10.895 100.489 11.8765
9105 2 13.6241 98.9139 11.8612
5416 1 14.5329 100.497 10.5905
2750 1 17.2621 98.9228 10.5751
11561 2 16.3512 100.489 11.8765
8822 2 19.0803 98.9139 11.8612
12385 2 21.8074 100.489 11.8765
5049 1 19.9892 100.497 10.5905
9971 2 0.949141 51.6686 13.7855
3634 1 2.76975 51.668 15.0639
3846 1 0.0400763 53.2433 15.0735
9969 2 3.67612 53.2447 13.7948
3635 1 5.49633 53.2434 15.0735
9707 2 6.40539 51.6687 13.7857
3318 1 8.22597 51.668 15.0639
9708 2 9.13231 53.2447 13.7949
9366 2 11.8616 51.6687 13.7858
3316 1 10.9526 53.2433 15.0735
2986 1 13.6822 51.668 15.0639
9364 2 14.5885 53.2447 13.7949
9018 2 17.3179 51.6686 13.7856
2987 1 16.4088 53.2433 15.0735
2637 1 19.1384 51.668 15.064
9019 2 20.0448 53.2447 13.7948
9970 2 0.946339 54.8208 13.8064
3602 1 2.76636 54.8184 15.0857
9677 2 6.40259 54.8206 13.8064
3317 1 8.2226 54.8184 15.0857
9365 2 11.8589 54.8207 13.8064
2970 1 13.6788 54.8184 15.0857
9010 2 17.3151 54.8208 13.8064
2636 1 19.1351 54.8184 15.0857
9936 2 0.943034 57.9715 13.8367
3601 1 2.76241 57.9676 15.1172
3847 1 0.0362034 56.3932 15.1003
9972 2 3.67281 56.3963 13.8205
3600 1 5.49242 56.3933 15.1003
9675 2 9.12906 56.3963 13.8204
9676 2 6.39922 57.9716 13.8367
3286 1 8.21865 57.9677 15.1172
9342 2 11.8554 57.9715 13.8368
3319 1 10.9487 56.3933 15.1004
9367 2 14.5853 56.3963 13.8204
2969 1 13.6749 57.9677 15.1173
9009 2 17.3117 57.9714 13.8368
2968 1 16.405 56.3932 15.1003
9008 2 20.0415 56.3963 13.8204
2629 1 19.1311 57.9676 15.1173
9935 2 0.939181 61.1211 13.8755
3563 1 2.75823 61.1155 15.1574
3818 1 0.0320822 59.5417 15.1364
9934 2 3.66923 59.5464 13.8551
3603 1 5.48832 59.5417 15.1363
9639 2 6.39536 61.121 13.8755
9678 2 9.12549 59.5464 13.8551
3285 1 8.2145 61.1155 15.1574
9341 2 11.8516 61.1211 13.8754
3284 1 10.9445 59.5417 15.1364
9340 2 14.5817 59.5464 13.8551
2946 1 13.6707 61.1155 15.1574
8994 2 17.3079 61.1211 13.8754
2971 1 16.4008 59.5417 15.1364
9011 2 20.0379 59.5464 13.8551
2628 1 19.1269 61.1155 15.1574
9900 2 0.935022 64.2692 13.9209
3562 1 2.75393 64.2619 15.2045
3819 1 0.0279801 62.6888 15.1802
9937 2 3.66518 62.6953 13.8975
3561 1 5.4842 62.6888 15.1802
9637 2 9.12147 62.6954 13.8975
9638 2 6.39121 64.2691 13.9209
3246 1 8.2102 64.2619 15.2045
9310 2 11.8474 64.269 13.9209
3287 1 10.9404 62.6888 15.1802
9343 2 14.5777 62.6954 13.8975
2945 1 13.6665 64.2619 15.2045
8993 2 17.3037 64.2691 13.921
2944 1 16.3967 62.6888 15.1802
8992 2 20.0339 62.6953 13.8975
2613 1 19.1227 64.2619 15.2045
9899 2 0.930462 67.4159 13.9712
3523 1 2.74919 67.4071 15.2566
3790 1 0.0235203 65.8347 15.2301
9898 2 3.66087 65.8427 13.9455
3564 1 5.47974 65.8347 15.2301
9594 2 6.38668 67.416 13.9712
9640 2 9.1171 65.8426 13.9456
3245 1 8.20545 67.4071 15.2566
9309 2 11.8429 67.416 13.9711
3244 1 10.936 65.8347 15.2301
9308 2 14.5734 65.8426 13.9455
2914 1 13.6617 67.4072 15.2566
8970 2 17.2992 67.4159 13.9711
2947 1 16.3922 65.8347 15.2301
8995 2 20.0296 65.8427 13.9455
2612 1 19.1179 67.4071 15.2566
9864 2 0.925636 70.5618 14.0244
3522 1 2.74413 70.5514 15.3112
3791 1 0.0185545 68.9793 15.2837
9901 2 3.65621 68.989 13.9976
3521 1 5.47481 68.9793 15.2837
9592 2 9.11243 68.989 13.9976
9593 2 6.38192 70.5618 14.0245
3199 1 8.20035 70.5514 15.3112
9270 2 11.8382 70.5617 14.0245
3247 1 10.9311 68.9793 15.2837
9311 2 14.5687 68.989 13.9976
2913 1 13.6566 70.5514 15.3112
8969 2 17.2944 70.5618 14.0244
2912 1 16.3873 68.9793 15.2837
8968 2 20.0249 68.989 13.9976
2589 1 19.1129 70.5514 15.3112
9863 2 0.920853 73.7071 14.0785
3484 1 2.73903 73.6956 15.3665
3762 1 0.0134302 72.1234 15.3389
9862 2 3.6514 72.1345 14.0515
3524 1 5.46967 72.1234 15.3389
9548 2 6.3771 73.7071 14.0785
9595 2 9.10762 72.1344 14.0515
3198 1 8.19525 73.6956 15.3665
9269 2 11.8334 73.7072 14.0785
3197 1 10.9259 72.1234 15.3389
9268 2 14.5639 72.1345 14.0515
2874 1 13.6515 73.6956 15.3665
8938 2 17.2896 73.7072 14.0785
2915 1 16.3821 72.1234 15.3389
8971 2 20.0201 72.1345 14.0515
2588 1 19.1077 73.6956 15.3665
3763 1 0.008343 75.2678 15.3939
9832 2 0.916153 76.8527 14.1323
3483 1 2.73398 76.8403 15.421
9865 2 3.64667 75.2798 14.1055
3482 1 5.46457 75.2678 15.394
9546 2 9.10294 75.2799 14.1055
9547 2 6.3724 76.8527 14.1323
3152 1 8.19024 76.8403 15.421
3200 1 10.9208 75.2678 15.3939
9223 2 11.8286 76.8527 14.1323
9271 2 14.5592 75.2798 14.1055
2873 1 13.6465 76.8403 15.421
2872 1 16.3771 75.2678 15.3939
8937 2 17.2848 76.8526 14.1323
8936 2 20.0154 75.2798 14.1055
2557 1 19.1027 76.8403 15.421
3738 1 0.00344267 78.413 15.4476
9831 2 0.911458 79.9988 14.1845
3452 1 2.72921 79.9859 15.4735
9830 2 3.64191 78.4257 14.1587
3485 1 5.45968 78.413 15.4476
9549 2 9.09813 78.4257 14.1587
9508 2 6.36773 79.9988 14.1845
3151 1 8.18547 79.9859 15.4735
3150 1 10.9159 78.4129 15.4476
9222 2 11.8239 79.9989 14.1845
9221 2 14.5544 78.4256 14.1587
2828 1 13.6417 79.9859 15.4735
2875 1 16.3721 78.4129 15.4476
8899 2 17.2802 79.9989 14.1845
8939 2 20.0106 78.4256 14.1587
2556 1 19.0979 79.9859 15.4735
9833 2 3.63732 81.5722 14.2098
3450 1 5.4551 81.5593 15.4988
9506 2 9.09354 81.5722 14.2098
3153 1 10.9113 81.5593 15.4988
9224 2 14.5498 81.5722 14.2098
2826 1 16.3676 81.5593 15.4988
3739 1 21.8238 81.5593 15.4988
8897 2 20.006 81.5722 14.2098
9808 2 0.906999 83.1459 14.2343
3451 1 2.72481 83.133 15.5234
9806 2 3.6331 84.7199 14.2581
3453 1 5.45085 84.7071 15.5473
9507 2 6.36323 83.1459 14.2343
9509 2 9.08937 84.72 14.2581
3112 1 8.18104 83.133 15.5235
9176 2 11.8195 83.1459 14.2343
3110 1 10.9071 84.7071 15.5473
9174 2 14.5456 84.7199 14.2581
2827 1 13.6373 83.133 15.5234
8898 2 17.2757 83.1459 14.2343
2829 1 16.3633 84.7071 15.5473
3722 1 21.8196 84.7071 15.5473
8900 2 20.0018 84.7199 14.2581
2521 1 19.0935 83.133 15.5234
9807 2 0.903072 86.2942 14.2812
3428 1 2.72075 86.2815 15.5703
9809 2 3.62931 87.8686 14.3035
3426 1 5.44699 87.8562 15.5924
9474 2 9.08557 87.8686 14.3035
9476 2 6.35927 86.2942 14.2812
3111 1 8.177 86.2815 15.5703
9175 2 11.8155 86.2941 14.2812
3113 1 10.9032 87.8562 15.5924
9177 2 14.5418 87.8686 14.3035
2783 1 13.6332 86.2815 15.5703
8859 2 17.2718 86.2941 14.2812
2781 1 16.3595 87.8562 15.5924
3723 1 21.8157 87.8562 15.5924
8857 2 19.9981 87.8686 14.3035
2520 1 19.0895 86.2815 15.5703
9792 2 0.899489 89.4432 14.325
3427 1 2.71712 89.4312 15.6137
9790 2 3.62596 91.0182 14.3455
3429 1 5.44363 91.0065 15.6342
9475 2 6.35573 89.4433 14.325
9477 2 9.08217 91.0182 14.3455
3080 1 8.17335 89.4313 15.6137
9136 2 11.812 89.4433 14.325
3078 1 10.8999 91.0065 15.6342
9134 2 14.5384 91.0182 14.3455
2782 1 13.6296 89.4313 15.6138
8858 2 17.2682 89.4432 14.325
2784 1 16.3561 91.0065 15.6342
3714 1 21.8123 91.0066 15.6342
8860 2 19.9947 91.0182 14.3455
2485 1 19.0858 89.4313 15.6138
3716 1 1.805 94.1793 13.0979
9791 2 0.896313 92.5934 14.3652
3412 1 2.71404 92.5821 15.6538
3431 1 4.53454 92.6045 13.0788
9793 2 3.62306 94.1687 14.384
3410 1 5.44085 94.1579 15.6725
3433 1 7.26123 94.1793 13.0979
9450 2 9.07927 94.1687 14.384
9452 2 6.35256 92.5934 14.3652
3079 1 8.17028 92.5821 15.6538
3084 1 9.99079 92.6045 13.0788
9135 2 11.8088 92.5934 14.3652
3081 1 10.8971 94.1579 15.6725
2786 1 15.447 92.6045 13.0788
3082 1 12.7175 94.1793 13.0979
9137 2 14.5355 94.1687 14.384
2745 1 13.6265 92.5821 15.6538
2788 1 18.1737 94.1793 13.0979
8820 2 17.265 92.5934 14.3652
2743 1 16.3533 94.1579 15.6725
2487 1 20.9033 92.6045 13.0788
3715 1 21.8095 94.1579 15.6725
8818 2 19.9917 94.1687 14.384
2484 1 19.0828 92.5821 15.6538
3717 1 1.80247 97.3294 13.1331
9784 2 0.893657 95.7442 14.4019
3411 1 2.71152 95.734 15.6903
3416 1 4.5318 95.7543 13.116
9782 2 3.62062 97.3199 14.4189
3413 1 5.43854 97.3102 15.7071
3414 1 7.25871 97.3294 13.1331
9451 2 6.34989 95.7442 14.4019
9453 2 9.07689 97.3199 14.4189
3056 1 8.16775 95.734 15.6903
3083 1 9.98804 95.7543 13.116
9104 2 11.8061 95.7442 14.4019
3054 1 10.8948 97.3102 15.7071
2749 1 15.4443 95.7543 13.116
3085 1 12.7149 97.3294 13.1331
9102 2 14.5331 97.3199 14.4189
2744 1 13.624 95.7339 15.6903
2747 1 18.1712 97.3294 13.1331
8819 2 17.2624 95.7442 14.4019
2746 1 16.351 97.3102 15.7071
2486 1 20.9005 95.7543 13.116
3713 1 21.8073 97.3102 15.7071
8821 2 19.9894 97.3199 14.4189
2450 1 19.0802 95.7339 15.6903
5923 1 1.80041 100.48 13.1645
9783 2 0.891497 98.8957 14.4349
3401 1 2.70944 98.8867 15.723
3415 1 4.52951 98.9047 13.1493
5681 1 5.43668 100.463 15.738
12177 2 3.61874 100.472 14.4499
5712 1 7.25665 100.48 13.1645
9433 2 6.34775 98.8958 14.4349
3055 1 8.16568 98.8867 15.723
11882 2 9.07497 100.472 14.4499
3057 1 9.98575 98.9047 13.1493
9103 2 11.804 98.8958 14.4348
5392 1 10.8929 100.463 15.738
2748 1 15.442 98.9047 13.1493
5393 1 12.7129 100.48 13.1645
2712 1 13.6219 98.8867 15.723
11560 2 14.5312 100.472 14.4499
5048 1 18.1691 100.48 13.1645
8785 2 17.2602 98.8957 14.4349
5033 1 16.3492 100.463 15.738
2451 1 20.8982 98.9047 13.1493
5922 1 21.8054 100.463 15.738
2449 1 19.0782 98.8867 15.723
11193 2 19.9875 100.472 14.4499
3598 1 0.955616 51.6654 17.626
9968 2 1.86081 53.2405 16.3582
9673 2 4.59077 51.6664 16.3486
3596 1 3.68155 53.2386 17.6361
3314 1 6.41186 51.6654 17.626
9671 2 7.31702 53.2405 16.3581
3315 1 9.13775 53.2386 17.6361
9362 2 10.047 51.6663 16.3485
2966 1 11.8681 51.6654 17.626
9006 2 15.5032 51.6664 16.3485
9363 2 12.7733 53.2405 16.358
2964 1 14.594 53.2386 17.6361
2634 1 17.3244 51.6654 17.626
9004 2 18.2296 53.2405 16.3581
8704 2 20.9594 51.6665 16.3486
2635 1 20.0503 53.2386 17.636
3597 1 0.9508 54.8116 17.6491
9672 2 4.58675 54.8145 16.3705
3282 1 6.40704 54.8115 17.649
9338 2 10.043 54.8145 16.3705
2965 1 11.8633 54.8116 17.6491
9005 2 15.4992 54.8144 16.3705
2626 1 17.3195 54.8116 17.6491
8703 2 20.9554 54.8144 16.3705
9932 2 1.85639 56.3881 16.3855
3559 1 0.945093 57.9571 17.683
9635 2 4.58203 57.9615 16.4028
3599 1 3.67614 56.3845 17.6647
9674 2 7.31254 56.3881 16.3855
3280 1 9.13239 56.3844 17.6647
3281 1 6.40133 57.9571 17.683
9337 2 10.0383 57.9616 16.4029
2942 1 11.8576 57.9571 17.6829
8990 2 15.4945 57.9617 16.4029
9336 2 12.7687 56.3882 16.3855
2967 1 14.5886 56.3844 17.6648
9007 2 18.225 56.3882 16.3855
2625 1 17.3138 57.9571 17.683
8702 2 20.9507 57.9617 16.4028
2624 1 20.0449 56.3845 17.6648
9933 2 1.85137 59.5348 16.4224
3558 1 0.939692 61.1012 17.7261
9634 2 4.57717 61.1075 16.444
3557 1 3.67048 59.5294 17.7035
9633 2 7.30768 59.5347 16.4223
3242 1 6.39589 61.1012 17.7261
3283 1 9.12674 59.5294 17.7035
9306 2 10.0334 61.1074 16.444
2941 1 11.8521 61.1012 17.7261
8989 2 15.4897 61.1073 16.4439
9339 2 12.7639 59.5347 16.4223
2940 1 14.583 59.5294 17.7035
8988 2 18.2201 59.5347 16.4224
2610 1 17.3084 61.1012 17.7261
8695 2 20.9459 61.1074 16.4439
2627 1 20.0392 59.5294 17.7034
9896 2 1.84666 62.6797 16.4671
3519 1 0.934656 64.2439 17.7762
9590 2 4.57241 64.2518 16.4919
3560 1 3.66526 62.6726 17.7504
9636 2 7.3029 62.6798 16.4672
3240 1 9.12149 62.6726 17.7503
3241 1 6.39089 64.2439 17.7761
9305 2 10.0286 64.2518 16.4919
2910 1 11.8471 64.2439 17.7761
8966 2 15.4848 64.2519 16.4919
9304 2 12.7592 62.6798 16.4672
2943 1 14.5777 62.6726 17.7504
8991 2 18.2154 62.6797 16.4671
2609 1 17.3034 64.2439 17.7761
8694 2 20.9411 64.2518 16.492
2608 1 20.0339 62.6726 17.7504
9897 2 1.84174 65.8236 16.5179
3518 1 0.929406 67.3855 17.8308
9589 2 4.56728 67.3952 16.5446
3517 1 3.66019 65.8148 17.8031
9588 2 7.29802 65.8236 16.5179
3195 1 6.38563 67.3855 17.8308
3243 1 9.11645 65.8148 17.8031
9266 2 10.0235 67.3952 16.5446
2909 1 11.8419 67.3855 17.8308
8965 2 15.4797 67.3952 16.5446
9307 2 12.7542 65.8236 16.5179
2908 1 14.5727 65.8148 17.803
8964 2 18.2104 65.8237 16.5179
2586 1 17.2981 67.3855 17.8308
8679 2 20.936 67.3953 16.5446
2611 1 20.0289 65.8148 17.8031
9860 2 1.83651 68.9668 16.5721
3480 1 0.923711 70.5268 17.8875
9544 2 4.56187 70.5383 16.5998
3520 1 3.65472 68.9562 17.859
9591 2 7.29275 68.9668 16.572
3193 1 9.11097 68.9562 17.859
3194 1 6.37995 70.5268 17.8875
9265 2 10.0181 70.5382 16.5998
2870 1 11.8362 70.5268 17.8875
8934 2 15.4743 70.5382 16.5998
9264 2 12.749 68.9667 16.572
2911 1 14.5672 68.9562 17.859
8967 2 18.2052 68.9667 16.572
2585 1 17.2924 70.5268 17.8875
8678 2 20.9306 70.5382 16.5997
2584 1 20.0235 68.9562 17.859
9861 2 1.83109 72.1097 16.6276
3479 1 0.918058 73.6688 17.9441
9543 2 4.55652 73.6815 16.6552
3478 1 3.64898 72.0977 17.9159
9542 2 7.28724 72.1097 16.6277
3148 1 6.37429 73.6688 17.9441
3196 1 9.10523 72.0977 17.9159
9219 2 10.0128 73.6815 16.6553
2869 1 11.8305 73.6688 17.9441
8933 2 15.4691 73.6816 16.6553
9267 2 12.7435 72.1098 16.6277
2868 1 14.5615 72.0977 17.9159
8932 2 18.1998 72.1098 16.6276
2554 1 17.2868 73.6688 17.9441
8655 2 20.9252 73.6816 16.6552
2587 1 20.0177 72.0977 17.9159
9828 2 1.82589 75.2536 16.6825
3448 1 0.912724 76.8123 17.999
3481 1 3.64348 75.2403 17.9718
9504 2 4.55151 76.8258 16.7095
9545 2 7.28213 75.2535 16.6825
3146 1 9.09971 75.2403 17.9718
3147 1 6.36897 76.8123 17.999
9218 2 10.0077 76.8258 16.7094
2824 1 11.8252 76.8123 17.999
9217 2 12.7383 75.2535 16.6826
2871 1 14.5559 75.2403 17.9718
8895 2 15.464 76.8258 16.7094
8935 2 18.1946 75.2535 16.6825
2553 1 17.2814 76.8123 17.999
2552 1 20.0122 75.2403 17.9718
8654 2 20.9203 76.8258 16.7095
9829 2 1.82095 78.3985 16.7358
3447 1 0.907832 79.9578 18.0514
3446 1 3.63835 78.3848 18.0256
9503 2 4.54676 79.9716 16.7617
9502 2 7.27724 78.3985 16.7358
3149 1 9.09458 78.3848 18.0255
3108 1 6.36407 79.9578 18.0514
9172 2 10.003 79.9716 16.7617
2823 1 11.8203 79.9578 18.0514
9220 2 12.7335 78.3985 16.7358
2822 1 14.5508 78.3848 18.0255
8894 2 15.4592 79.9716 16.7617
8893 2 18.1897 78.3985 16.7358
2518 1 17.2766 79.9578 18.0514
2555 1 20.0071 78.3848 18.0255
8627 2 20.9155 79.9715 16.7617
9804 2 1.81634 81.5451 16.7868
3449 1 3.63373 81.5313 18.0764
9505 2 7.27257 81.5451 16.7868
3106 1 9.08997 81.5313 18.0764
9170 2 12.7288 81.5451 16.7867
2825 1 14.5462 81.5313 18.0764
8896 2 18.1851 81.5451 16.7868
2516 1 20.0024 81.5313 18.0764
9805 2 1.8121 84.6934 16.8347
3424 1 0.903508 83.1053 18.1007
9472 2 4.54229 83.119 16.8111
3422 1 3.62964 84.6799 18.1241
9470 2 7.2683 84.6933 16.8347
3107 1 6.35974 83.1053 18.1007
3109 1 9.08588 84.6799 18.1242
9171 2 9.99852 83.119 16.8111
2779 1 11.816 83.1053 18.1007
8855 2 15.4547 83.119 16.8111
9173 2 12.7245 84.6933 16.8347
2777 1 14.5421 84.6799 18.1242
8853 2 18.1808 84.6934 16.8346
2517 1 17.2722 83.1053 18.1007
8626 2 20.911 83.119 16.8111
2519 1 19.9984 84.6799 18.1242
9788 2 1.80849 87.8433 16.8793
3423 1 0.899671 86.255 18.1468
9471 2 4.53832 86.2681 16.8574
3425 1 3.62603 87.8305 18.1685
9473 2 7.26474 87.8433 16.8793
3074 1 9.08226 87.8305 18.1685
3076 1 6.35591 86.255 18.1468
9132 2 9.99457 86.2682 16.8574
2778 1 11.8121 86.255 18.1468
8854 2 15.4508 86.2681 16.8574
9130 2 12.721 87.8433 16.8793
2780 1 14.5385 87.8305 18.1685
8856 2 18.1772 87.8433 16.8793
2482 1 17.2684 86.255 18.1468
8599 2 20.9071 86.2681 16.8574
2480 1 19.9947 87.8305 18.1685
9789 2 1.80538 90.9946 16.9206
3408 1 0.896279 89.4064 18.1894
9448 2 4.53501 89.4188 16.9004
3406 1 3.62292 90.9827 18.2094
9446 2 7.26162 90.9946 16.9206
3075 1 6.35252 89.4064 18.1894
3077 1 9.07916 90.9827 18.2094
9131 2 9.99126 89.4188 16.9004
2741 1 11.8088 89.4064 18.1894
8816 2 15.4475 89.4188 16.9004
9133 2 12.7178 90.9946 16.9206
2739 1 14.5354 90.9826 18.2094
8814 2 18.1741 90.9946 16.9207
2481 1 17.265 89.4064 18.1894
8598 2 20.9037 89.4188 16.9004
2483 1 19.9916 90.9826 18.2094
9780 2 1.80267 94.1471 16.9585
3407 1 0.893475 92.5593 18.2286
9447 2 4.53205 92.5707 16.94
3409 1 3.62039 94.1362 18.2469
9449 2 7.25892 94.1471 16.9584
3050 1 9.07663 94.1362 18.2469
3052 1 6.34971 92.5593 18.2286
9100 2 9.98829 92.5707 16.94
2740 1 11.8059 92.5592 18.2286
8815 2 15.4446 92.5707 16.94
9098 2 12.7152 94.1471 16.9584
2742 1 14.5329 94.1362 18.2469
8817 2 18.1714 94.1471 16.9584
2447 1 17.2622 92.5593 18.2286
8571 2 20.9008 92.5707 16.94
2445 1 19.9891 94.1362 18.2469
9781 2 1.80048 97.3006 16.9925
3400 1 0.891227 95.7134 18.2643
9432 2 4.52964 95.7238 16.9759
3398 1 3.61842 97.2908 18.2807
9430 2 7.25674 97.3007 16.9926
3051 1 6.34746 95.7134 18.2643
3053 1 9.07465 97.2909 18.2807
9099 2 9.9859 95.7238 16.9759
2711 1 11.8037 95.7134 18.2643
8784 2 15.4421 95.7238 16.9759
9101 2 12.713 97.3006 16.9926
2709 1 14.5309 97.2909 18.2807
8782 2 18.1692 97.3006 16.9926
2446 1 17.2599 95.7134 18.2643
8570 2 20.8983 95.7237 16.9759
2448 1 19.9871 97.2909 18.2807
3399 1 0.889448 98.8686 18.2963
12143 2 1.79885 100.455 17.023
9431 2 4.52774 98.8777 17.0083
5680 1 3.61685 100.447 18.3109
3033 1 6.3457 98.8686 18.2963
11881 2 7.25508 100.455 17.0231
5361 1 9.07308 100.447 18.3109
9073 2 9.98396 98.8777 17.0083
2710 1 11.8019 98.8686 18.2963
8783 2 15.4402 98.8777 17.0083
11537 2 12.7113 100.455 17.0231
5032 1 14.5293 100.447 18.3109
2416 1 17.2582 98.8686 18.2963
11192 2 18.1676 100.455 17.0231
8543 2 20.8965 98.8777 17.0083
4681 1 19.9856 100.447 18.3109
9669 2 2.77674 51.663 18.9105
9627 2 0.963565 51.6577 21.4725
3595 1 1.86721 53.2318 20.198
9930 2 0.0462151 53.2346 18.9208
3278 1 4.59811 51.6611 20.1872
9670 2 5.50239 53.2346 18.9208
9625 2 3.68826 53.2264 21.4833
9334 2 8.23294 51.6631 18.9105
9330 2 6.41982 51.6576 21.4725
3276 1 7.32344 53.2318 20.198
9331 2 9.14453 53.2264 21.4833
2962 1 10.0544 51.6611 20.1872
8982 2 11.876 51.6576 21.4725
9332 2 10.9586 53.2347 18.9209
2622 1 15.5107 51.6611 20.1872
9002 2 13.6892 51.663 18.9104
2963 1 12.7797 53.2318 20.1979
8980 2 14.6008 53.2265 21.4834
8698 2 17.3322 51.6576 21.4725
2620 1 18.2359 53.2318 20.198
9003 2 16.4149 53.2347 18.9209
2352 1 20.9669 51.6611 20.1872
8701 2 19.1454 51.6629 18.9104
8699 2 20.057 53.2265 21.4833
9631 2 2.77137 54.8065 18.9342
9626 2 0.956281 54.7953 21.4973
3277 1 4.59181 54.8024 20.2119
9333 2 8.22766 54.8064 18.9341
9298 2 6.41257 54.7954 21.4973
2938 1 10.0481 54.8024 20.2119
8981 2 11.8688 54.7953 21.4972
2621 1 15.5043 54.8025 20.2119
8986 2 13.6839 54.8064 18.9341
8690 2 17.325 54.7953 21.4972
2351 1 20.9606 54.8025 20.2119
8700 2 19.14 54.8065 18.9342
3555 1 1.86017 56.373 20.2286
9630 2 2.76498 57.9492 18.9685
9931 2 0.0402199 56.378 18.95
9582 2 0.948028 57.9334 21.5344
3238 1 4.58442 57.9435 20.2482
9629 2 5.49639 56.378 18.95
9628 2 3.68026 56.3643 21.5143
3279 1 7.31642 56.373 20.2286
9302 2 8.22124 57.9493 18.9686
9297 2 6.40426 57.9333 21.5343
9296 2 9.13653 56.3643 21.5144
2937 1 10.0406 57.9435 20.2483
9335 2 10.9527 56.3779 18.95
8958 2 11.8605 57.9333 21.5343
2606 1 15.4969 57.9435 20.2483
2936 1 12.7726 56.373 20.2286
8985 2 13.6775 57.9493 18.9686
8983 2 14.5928 56.3643 21.5144
2623 1 18.2289 56.373 20.2286
8984 2 16.409 56.3779 18.95
8689 2 17.3167 57.9334 21.5344
2350 1 20.9531 57.9435 20.2483
8693 2 19.1337 57.9492 18.9685
8688 2 20.049 56.3643 21.5144
3556 1 1.85261 59.5138 20.2705
9586 2 2.75867 61.0911 19.0128
9894 2 0.0338883 59.5203 18.9897
9581 2 0.939943 61.0706 21.5819
3237 1 4.57716 61.0836 20.2951
9632 2 5.49009 59.5203 18.9897
9580 2 3.67209 59.5022 21.557
3236 1 7.3089 59.5138 20.2705
9301 2 8.21498 61.0911 19.0129
9258 2 6.39611 61.0706 21.5819
9299 2 9.12838 59.5022 21.5569
2906 1 10.0334 61.0836 20.295
9300 2 10.9461 59.5203 18.9897
8957 2 11.8523 61.0707 21.582
2605 1 15.4896 61.0836 20.295
2939 1 12.7652 59.5138 20.2705
8962 2 13.6712 61.0911 19.0129
8956 2 14.5846 59.5021 21.5569
2604 1 18.2214 59.5138 20.2705
8987 2 16.4024 59.5203 18.9897
8674 2 17.3087 61.0706 21.5819
2343 1 20.9459 61.0836 20.295
8692 2 19.1274 61.0912 19.0128
8691 2 20.0408 59.5022 21.5569
3515 1 1.84564 62.6531 20.3212
9585 2 2.75276 64.2317 19.064
9895 2 0.0275005 62.6616 19.0378
9536 2 0.932473 64.2071 21.637
3191 1 4.57079 64.2223 20.3489
9584 2 5.48375 62.6616 19.0377
9583 2 3.66434 62.6389 21.6088
3239 1 7.3019 62.6532 20.3213
9262 2 8.20904 64.2316 19.064
9256 2 9.1205 62.6389 21.6088
9257 2 6.38876 64.2071 21.637
2905 1 10.027 64.2223 20.3489
9303 2 10.94 62.6615 19.0376
8926 2 11.845 64.2071 21.637
2582 1 15.4832 64.2223 20.3489
2904 1 12.7582 62.6532 20.3213
8961 2 13.6654 64.2315 19.064
8959 2 14.5767 62.639 21.6087
2607 1 18.2144 62.6531 20.3213
8960 2 16.3962 62.6616 19.0377
8673 2 17.3012 64.207 21.6371
2342 1 20.9395 64.2223 20.3489
8677 2 19.1216 64.2316 19.0639
8672 2 20.033 62.639 21.6087
3516 1 1.83963 65.7911 20.3774
9540 2 2.74709 67.3712 19.1193
9858 2 0.021875 65.8014 19.0913
3190 1 4.56482 67.36 20.4066
9587 2 5.47809 65.8014 19.0914
3189 1 7.29585 65.7911 20.3774
9261 2 8.20331 67.3712 19.1194
2866 1 10.0211 67.36 20.4066
9260 2 10.9343 65.8014 19.0913
2581 1 15.4773 67.36 20.4066
2907 1 12.7521 65.7912 20.3775
8930 2 13.6596 67.3713 19.1194
2580 1 18.2083 65.7912 20.3774
8963 2 16.3906 65.8014 19.0913
2327 1 20.9335 67.36 20.4066
8676 2 19.1158 67.3712 19.1194
3476 1 1.83362 68.9291 20.436
9539 2 2.74107 70.5115 19.1764
9859 2 0.0159314 68.9413 19.1478
3144 1 4.55858 70.4983 20.4654
9538 2 5.47221 68.9413 19.1478
3192 1 7.28986 68.9291 20.436
9215 2 8.1973 70.5115 19.1764
2865 1 10.0148 70.4983 20.4654
9263 2 10.9284 68.9414 19.1479
2550 1 15.4711 70.4983 20.4654
2864 1 12.7461 68.929 20.436
8929 2 13.6535 70.5115 19.1765
2583 1 18.2023 68.9291 20.436
8928 2 16.3846 68.9414 19.1479
2326 1 20.9273 70.4983 20.4654
8653 2 19.1098 70.5115 19.1765
3477 1 1.82733 72.0681 20.4945
9500 2 2.73513 73.6528 19.2331
9826 2 0.00994921 72.0819 19.205
3143 1 4.55244 73.6384 20.523
9541 2 5.46621 72.082 19.205
3142 1 7.28357 72.0681 20.4945
9214 2 8.19138 73.6528 19.2331
2820 1 10.0087 73.6384 20.523
9213 2 10.9224 72.0819 19.2049
2549 1 15.4649 73.6384 20.523
2867 1 12.7398 72.0681 20.4945
8891 2 13.6476 73.6528 19.2331
2548 1 18.1961 72.0681 20.4945
8931 2 16.3786 72.0819 19.205
2304 1 20.9212 73.6384 20.523
8652 2 19.1039 73.6528 19.2331
3444 1 1.82147 75.2094 20.5509
9827 2 0.00432453 75.2242 19.2606
9499 2 2.72987 76.7963 19.2876
9498 2 5.46054 75.2242 19.2607
3104 1 4.54696 76.7812 20.578
3145 1 7.27771 75.2094 20.5509
9168 2 8.1861 76.7962 19.2876
9216 2 10.9168 75.2243 19.2606
2819 1 10.0032 76.7812 20.578
2818 1 12.7339 75.2094 20.5509
2514 1 15.4594 76.7812 20.578
8890 2 13.6423 76.7962 19.2876
2551 1 18.1902 75.2094 20.5509
8889 2 16.373 75.2243 19.2606
2303 1 20.9157 76.7812 20.578
8625 2 19.0986 76.7963 19.2876
3445 1 1.81634 78.3537 20.6043
9468 2 2.72514 79.9422 19.3396
9501 2 5.45549 78.3689 19.314
3103 1 4.54212 79.927 20.6298
3102 1 7.27255 78.3537 20.6043
9167 2 8.18139 79.9422 19.3396
9166 2 10.9118 78.3689 19.314
2775 1 9.99837 79.927 20.6298
2821 1 12.7288 78.3537 20.6043
2513 1 15.4546 79.927 20.6298
8851 2 13.6376 79.9422 19.3396
2512 1 18.185 78.3537 20.6043
8892 2 16.368 78.3689 19.314
9802 2 21.8242 78.3689 19.3139
2280 1 20.9108 79.927 20.6298
8624 2 19.0938 79.9421 19.3396
3420 1 1.81186 81.501 20.6544
9466 2 5.45108 81.516 19.3643
3105 1 7.26812 81.501 20.6544
9169 2 10.9073 81.5159 19.3643
2773 1 12.7243 81.501 20.6544
2515 1 18.1806 81.501 20.6544
8849 2 16.3636 81.516 19.3644
9803 2 21.8198 81.516 19.3643
3421 1 1.80808 84.6511 20.7012
9467 2 2.72086 83.0904 19.3883
3072 1 4.538 83.0757 20.6782
9469 2 5.44709 84.6654 19.4114
3070 1 7.26431 84.6511 20.7012
9128 2 8.1771 83.0904 19.3883
2774 1 9.99423 83.0757 20.6782
9126 2 10.9033 84.6654 19.4114
2478 1 15.4505 83.0757 20.6782
2776 1 12.7206 84.6511 20.7012
8850 2 13.6334 83.0905 19.3883
2476 1 18.1768 84.6511 20.7012
8852 2 16.3595 84.6654 19.4115
9786 2 21.8158 84.6654 19.4115
2279 1 20.9067 83.0757 20.6782
8597 2 19.0896 83.0905 19.3883
3404 1 1.80486 87.8035 20.7445
9444 2 2.71711 86.2409 19.4338
3071 1 4.53453 86.227 20.7233
9442 2 5.44365 87.817 19.4553
3073 1 7.2611 87.8035 20.7445
9127 2 8.17335 86.2409 19.4337
2737 1 9.99077 86.227 20.7233
9129 2 10.8999 87.8169 19.4553
2477 1 15.447 86.227 20.7233
2735 1 12.7173 87.8035 20.7445
8812 2 13.6296 86.2409 19.4338
2479 1 18.1736 87.8035 20.7445
8810 2 16.3561 87.8169 19.4553
9787 2 21.8124 87.817 19.4553
2256 1 20.9032 86.227 20.7233
8596 2 19.0858 86.2409 19.4338
3405 1 1.80218 90.958 20.7843
9443 2 2.71411 89.3935 19.4759
3048 1 4.53158 89.3805 20.7648
9445 2 5.44087 90.9704 19.4956
3046 1 7.25842 90.958 20.7843
9096 2 8.17034 89.3935 19.4759
2736 1 9.98781 89.3805 20.7648
9094 2 10.8971 90.9704 19.4956
2443 1 15.4441 89.3805 20.7648
2738 1 12.7146 90.958 20.7843
8811 2 13.6266 89.3935 19.4758
2441 1 18.1709 90.958 20.7843
8813 2 16.3534 90.9704 19.4956
9778 2 21.8096 90.9703 19.4956
2255 1 20.9003 89.3805 20.7648
8569 2 19.0828 89.3935 19.4758
3396 1 1.80001 94.1139 20.8208
9428 2 2.71158 92.5476 19.5145
3047 1 4.52915 92.5358 20.803
9426 2 5.43859 94.1251 19.5325
3049 1 7.25626 94.1139 20.8208
9095 2 8.16781 92.5476 19.5145
2707 1 9.98538 92.5358 20.803
9097 2 10.8948 94.1251 19.5325
2442 1 15.4416 92.5358 20.803
2705 1 12.7125 94.1139 20.8208
8780 2 13.624 92.5476 19.5145
2444 1 18.1687 94.1139 20.8208
8778 2 16.3511 94.1251 19.5325
9779 2 21.8073 94.1251 19.5325
2232 1 20.8979 92.5358 20.803
8568 2 19.0803 92.5476 19.5145
3397 1 1.7984 97.2712 20.8539
9427 2 2.70946 95.703 19.5496
3032 1 4.52727 95.6924 20.8378
9429 2 5.43668 97.2811 19.5659
3030 1 7.25464 97.2712 20.8539
9072 2 8.16569 95.7029 19.5497
2706 1 9.98351 95.6924 20.8378
9070 2 10.8929 97.2811 19.5659
2415 1 15.4397 95.6924 20.8378
2708 1 12.7109 97.2712 20.8539
8779 2 13.6219 95.7029 19.5497
2413 1 18.1671 97.2712 20.8539
8781 2 16.3492 97.2811 19.5659
9777 2 21.8054 97.2812 19.5659
2231 1 20.896 95.6924 20.8378
8542 2 19.0781 95.703 19.5496
9417 2 2.70783 98.8595 19.5813
5642 1 1.79718 100.43 20.8833
3031 1 4.52586 98.8503 20.8691
11844 2 5.43535 100.438 19.5957
9071 2 8.16409 98.8595 19.5812
5360 1 7.25341 100.43 20.8833
2682 1 9.98209 98.8503 20.8691
11536 2 10.8916 100.438 19.5957
2414 1 15.4383 98.8503 20.869
8753 2 13.6203 98.8595 19.5812
5009 1 12.7097 100.43 20.8833
4680 1 18.1659 100.43 20.8833
11177 2 16.3478 100.438 19.5957
12142 2 21.8041 100.438 19.5957
2208 1 20.8946 98.8503 20.869
8541 2 19.0766 98.8595 19.5812
3274 1 2.78557 51.6547 22.7488
3553 1 0.0531401 53.2221 22.7599
9624 2 1.87464 53.215 24.0454
9294 2 4.608 51.6496 24.0345
3275 1 5.50938 53.2221 22.7599
2934 1 8.24182 51.6547 22.7488
9292 2 7.33095 53.215 24.0454
8978 2 10.0642 51.6496 24.0346
2932 1 10.9656 53.222 22.7598
2618 1 13.698 51.6548 22.7488
8686 2 15.5204 51.6497 24.0346
8979 2 12.7873 53.2149 24.0453
2619 1 16.4219 53.222 22.7599
8684 2 18.2434 53.215 24.0453
2349 1 19.1542 51.6548 22.7488
8480 2 20.9767 51.6497 24.0346
3234 1 2.7767 54.79 22.7744
9293 2 4.59754 54.7807 24.06
2933 1 8.23296 54.79 22.7744
8954 2 10.0537 54.7808 24.0599
2602 1 13.6892 54.7899 22.7744
8685 2 15.5099 54.7806 24.0599
2348 1 19.1454 54.79 22.7744
8479 2 20.9663 54.7807 24.0599
3233 1 2.76714 57.9262 22.8135
3554 1 0.0437403 56.3582 22.7924
9578 2 1.86394 56.3466 24.0782
3232 1 5.49995 56.3582 22.7924
9254 2 4.5868 57.913 24.0997
2902 1 8.22338 57.9262 22.8135
9295 2 7.32012 56.3467 24.0782
2935 1 10.9562 56.3582 22.7924
8953 2 10.043 57.913 24.0997
2601 1 13.6796 57.9262 22.8135
8670 2 15.4992 57.9131 24.0997
8952 2 12.7764 56.3468 24.0782
2600 1 16.4125 56.3582 22.7923
8687 2 18.2327 56.3468 24.0781
2341 1 19.1359 57.9261 22.8135
8478 2 20.9554 57.9131 24.0997
3187 1 2.75809 61.0613 22.864
3513 1 0.0345104 59.4938 22.8374
9579 2 1.85342 59.4789 24.1244
3235 1 5.49072 59.4938 22.8374
9253 2 4.57676 61.0448 24.1519
2901 1 8.21437 61.0613 22.864
9252 2 7.3097 59.4789 24.1244
2900 1 10.9469 59.4939 22.8374
8922 2 10.033 61.0448 24.1518
2578 1 13.6706 61.0613 22.8641
8669 2 15.4892 61.0448 24.1518
8955 2 12.766 59.4789 24.1244
2603 1 16.4032 59.4939 22.8374
8668 2 18.2222 59.4789 24.1244
2340 1 19.1268 61.0613 22.8641
8471 2 20.9455 61.0448 24.1519
3186 1 2.74983 64.1956 22.923
3514 1 0.0257759 62.6286 22.8928
9532 2 1.84401 62.6104 24.1811
3185 1 5.48203 62.6286 22.8928
9207 2 4.56767 64.176 24.2117
2862 1 8.20608 64.1956 22.923
9255 2 7.30029 62.6104 24.1811
2903 1 10.9383 62.6285 22.8928
8921 2 10.0239 64.1761 24.2117
2577 1 13.6623 64.1955 22.9229
8646 2 15.4802 64.176 24.2117
8920 2 12.7565 62.6103 24.181
2576 1 16.3945 62.6286 22.8928
8671 2 18.2127 62.6103 24.1811
2325 1 19.1185 64.1955 22.923
8470 2 20.9364 64.176 24.2117
9535 2 0.925742 67.3429 21.6958
3140 1 2.74265 67.3292 22.9845
3474 1 0.0179875 65.7623 22.9537
9533 2 1.83525 65.7418 24.2428
9534 2 3.65723 65.7751 21.6661
3188 1 5.47424 65.7623 22.9537
9206 2 4.55942 67.3081 24.274
9211 2 6.38197 67.3429 21.6958
9259 2 9.11343 65.775 21.6661
2861 1 8.19888 67.3292 22.9845
9205 2 7.29144 65.7418 24.2428
8925 2 11.8382 67.3429 21.6957
2860 1 10.9305 65.7623 22.9537
8883 2 10.0157 67.3081 24.274
8924 2 14.5697 65.7749 21.6662
2546 1 13.6551 67.3291 22.9845
8645 2 15.4719 67.308 24.274
8923 2 12.7477 65.7419 24.2428
8650 2 17.2945 67.343 21.6957
2579 1 16.3867 65.7623 22.9537
8644 2 18.204 65.7419 24.2428
8675 2 20.0259 65.7751 21.6662
2324 1 19.1114 67.3292 22.9845
8456 2 20.9281 67.308 24.274
9496 2 0.919319 70.4802 21.7547
3139 1 2.73596 70.4645 23.045
3475 1 0.0112177 68.8964 23.015
9492 2 1.82768 68.8751 24.3047
9537 2 3.65059 68.9113 21.7254
3138 1 5.46745 68.8965 23.015
9160 2 4.55223 70.4431 24.3348
9209 2 9.10691 68.9113 21.7253
9210 2 6.37553 70.4803 21.7547
2816 1 8.1922 70.4645 23.045
9208 2 7.2839 68.8751 24.3047
8887 2 11.8317 70.4802 21.7547
2863 1 10.9237 68.8965 23.015
8882 2 10.0085 70.4431 24.3348
8927 2 14.5632 68.9113 21.7253
2545 1 13.6485 70.4645 23.045
8618 2 15.4647 70.4431 24.3348
8881 2 12.7401 68.8751 24.3047
8649 2 17.2879 70.4801 21.7547
2544 1 16.3799 68.8965 23.015
8647 2 18.1964 68.8751 24.3047
8648 2 20.0193 68.9112 21.7254
2302 1 19.1047 70.4645 23.045
8455 2 20.9209 70.4431 24.3348
9495 2 0.912876 73.6201 21.8122
3100 1 2.7295 73.6032 23.1031
3442 1 0.00455635 72.0334 23.0744
9493 2 1.82079 72.0122 24.364
9494 2 3.6441 72.0498 21.7838
3141 1 5.46081 72.0334 23.0745
9159 2 4.54586 73.5823 24.3924
9164 2 6.36914 73.6201 21.8122
9212 2 9.1003 72.0498 21.7838
2815 1 8.18574 73.6032 23.1031
9158 2 7.27706 72.0121 24.364
8886 2 11.8254 73.6201 21.8122
2814 1 10.917 72.0334 23.0745
8843 2 10.0021 73.5823 24.3924
8885 2 14.5566 72.0498 21.7838
2510 1 13.642 73.6032 23.1031
8617 2 15.4584 73.5822 24.3923
8884 2 12.7333 72.0121 24.364
8622 2 17.2816 73.6201 21.8122
2547 1 16.3733 72.0334 23.0745
8616 2 18.1895 72.0121 24.3641
8651 2 20.0129 72.0498 21.7838
2301 1 19.0982 73.6032 23.1031
8440 2 20.9146 73.5823 24.3923
9464 2 0.907432 76.7633 21.8666
9460 2 1.81495 75.1536 24.4197
3099 1 2.72411 76.7462 23.1576
9497 2 3.63818 75.1913 21.8398
3098 1 5.45478 75.1742 23.1308
9120 2 4.54058 76.7261 24.446
9162 2 9.09438 75.1913 21.8398
9163 2 6.36366 76.7633 21.8666
9161 2 7.27119 75.1536 24.4197
2771 1 8.18035 76.7462 23.1577
8847 2 11.8199 76.7633 21.8666
2817 1 10.911 75.1742 23.1308
8842 2 9.99679 76.7261 24.4461
8888 2 14.5506 75.1913 21.8398
8841 2 12.7274 75.1536 24.4197
2509 1 13.6366 76.7462 23.1576
8590 2 15.4531 76.7262 24.4461
8621 2 17.2762 76.7633 21.8666
2508 1 16.3673 75.1742 23.1308
8619 2 18.1836 75.1535 24.4197
3443 1 21.8235 75.1742 23.1308
8620 2 20.0069 75.1912 21.8398
2278 1 19.0928 76.7462 23.1576
8439 2 20.9093 76.7262 24.4461
9463 2 0.902929 79.9099 21.9178
9461 2 1.81028 78.2998 24.4715
3068 1 2.71967 79.8932 23.2084
9462 2 3.63321 78.3362 21.8926
3101 1 5.44991 78.3192 23.1835
9119 2 4.53655 79.8746 24.496
9165 2 9.08946 78.3362 21.8926
9124 2 6.35916 79.9099 21.9179
9118 2 7.26653 78.2998 24.4715
2770 1 8.1759 79.8932 23.2084
8846 2 11.8154 79.9099 21.9179
2769 1 10.9061 78.3192 23.1835
8804 2 9.99279 79.8746 24.496
8845 2 14.5457 78.3362 21.8927
8844 2 12.7228 78.2999 24.4715
2474 1 13.6321 79.8932 23.2084
8589 2 15.449 79.8746 24.4961
8594 2 17.2717 79.9099 21.9178
2511 1 16.3624 78.3192 23.1835
8588 2 18.179 78.2999 24.4715
3418 1 21.8186 78.3192 23.1835
8623 2 20.0019 78.3362 21.8926
2277 1 19.0884 79.8932 23.2084
8424 2 20.9052 79.8746 24.496
9465 2 3.62903 81.4844 21.9422
3066 1 5.44585 81.4681 23.2324
9122 2 9.0853 81.4845 21.9422
2772 1 10.9021 81.4681 23.2324
8848 2 14.5415 81.4845 21.9422
2472 1 16.3583 81.4681 23.2324
8592 2 19.9977 81.4844 21.9423
3419 1 21.8146 81.4681 23.2324
9440 2 0.899125 83.0598 21.9656
3067 1 2.71598 83.0438 23.2556
9438 2 3.62551 84.6356 21.9882
3069 1 5.44255 84.6203 23.2779
9123 2 6.35536 83.0598 21.9657
9125 2 9.08174 84.6356 21.9882
2733 1 8.17222 83.0438 23.2556
8808 2 11.8116 83.0597 21.9657
2731 1 10.8988 84.6203 23.2779
8806 2 14.538 84.6357 21.9882
2473 1 13.6285 83.0438 23.2556
8593 2 17.2678 83.0597 21.9657
2475 1 16.355 84.6203 23.2779
3402 1 21.8113 84.6203 23.2779
8595 2 19.9942 84.6357 21.9882
2254 1 19.0847 83.0438 23.2556
9439 2 0.895805 86.2122 22.0099
3044 1 2.71304 86.1975 23.2994
9441 2 3.62252 87.7893 22.0309
3042 1 5.4399 87.7752 23.32
9090 2 9.07875 87.7893 22.0309
9092 2 6.35203 86.2122 22.0099
2732 1 8.16928 86.1975 23.2994
8807 2 11.8083 86.2122 22.01
2734 1 10.8961 87.7752 23.32
8809 2 14.535 87.7893 22.0309
2439 1 13.6255 86.1975 23.2994
8566 2 17.2645 86.2122 22.01
2437 1 16.3524 87.7752 23.32
3403 1 21.8086 87.7752 23.32
8564 2 19.9913 87.7893 22.0308
2253 1 19.0817 86.1975 23.2994
9424 2 0.893123 89.367 22.051
3043 1 2.71063 89.3535 23.3398
9422 2 3.62017 90.9452 22.0702
3045 1 5.43773 90.9323 23.3588
9091 2 6.3494 89.3669 22.051
9093 2 9.07643 90.9452 22.0702
2703 1 8.16687 89.3535 23.3398
8776 2 11.8056 89.367 22.0509
2701 1 10.894 90.9323 23.3588
8774 2 14.5326 90.9451 22.0702
2438 1 13.6231 89.3536 23.3398
8565 2 17.2618 89.367 22.051
2440 1 16.3502 90.9323 23.3588
3394 1 21.8064 90.9323 23.3588
8567 2 19.9889 90.9452 22.0702
2230 1 19.0794 89.3536 23.3398
9423 2 0.891088 92.5237 22.0886
3028 1 2.70871 92.5115 23.3769
3026 1 5.43604 94.0911 23.3942
9425 2 3.61833 94.1026 22.1062
9068 2 6.34732 92.5237 22.0886
2702 1 8.16496 92.5115 23.3769
9066 2 9.07454 94.1026 22.1062
8775 2 11.8036 92.5237 22.0886
2704 1 10.8923 94.0911 23.3942
2411 1 13.6212 92.5115 23.3769
8777 2 14.5308 94.1026 22.1061
8539 2 17.2598 92.5237 22.0886
2409 1 16.3485 94.0911 23.3942
3395 1 21.8048 94.0911 23.3942
2229 1 19.0774 92.5115 23.3769
8537 2 19.9871 94.1026 22.1061
3027 1 2.70727 95.671 23.4107
9416 2 0.889391 95.6818 22.1229
3029 1 5.43485 97.2513 23.4263
9414 2 3.61685 97.2613 22.1387
2681 1 8.16351 95.671 23.4107
9067 2 6.34565 95.6818 22.1229
9069 2 9.07309 97.2613 22.1387
2679 1 10.8911 97.2513 23.4263
8752 2 11.8019 95.6819 22.1228
2410 1 13.6197 95.671 23.4107
8750 2 14.5293 97.2613 22.1387
2412 1 16.3473 97.2513 23.4263
8538 2 17.2581 95.6818 22.1228
3393 1 21.8036 97.2513 23.4263
2207 1 19.076 95.671 23.4107
8540 2 19.9855 97.2613 22.1387
3017 1 2.70626 98.8317 23.4411
9415 2 0.888197 98.8411 22.1536
5321 1 5.43403 100.413 23.455
11843 2 3.61583 100.421 22.1677
2680 1 8.1625 98.8318 23.4411
9049 2 6.34441 98.8411 22.1537
11505 2 9.07206 100.421 22.1677
8751 2 11.8006 98.8411 22.1537
5008 1 10.8903 100.413 23.455
2388 1 13.6187 98.8318 23.4411
11176 2 14.5283 100.421 22.1678
8516 2 17.2569 98.8411 22.1536
4665 1 16.3465 100.413 23.455
5641 1 21.8027 100.413 23.455
2206 1 19.075 98.8317 23.4411
10873 2 19.9846 100.421 22.1677
3230 1 0.974695 51.6455 25.3112
9290 2 2.79692 51.6378 26.5973
9576 2 0.0616145 53.1989 26.6076
3228 1 3.69638 53.209 25.3217
9291 2 5.51792 53.1989 26.6076
2930 1 6.43093 51.6455 25.3112
8950 2 8.25313 51.6379 26.5973
2931 1 9.15257 53.209 25.3217
2598 1 11.8872 51.6455 25.3112
8948 2 10.9741 53.199 26.6076
8682 2 13.7094 51.6378 26.5974
2596 1 14.6089 53.209 25.3217
2346 1 17.3434 51.6455 25.3112
8683 2 16.4303 53.199 26.6075
8477 2 19.1657 51.6378 26.5974
2347 1 20.0651 53.209 25.3217
3229 1 0.961657 54.7733 25.3361
9250 2 2.78226 54.7608 26.6222
2898 1 6.4179 54.7733 25.3362
8949 2 8.23848 54.7607 26.6222
2597 1 11.8741 54.7733 25.3362
8666 2 13.6948 54.7609 26.6221
2338 1 17.3304 54.7733 25.3362
8476 2 19.151 54.7609 26.6222
3183 1 0.949166 57.9038 25.3786
9249 2 2.76807 57.886 26.6651
9577 2 0.0467428 56.3235 26.6415
3231 1 3.68338 56.3385 25.3553
9248 2 5.50305 56.3235 26.6414
2896 1 9.13963 56.3385 25.3552
2897 1 6.40543 57.9038 25.3786
8918 2 8.22436 57.8861 26.6651
2574 1 11.8617 57.9038 25.3785
8951 2 10.9592 56.3235 26.6414
2599 1 14.5959 56.3385 25.3553
8665 2 13.6806 57.886 26.6651
2337 1 17.3179 57.9038 25.3785
8664 2 16.4154 56.3235 26.6415
2336 1 20.0521 56.3385 25.3553
8469 2 19.1368 57.886 26.6651
3182 1 0.938053 61.0332 25.4349
9203 2 2.75607 61.0109 26.723
9530 2 0.0337118 59.4486 26.6926
3181 1 3.67149 59.4686 25.4054
9251 2 5.48987 59.4486 26.6927
2858 1 6.39426 61.0332 25.4349
2899 1 9.12771 59.4686 25.4053
8917 2 8.21227 61.0109 26.7231
2573 1 11.8505 61.0332 25.4349
8916 2 10.9461 59.4485 26.6927
2572 1 14.584 59.4686 25.4053
8642 2 13.6684 61.011 26.7231
2322 1 17.3068 61.0332 25.4348
8667 2 16.4025 59.4486 26.6926
2339 1 20.0402 59.4686 25.4053
8468 2 19.1247 61.011 26.723
3136 1 0.928274 64.1612 25.4993
9202 2 2.74503 64.1361 26.7888
9531 2 0.0223459 62.5732 26.7555
3184 1 3.66124 62.5972 25.4665
9201 2 5.47857 62.5731 26.7554
2856 1 9.11748 62.5972 25.4665
2857 1 6.38452 64.1611 25.4993
8879 2 8.20129 64.1361 26.7888
2542 1 11.8407 64.1611 25.4993
8919 2 10.9348 62.5732 26.7554
2575 1 14.5737 62.5972 25.4665
8641 2 13.6575 64.1361 26.7888
2321 1 17.297 64.1611 25.4993
8640 2 16.3911 62.5732 26.7555
2320 1 20.0299 62.5972 25.4665
8454 2 19.1138 64.1361 26.7888
3135 1 0.919199 67.2907 25.5648
9156 2 2.73544 67.2645 26.8545
9490 2 0.0119079 65.6997 26.822
3134 1 3.65165 65.7256 25.5323
9204 2 5.46815 65.6998 26.822
2812 1 6.37544 67.2907 25.5648
2859 1 9.10793 65.7256 25.5323
8878 2 8.19162 67.2645 26.8546
2541 1 11.8317 67.2907 25.5648
8877 2 10.9243 65.6997 26.822
2540 1 14.5642 65.7256 25.5323
8614 2 13.6479 67.2646 26.8545
2299 1 17.2879 67.2907 25.5648
8643 2 16.3806 65.6996 26.822
2323 1 20.0204 65.7256 25.5323
8453 2 19.1042 67.2646 26.8545
3096 1 0.911831 70.4238 25.6267
9155 2 2.72754 70.3984 26.9162
9491 2 0.00312534 68.8306 26.886
3137 1 3.64341 68.8566 25.5963
9154 2 5.45938 68.8306 26.886
2810 1 9.09965 68.8566 25.5963
2811 1 6.36806 70.4238 25.6267
8839 2 8.1838 70.3984 26.9162
2506 1 11.8243 70.4238 25.6267
8880 2 10.9156 68.8307 26.886
2543 1 14.5559 68.8566 25.5963
8613 2 13.64 70.3983 26.9162
2298 1 17.2805 70.4238 25.6267
8612 2 16.3719 68.8307 26.886
2297 1 20.0121 68.8566 25.5963
8438 2 19.0963 70.3983 26.9162
3095 1 0.905532 73.5623 25.6841
9116 2 2.72155 73.5385 26.973
3094 1 3.63667 71.9923 25.6559
9157 2 5.45245 71.9676 26.9452
2767 1 6.36177 73.5623 25.6841
2813 1 9.09291 71.9923 25.6559
8838 2 8.17777 73.5385 26.973
2505 1 11.818 73.5623 25.6841
8837 2 10.9087 71.9676 26.9452
2504 1 14.5491 71.9923 25.6559
8586 2 13.634 73.5385 26.973
2275 1 17.2742 73.5623 25.6841
8615 2 16.365 71.9676 26.9452
9458 2 21.8212 71.9676 26.9452
2300 1 20.0054 71.9923 25.6559
8437 2 19.0902 73.5385 26.973
3064 1 0.900553 76.7067 25.7374
9115 2 2.71696 76.6845 27.0253
3097 1 3.63095 75.1338 25.7113
9114 2 5.44718 75.1108 26.9997
2765 1 9.08719 75.1338 25.7113
2766 1 6.3568 76.7067 25.7374
8800 2 8.17322 76.6845 27.0252
8840 2 10.9034 75.1108 26.9997
2470 1 11.813 76.7067 25.7374
2507 1 14.5434 75.1338 25.7113
8585 2 13.6295 76.6845 27.0253
8584 2 16.3596 75.1109 26.9997
2274 1 17.2692 76.7067 25.7374
9459 2 21.8159 75.1109 26.9997
2273 1 19.9997 75.1338 25.7113
8422 2 19.0857 76.6845 27.0253
3063 1 0.896842 79.8561 25.7867
9084 2 2.71368 79.8358 27.0737
3062 1 3.62668 78.2808 25.7626
9117 2 5.44333 78.2596 27.05
2768 1 9.08292 78.2808 25.7626
2729 1 6.35308 79.8561 25.7867
8799 2 8.16994 79.8358 27.0737
8798 2 10.8995 78.2596 27.05
2469 1 11.8093 79.8561 25.7867
2468 1 14.5392 78.2808 25.7625
8558 2 13.6262 79.8358 27.0737
8587 2 16.3558 78.2596 27.0499
2251 1 17.2656 79.8561 25.7867
9434 2 21.8121 78.2596 27.0499
2276 1 19.9954 78.2808 25.7626
8421 2 19.0824 79.8358 27.0737
9436 2 1.80673 81.4502 24.5197
9083 2 2.7114 82.9912 27.1186
3065 1 3.62341 81.4323 25.81
9082 2 5.44056 81.413 27.0966
9121 2 7.26296 81.4502 24.5197
2727 1 9.07965 81.4323 25.81
8768 2 8.16765 82.9912 27.1186
8801 2 10.8968 81.413 27.0965
8802 2 12.7192 81.4502 24.5197
2471 1 14.5359 81.4323 25.81
8557 2 13.6239 82.9912 27.1186
8591 2 18.1755 81.4502 24.5197
8556 2 16.3531 81.413 27.0965
9435 2 21.8093 81.413 27.0965
2249 1 19.9921 81.4323 25.81
8406 2 19.0801 82.9912 27.1186
9437 2 1.80385 84.6039 24.5646
3040 1 0.893882 83.0095 25.8324
9088 2 4.53337 83.0267 24.5426
3038 1 3.62077 84.5875 25.854
9085 2 5.43853 84.5701 27.1399
9086 2 7.26009 84.6039 24.5646
2728 1 6.35012 83.0095 25.8324
2730 1 9.07701 84.5874 25.854
8803 2 9.98959 83.0266 24.5426
2435 1 11.8064 83.0095 25.8324
8766 2 10.8948 84.5701 27.1399
8562 2 15.4458 83.0266 24.5426
8805 2 12.7163 84.6039 24.5645
2433 1 14.5332 84.5874 25.854
8560 2 18.1726 84.6039 24.5645
2250 1 17.2626 83.0095 25.8324
8559 2 16.351 84.5701 27.1399
8423 2 20.9021 83.0267 24.5426
9418 2 21.8072 84.5701 27.1399
2252 1 19.9895 84.5875 25.854
9420 2 1.80145 87.7603 24.6059
3039 1 0.891605 86.1661 25.8748
9060 2 2.70953 86.1496 27.1604
9087 2 4.53065 86.1818 24.5857
3041 1 3.61882 87.7455 25.8948
9058 2 5.43686 87.7299 27.1801
9089 2 7.25769 87.7604 24.6059
2697 1 9.07506 87.7455 25.8948
2699 1 6.34784 86.1661 25.8748
8767 2 8.16573 86.1497 27.1604
8772 2 9.98693 86.1819 24.5856
2434 1 11.8041 86.1661 25.8748
8769 2 10.8931 87.7299 27.18
8561 2 15.4432 86.1818 24.5856
8770 2 12.7139 87.7603 24.6059
2436 1 14.5313 87.7455 25.8948
8531 2 13.622 86.1496 27.1604
8563 2 18.1701 87.7603 24.6059
2227 1 17.2603 86.1661 25.8748
8529 2 16.3493 87.7299 27.1801
8408 2 20.8994 86.1818 24.5857
9419 2 21.8056 87.7299 27.1801
2225 1 19.9875 87.7455 25.8948
8405 2 19.0783 86.1496 27.1604
9421 2 1.79963 90.919 24.6441
3024 1 0.889893 89.3254 25.9139
9059 2 2.7081 89.3106 27.1989
9064 2 4.52859 89.3395 24.6254
3022 1 3.61731 90.9057 25.9323
9061 2 5.4357 90.8919 27.217
9062 2 7.25586 90.919 24.6441
2698 1 6.34613 89.3254 25.9139
2700 1 9.07354 90.9057 25.9323
8744 2 8.16434 89.3106 27.1989
8771 2 9.98482 89.3394 24.6254
2407 1 11.8024 89.3254 25.9139
8742 2 10.8919 90.8919 27.217
8535 2 15.4411 89.3395 24.6254
8773 2 12.7121 90.919 24.6441
2405 1 14.5298 90.9057 25.9323
8530 2 13.6206 89.3106 27.1989
8533 2 18.1684 90.919 24.6441
2226 1 17.2586 89.3254 25.9139
8532 2 16.3482 90.8919 27.2171
8407 2 20.8973 89.3395 24.6254
9410 2 21.8044 90.8919 27.217
2228 1 19.986 90.9057 25.9323
8390 2 19.0768 89.3106 27.1989
9412 2 1.79829 94.0794 24.6791
3023 1 0.888549 92.4865 25.9499
9044 2 2.70711 92.4737 27.2344
9063 2 4.52704 92.499 24.662
3025 1 3.61614 94.0676 25.9667
9042 2 5.43484 94.0556 27.2511
9065 2 7.25454 94.0794 24.6791
2675 1 9.07239 94.0676 25.9667
2677 1 6.34479 92.4865 25.9499
8743 2 8.16335 92.4736 27.2344
8748 2 9.98326 92.499 24.662
2406 1 11.801 92.4865 25.9499
8745 2 10.8911 94.0556 27.2511
8534 2 15.4395 92.499 24.662
8746 2 12.7108 94.0794 24.6791
2408 1 14.5286 94.0676 25.9667
8511 2 13.6196 92.4736 27.2344
8536 2 18.167 94.0794 24.6791
2204 1 17.2573 92.4865 25.9499
8509 2 16.3473 94.0556 27.251
8392 2 20.8958 92.499 24.662
9411 2 21.8036 94.0556 27.251
2202 1 19.9849 94.0676 25.9667
8389 2 19.0758 92.4736 27.2345
9413 2 1.7973 97.2411 24.7107
3016 1 0.887595 95.6491 25.9828
9043 2 2.70645 95.6379 27.2669
9048 2 4.52586 95.6601 24.6953
3014 1 3.61538 97.2309 25.998
9045 2 5.43436 97.2205 27.2819
9046 2 7.25353 97.2411 24.7107
2676 1 6.34384 95.6491 25.9828
2678 1 9.07162 97.2309 25.998
8728 2 8.16268 95.6379 27.2669
8747 2 9.9821 95.6601 24.6953
2387 1 11.8001 95.6491 25.9828
8726 2 10.8906 97.2205 27.2819
8515 2 15.4383 95.6601 24.6953
8749 2 12.7098 97.2411 24.7107
2385 1 14.5279 97.2309 25.998
8510 2 13.6189 95.638 27.2669
8513 2 18.166 97.2411 24.7107
2203 1 17.2563 95.6491 25.9828
8512 2 16.3468 97.2205 27.2819
8391 2 20.8946 95.6601 24.6953
9409 2 21.8031 97.2205 27.2819
2205 1 19.9841 97.2309 25.998
8375 2 19.0752 95.6379 27.2668
11799 2 1.7966 100.404 24.739
3015 1 0.887032 98.8129 26.0124
9033 2 2.70607 98.8034 27.2961
9047 2 4.52504 98.8224 24.7253
5320 1 3.61497 100.395 26.026
11465 2 5.43407 100.386 27.3094
11504 2 7.25285 100.404 24.739
2660 1 6.34327 98.8129 26.0124
8727 2 8.16233 98.8034 27.2961
4977 1 9.07121 100.395 26.026
8729 2 9.98127 98.8224 24.7253
2386 1 11.7995 98.8129 26.0124
11152 2 10.8903 100.386 27.3095
8514 2 15.4375 98.8224 24.7253
11153 2 12.7091 100.404 24.739
8496 2 13.6185 98.8034 27.2961
4664 1 14.5274 100.395 26.0259
10872 2 18.1653 100.404 24.7391
2185 1 17.2557 98.8129 26.0124
10857 2 16.3466 100.386 27.3095
8376 2 20.8938 98.8224 24.7253
11798 2 21.8028 100.386 27.3094
8374 2 19.0748 98.8034 27.2961
4393 1 19.9837 100.395 26.0259
9246 2 0.987473 51.6209 29.1605
3227 1 1.8839 53.1898 27.8837
2894 1 4.62095 51.6303 27.8744
9244 2 3.70487 53.1766 29.1687
8946 2 6.44368 51.6209 29.1606
2892 1 7.34013 53.1898 27.8836
8947 2 9.1612 53.1765 29.1687
2594 1 10.0772 51.6303 27.8743
8662 2 11.8999 51.621 29.1607
2334 1 15.5334 51.6303 27.8744
2595 1 12.7964 53.1898 27.8836
8660 2 14.6173 53.1765 29.1687
8474 2 17.3562 51.6209 29.1607
2332 1 18.2526 53.1898 27.8837
2160 1 20.9897 51.6303 27.8744
8475 2 20.0735 53.1766 29.1687
9245 2 0.965954 54.7337 29.1827
3179 1 1.86601 56.3127 27.9187
2893 1 4.60287 54.7512 27.8984
9247 2 3.68409 56.2918 29.2035
8914 2 6.42221 54.7337 29.1826
2895 1 7.3222 56.3127 27.9188
8912 2 9.14023 56.2918 29.2036
2570 1 10.0591 54.7511 27.8985
8661 2 11.8785 54.7337 29.1827
2333 1 15.5154 54.7512 27.8984
2568 1 12.7785 56.3127 27.9188
8663 2 14.5965 56.2918 29.2035
8466 2 17.3348 54.7337 29.1827
2335 1 18.2347 56.3127 27.9187
2159 1 20.9716 54.7512 27.8984
8464 2 20.0528 56.2917 29.2035
9199 2 0.947283 57.8498 29.2301
2854 1 4.58604 57.874 27.9446
8913 2 6.40351 57.8497 29.2302
2569 1 10.0422 57.874 27.9447
8638 2 11.8598 57.8497 29.2302
2318 1 15.4985 57.874 27.9447
8465 2 17.3161 57.8497 29.2302
2158 1 20.9547 57.874 27.9447
3180 1 1.85085 59.4352 27.975
9198 2 0.93271 60.9651 29.297
2853 1 4.57265 60.9957 28.0088
9197 2 3.66785 59.4074 29.2619
2852 1 7.3071 59.4352 27.9749
8875 2 6.38896 60.9651 29.2969
8915 2 9.12409 59.4074 29.2619
2538 1 10.0289 60.9957 28.0088
8637 2 11.8452 60.9651 29.2969
2317 1 15.4851 60.9958 28.0088
2571 1 12.7634 59.4353 27.9749
8636 2 14.5802 59.4074 29.2619
2316 1 18.2196 59.4352 27.975
8451 2 17.3015 60.9652 29.2969
2151 1 20.9414 60.9957 28.0088
8467 2 20.0365 59.4074 29.2619
3132 1 1.83837 62.5556 28.044
9152 2 0.919926 64.0836 29.3691
2808 1 4.5606 64.1161 28.0793
9200 2 3.65423 62.5236 29.3332
2855 1 7.29462 62.5556 28.044
8873 2 9.11051 62.5235 29.3332
8874 2 6.37616 64.0837 29.3691
2537 1 10.0168 64.1161 28.0793
8610 2 11.8324 64.0836 29.3691
2295 1 15.4731 64.1161 28.0793
2536 1 12.7509 62.5556 28.044
8639 2 14.5668 62.5236 29.3332
2319 1 18.2071 62.5556 28.044
8450 2 17.2886 64.0835 29.3691
2150 1 20.9293 64.1161 28.0793
8449 2 20.023 62.5236 29.3332
3133 1 1.82738 65.6781 28.114
9151 2 0.909475 67.2097 29.437
2807 1 4.55069 67.2416 28.1476
9150 2 3.64242 65.6454 29.4039
2806 1 7.2836 65.6781 28.114
8835 2 6.3657 67.2097 29.4369
8876 2 9.09869 65.6454 29.4039
2502 1 10.007 67.2416 28.1477
8609 2 11.8219 67.2097 29.437
2294 1 15.4632 67.2417 28.1477
2539 1 12.7398 65.6781 28.114
8608 2 14.5549 65.6455 29.4039
2293 1 18.1961 65.6781 28.114
8435 2 17.2782 67.2097 29.437
2139 1 20.9194 67.2417 28.1476
8452 2 20.0111 65.6455 29.4039
3092 1 1.8181 68.8071 28.1797
9112 2 0.901613 70.3449 29.4983
2763 1 4.54238 70.3745 28.2098
9153 2 3.63327 68.7763 29.4685
2809 1 7.27434 68.8071 28.1797
8833 2 9.08951 68.7762 29.4685
8834 2 6.35786 70.3449 29.4983
2501 1 9.99862 70.3746 28.2098
8582 2 11.8141 70.3449 29.4983
2271 1 15.4549 70.3746 28.2098
2500 1 12.7306 68.8071 28.1797
8611 2 14.5458 68.7762 29.4684
2296 1 18.1868 68.8071 28.1797
8434 2 17.2704 70.3449 29.4983
2138 1 20.9111 70.3745 28.2098
8433 2 20.002 68.7762 29.4684
3093 1 1.81118 71.9438 28.2383
9111 2 0.896348 73.4882 29.5535
2762 1 4.53671 73.515 28.2655
9110 2 3.62687 71.9156 29.5266
2761 1 7.26742 71.9438 28.2384
8796 2 6.35259 73.4882 29.5534
8836 2 9.08309 71.9156 29.5266
2466 1 9.99295 73.515 28.2655
8581 2 11.8088 73.4882 29.5534
2270 1 15.4492 73.515 28.2655
2503 1 12.7236 71.9438 28.2384
8580 2 14.5393 71.9157 29.5266
2269 1 18.1799 71.9438 28.2383
8419 2 17.2651 73.4882 29.5534
2127 1 20.9054 73.515 28.2655
8436 2 19.9956 71.9157 29.5266
3060 1 1.80644 75.088 28.2915
9080 2 0.893185 76.6383 29.6035
9113 2 3.62268 75.0624 29.5789
2725 1 4.53278 76.6625 28.3166
2764 1 7.26268 75.0879 28.2915
8794 2 9.07893 75.0624 29.5789
8795 2 6.34938 76.6383 29.6035
2465 1 9.98902 76.6625 28.3166
8554 2 11.8056 76.6383 29.6035
2464 1 12.7189 75.0879 28.2915
8583 2 14.5352 75.0624 29.5789
2247 1 15.4453 76.6624 28.3166
2272 1 18.1751 75.088 28.2915
8418 2 17.2619 76.6382 29.6034
8417 2 19.9914 75.0624 29.5789
2126 1 20.9015 76.6625 28.3166
3061 1 1.80323 78.2383 28.3408
9079 2 0.891036 79.7937 29.65
9078 2 3.62014 78.2154 29.6272
2724 1 4.53018 79.8155 28.3641
2723 1 7.25947 78.2383 28.3408
8797 2 9.07634 78.2155 29.6272
8764 2 6.34732 79.7937 29.65
2431 1 9.98641 79.8155 28.3641
8553 2 11.8036 79.7937 29.65
2467 1 12.7157 78.2383 28.3408
8552 2 14.5326 78.2155 29.6272
2246 1 15.4426 79.8155 28.3641
2245 1 18.172 78.2383 28.3408
8403 2 17.2598 79.7937 29.65
8420 2 19.9888 78.2155 29.6272
2115 1 20.8989 79.8155 28.3641
3036 1 1.80102 81.3936 28.3865
9056 2 0.889741 82.9534 29.6933
9081 2 3.61844 81.3731 29.6721
2695 1 4.52818 82.9727 28.4081
2726 1 7.25725 81.3936 28.3865
8762 2 9.07468 81.3731 29.672
8763 2 6.34597 82.9534 29.6933
2430 1 9.98442 82.9727 28.4081
8527 2 11.8022 82.9534 29.6933
2429 1 12.7135 81.3936 28.3865
8555 2 14.5309 81.3731 29.672
2223 1 15.4407 82.9727 28.4081
2248 1 18.1697 81.3936 28.3865
8402 2 17.2585 82.9534 29.6933
8401 2 19.9872 81.3731 29.6721
2114 1 20.8969 82.9727 28.4081
3037 1 1.79928 84.5525 28.4289
9054 2 3.61737 84.5343 29.7139
2693 1 7.25551 84.5526 28.4289
8765 2 9.0736 84.5343 29.7139
2432 1 12.7118 84.5525 28.4289
8525 2 14.5298 84.5343 29.7139
2221 1 18.168 84.5525 28.4289
8404 2 19.9861 84.5343 29.7139
3020 1 1.79809 87.7143 28.4683
9055 2 0.888799 86.116 29.7337
2694 1 4.52675 86.1331 28.449
9057 2 3.6165 87.6981 29.7528
2696 1 7.25433 87.7143 28.4683
8738 2 9.07277 87.6981 29.7528
8740 2 6.34502 86.1159 29.7337
2403 1 9.98299 86.1331 28.449
8526 2 11.8012 86.116 29.7337
2222 1 15.4392 86.1331 28.449
2401 1 12.7106 87.7143 28.4683
8528 2 14.529 87.6981 29.7528
2224 1 18.1668 87.7143 28.4684
8387 2 17.2575 86.116 29.7337
2103 1 20.8955 86.1331 28.449
8385 2 19.9852 87.6981 29.7528
3021 1 1.79726 90.8781 28.5048
9040 2 0.888139 89.2807 29.7711
2673 1 4.52578 89.296 28.4869
9038 2 3.616 90.8639 29.7887
2671 1 7.2535 90.8781 28.5048
8739 2 6.34439 89.2807 29.7711
8741 2 9.07225 90.8638 29.7887
2402 1 9.98201 89.296 28.4869
8507 2 11.8006 89.2807 29.7711
2200 1 15.4383 89.296 28.4869
2404 1 12.7097 90.8781 28.5048
8505 2 14.5285 90.8638 29.7887
2198 1 18.166 90.8781 28.5048
8386 2 17.2568 89.2807 29.7711
2102 1 20.8945 89.296 28.4869
8388 2 19.9847 90.8639 29.7887
3012 1 1.7967 94.0435 28.5382
9039 2 0.887696 92.4473 29.8056
2672 1 4.52507 92.4606 28.5219
9041 2 3.61574 94.0311 29.8218
2674 1 7.25293 94.0435 28.5382
8722 2 9.07195 94.0311 29.8218
8724 2 6.34393 92.4473 29.8057
2383 1 9.98133 92.4606 28.5218
8506 2 11.8002 92.4473 29.8056
2199 1 15.4376 92.4606 28.5218
2381 1 12.7092 94.0435 28.5382
8508 2 14.5282 94.0311 29.8218
2201 1 18.1654 94.0435 28.5382
8372 2 17.2564 92.4473 29.8056
2091 1 20.8938 92.4606 28.5219
8370 2 19.9845 94.0311 29.8218
3013 1 1.7964 97.2101 28.5686
9032 2 0.887577 95.6151 29.8373
2659 1 4.52462 95.6266 28.5538
9030 2 3.61571 97.1995 29.8519
2657 1 7.25264 97.2101 28.5686
8723 2 6.34381 95.6151 29.8372
8725 2 9.07194 97.1995 29.8519
2382 1 9.98086 95.6266 28.5538
8495 2 11.8 95.6152 29.8373
2184 1 15.4371 95.6266 28.5538
2384 1 12.7089 97.2101 28.5686
8493 2 14.5281 97.1995 29.8519
2182 1 18.1651 97.2101 28.5686
8371 2 17.2563 95.6152 29.8373
2090 1 20.8933 95.6266 28.5538
8373 2 19.9844 97.1995 29.8519
9031 2 0.887584 98.784 29.8658
5274 1 1.79639 100.378 28.5959
2658 1 4.52448 98.7937 28.5827
11464 2 3.61579 100.369 29.8789
8713 2 6.34383 98.784 29.8658
4976 1 7.25263 100.378 28.5959
11121 2 9.07203 100.369 29.8789
2368 1 9.98071 98.7937 28.5827
8494 2 11.8001 98.784 29.8658
2183 1 15.437 98.7937 28.5827
4641 1 12.7089 100.378 28.5959
10856 2 14.5283 100.369 29.8789
8361 2 17.2563 98.784 29.8658
4392 1 18.1651 100.378 28.5959
2079 1 20.8932 98.7937 28.5827
10649 2 19.9845 100.369 29.8789
2890 1 2.8127 51.6085 30.4418
2846 1 1.00786 51.5852 33.0241
9243 2 1.89151 53.1479 31.7278
3177 1 0.0719597 53.1627 30.4469
8910 2 4.63543 51.6008 31.725
2891 1 5.52823 53.1627 30.4469
2844 1 3.71265 53.1256 33.013
2566 1 8.26894 51.6085 30.4419
2562 1 6.46406 51.5852 33.0241
8908 2 7.34775 53.1479 31.7279
2563 1 9.16885 53.1256 33.0129
8658 2 10.0916 51.6007 31.725
2310 1 11.9203 51.5852 33.024
2564 1 10.9845 53.1627 30.4469
2330 1 13.7251 51.6085 30.442
8462 2 15.5479 51.6008 31.7249
8659 2 12.804 53.1478 31.7278
2308 1 14.6251 53.1256 33.0129
2154 1 17.3766 51.5852 33.024
2331 1 16.4407 53.1626 30.4469
8460 2 18.2602 53.1477 31.7278
2157 1 19.1813 51.6085 30.4419
8352 2 21.0041 51.6008 31.725
2155 1 20.0814 53.1256 33.013
2850 1 2.78527 54.7191 30.4602
2845 1 0.962216 54.6761 33.0278
3178 1 0.0455459 56.277 30.4824
9195 2 1.86202 56.248 31.7623
8909 2 4.60386 54.6975 31.7388
2848 1 5.50181 56.277 30.4824
2847 1 3.67422 56.2246 33.0524
2565 1 8.24154 54.7191 30.4601
2530 1 6.41845 54.6761 33.0278
8911 2 7.31829 56.248 31.7622
2528 1 9.1305 56.2246 33.0524
8634 2 10.0601 54.6976 31.7388
2309 1 11.8747 54.6761 33.0278
2567 1 10.958 56.277 30.4824
2314 1 13.6978 54.7191 30.4601
8461 2 15.5163 54.6975 31.7389
8632 2 12.7745 56.248 31.7622
2311 1 14.5867 56.2246 33.0524
2146 1 17.3309 54.676 33.0278
2312 1 16.4143 56.277 30.4823
8463 2 18.2308 56.248 31.7622
2156 1 19.154 54.7191 30.4601
8351 2 20.9726 54.6976 31.7388
2144 1 20.0429 56.2246 33.0524
2849 1 2.76314 57.8337 30.5135
8871 2 4.57917 57.7985 31.794
2534 1 8.21935 57.8337 30.5135
8633 2 10.0354 57.7985 31.794
2313 1 13.6756 57.8336 30.5135
8447 2 15.4917 57.7986 31.794
2149 1 19.1319 57.8337 30.5135
8350 2 20.9479 57.7985 31.794
2804 1 2.74811 60.9426 30.5893
3130 1 0.026982 59.3889 30.5499
9196 2 1.84188 59.3489 31.8333
2851 1 5.48321 59.3889 30.5499
8870 2 4.56186 60.9005 31.8746
2533 1 8.20436 60.9427 30.5893
8869 2 7.29808 59.349 31.8333
2532 1 10.9395 59.3889 30.55
8606 2 10.0181 60.9005 31.8746
2291 1 13.6606 60.9427 30.5893
8446 2 15.4744 60.9005 31.8746
8635 2 12.7542 59.3489 31.8333
2315 1 16.3957 59.3889 30.55
8445 2 18.2105 59.3489 31.8333
2148 1 19.1168 60.9426 30.5893
8347 2 20.9306 60.9005 31.8746
2803 1 2.73423 64.055 30.6648
3131 1 0.0129644 62.4976 30.6279
9148 2 1.82616 62.4554 31.9147
2802 1 5.4692 62.4976 30.628
8831 2 4.5476 64.014 31.9524
2498 1 8.19048 64.055 30.6648
8872 2 7.28239 62.4554 31.9147
2535 1 10.9254 62.4976 30.628
8605 2 10.0038 64.014 31.9524
2290 1 13.6467 64.0551 30.6648
8431 2 15.4601 64.014 31.9524
8604 2 12.7386 62.4555 31.9147
2289 1 16.3817 62.4976 30.6279
8448 2 18.1949 62.4555 31.9146
2137 1 19.103 64.055 30.6648
8346 2 20.9163 64.014 31.9524
2759 1 2.72329 67.1794 30.7328
3090 1 0.000126501 65.6157 30.6999
9149 2 1.8139 65.5762 31.9875
2805 1 5.45636 65.6157 30.6998
8830 2 4.53748 67.1418 32.0204
2497 1 8.17953 67.1794 30.7328
8829 2 7.27017 65.5762 31.9875
2496 1 10.9126 65.6157 30.6998
8578 2 9.99371 67.1418 32.0203
2267 1 13.6358 67.1794 30.7328
8430 2 15.45 67.1418 32.0203
8607 2 12.7264 65.5762 31.9875
2292 1 16.3688 65.6157 30.6999
8429 2 18.1826 65.5762 31.9876
2136 1 19.092 67.1794 30.7328
8343 2 20.9062 67.1419 32.0203
2758 1 2.71581 70.3154 30.793
9108 2 1.80576 68.7105 32.0508
2757 1 5.44736 68.7461 30.7639
8792 2 4.53109 70.2819 32.0794
2462 1 8.17206 70.3155 30.793
8832 2 7.26198 68.7105 32.0509
2499 1 10.9036 68.7461 30.7639
8577 2 9.98734 70.2819 32.0794
2266 1 13.6283 70.3155 30.7931
8415 2 15.4436 70.282 32.0795
8576 2 12.7182 68.7105 32.0509
2265 1 16.3599 68.7461 30.7639
8432 2 18.1745 68.7104 32.0508
3091 1 21.8161 68.7461 30.7639
2125 1 19.0845 70.3155 30.7931
8342 2 20.8998 70.2819 32.0795
2721 1 2.71109 73.461 30.8461
9109 2 1.80088 71.8557 32.1065
2760 1 5.44115 71.8872 30.8204
8791 2 4.52747 73.4314 32.1319
2461 1 8.16731 73.461 30.8461
8790 2 7.25713 71.8557 32.1064
2460 1 10.8974 71.8872 30.8204
8550 2 9.98371 73.4314 32.132
2243 1 13.6236 73.461 30.8461
8579 2 12.7133 71.8557 32.1064
8414 2 15.44 73.4314 32.1319
2268 1 16.3536 71.8872 30.8204
8413 2 18.1696 71.8557 32.1065
3058 1 21.8099 71.8872 30.8204
2124 1 19.0798 73.461 30.846
8339 2 20.8962 73.4314 32.1319
9076 2 1.79836 75.0089 32.1563
2720 1 2.70877 76.6137 30.8943
2719 1 5.43785 75.0365 30.8706
8760 2 4.52583 76.5877 32.1797
8793 2 7.25461 75.0089 32.1563
2427 1 8.16501 76.6137 30.8943
2463 1 10.8941 75.0365 30.8706
8549 2 9.98204 76.5877 32.1797
8548 2 12.7109 75.0088 32.1563
2242 1 13.6213 76.6137 30.8943
8399 2 15.4383 76.5878 32.1797
2241 1 16.3503 75.0365 30.8706
8416 2 18.1671 75.0088 32.1563
3059 1 21.8066 75.0365 30.8706
2113 1 19.0775 76.6137 30.8943
8338 2 20.8946 76.5878 32.1797
9077 2 1.79734 78.1677 32.2023
2691 1 2.70759 79.7717 30.9397
2722 1 5.43621 78.1921 30.9173
8759 2 4.52525 79.7488 32.2243
8758 2 7.25358 78.1677 32.2023
2426 1 8.16383 79.7717 30.9397
2425 1 10.8924 78.1921 30.9173
8523 2 9.9815 79.7488 32.2243
8551 2 12.7098 78.1677 32.2024
2219 1 13.6201 79.7717 30.9397
8398 2 15.4377 79.7487 32.2242
2244 1 16.3487 78.1921 30.9174
8397 2 18.1661 78.1678 32.2024
3034 1 21.8049 78.1921 30.9173
2112 1 19.0763 79.7717 30.9397
8335 2 20.894 79.7488 32.2243
9052 2 1.797 81.3307 32.2454
2690 1 2.70676 82.9336 30.9821
2689 1 5.43525 81.3523 30.9613
8736 2 4.52504 82.9134 32.266
8761 2 7.25322 81.3307 32.2454
2399 1 8.163 82.9336 30.9821
2428 1 10.8915 81.3523 30.9613
8522 2 9.98131 82.9134 32.266
8521 2 12.7094 81.3307 32.2454
2218 1 13.6192 82.9336 30.9821
8383 2 15.4375 82.9134 32.266
2217 1 16.3477 81.3523 30.9613
8400 2 18.1657 81.3307 32.2454
3035 1 21.804 81.3523 30.9613
2101 1 19.0755 82.9336 30.9821
8334 2 20.8937 82.9134 32.266
9053 2 1.79688 84.4969 32.2859
2692 1 5.43457 84.5158 31.0022
8734 2 7.25313 84.4969 32.2859
2397 1 10.8908 84.5158 31.0022
8524 2 12.7094 84.4968 32.2859
2220 1 16.347 84.5158 31.0022
8381 2 18.1656 84.4968 32.2859
3018 1 21.8033 84.5158 31.0022
2669 1 2.70622 86.0985 31.0216
9036 2 1.79693 87.6651 32.3237
2667 1 5.43423 87.6818 31.0403
8735 2 4.52498 86.0807 32.3052
2398 1 8.16247 86.0985 31.0216
8737 2 7.25314 87.6651 32.3238
2400 1 10.8905 87.6818 31.0403
8503 2 9.98121 86.0807 32.3052
2196 1 13.6187 86.0985 31.0216
8382 2 15.4374 86.0807 32.3052
8501 2 12.7094 87.6651 32.3238
2194 1 16.3467 87.6818 31.0403
8384 2 18.1657 87.6651 32.3237
3019 1 21.803 87.6818 31.0403
2100 1 19.0749 86.0985 31.0216
8331 2 20.8937 86.0807 32.3052
2668 1 2.70602 89.2655 31.0584
9037 2 1.79703 90.835 32.3588
2670 1 5.43411 90.8496 31.0757
8720 2 4.5251 89.2498 32.3416
2379 1 8.16226 89.2655 31.0584
8718 2 7.25329 90.835 32.3588
2377 1 10.8904 90.8496 31.0757
8502 2 9.98133 89.2498 32.3416
2195 1 13.6185 89.2655 31.0584
8368 2 15.4376 89.2499 32.3416
8504 2 12.7095 90.835 32.3588
2197 1 16.3466 90.8496 31.0757
8366 2 18.1657 90.835 32.3588
3010 1 21.8028 90.8496 31.0757
2089 1 19.0747 89.2655 31.0584
8330 2 20.8938 89.2498 32.3416
2655 1 2.70596 92.434 31.0924
9028 2 1.79726 94.0061 32.3912
2653 1 5.43408 94.0187 31.1084
8719 2 4.52525 92.4204 32.3753
2378 1 8.16219 92.434 31.0924
8721 2 7.25351 94.006 32.3912
2380 1 10.8903 94.0187 31.1084
8491 2 9.98148 92.4204 32.3753
2180 1 13.6184 92.434 31.0924
8367 2 15.4377 92.4204 32.3754
8489 2 12.7097 94.006 32.3912
2178 1 16.3465 94.0187 31.1084
8369 2 18.166 94.0061 32.3912
3011 1 21.8028 94.0187 31.1084
2088 1 19.0747 92.434 31.0924
8327 2 20.8939 92.4204 32.3753
2654 1 2.706 95.6037 31.1236
9029 2 1.79763 97.178 32.4207
2656 1 5.43422 97.1888 31.1381
8712 2 4.52556 95.592 32.4064
2367 1 8.16225 95.6037 31.1236
8710 2 7.25387 97.178 32.4207
2365 1 10.8905 97.1888 31.1381
8490 2 9.98179 95.5919 32.4064
2179 1 13.6185 95.6037 31.1236
8360 2 15.4381 95.5919 32.4063
8492 2 12.7101 97.178 32.4207
2181 1 16.3467 97.1888 31.1381
8358 2 18.1664 97.178 32.4207
3009 1 21.8029 97.1888 31.1381
2078 1 19.0747 95.6037 31.1236
8326 2 20.8943 95.592 32.4063
2646 1 2.70627 98.7742 31.1519
11418 2 1.79812 100.351 32.4472
8711 2 4.52597 98.7643 32.4343
4937 1 5.43458 100.36 31.1648
2366 1 8.16251 98.7742 31.1519
11120 2 7.25435 100.351 32.4472
8484 2 9.98222 98.7643 32.4343
4640 1 10.8908 100.36 31.1648
2169 1 13.6187 98.7742 31.1519
8359 2 15.4385 98.7643 32.4343
10833 2 12.7106 100.351 32.4472
4377 1 16.3471 100.36 31.1648
10648 2 18.1668 100.351 32.4472
2077 1 19.075 98.7742 31.1519
8323 2 20.8947 98.7643 32.4343
5273 1 21.8033 100.36 31.1648
8906 2 2.8311 51.5892 34.2985
2843 1 1.9072 53.0969 35.619
9193 2 0.0735315 53.1166 34.2794
2526 1 4.66369 51.6011 35.651
8907 2 5.52984 53.1166 34.2794
8630 2 8.28729 51.5892 34.2986
2524 1 7.36343 53.0969 35.619
2306 1 10.1199 51.6011 35.651
8628 2 10.9862 53.1167 34.2793
8458 2 13.7436 51.5892 34.2986
2307 1 12.8196 53.0969 35.6189
2142 1 15.5761 51.6011 35.651
8459 2 16.4424 53.1167 34.2793
2140 1 18.2759 53.097 35.6189
8349 2 19.1999 51.5893 34.2984
2064 1 21.0324 51.6012 35.651
8867 2 2.78137 54.6493 34.2864
2796 1 1.82492 56.1275 35.6509
9194 2 0.0314729 56.1863 34.3126
2525 1 4.56797 54.5911 35.6173
8865 2 5.48771 56.1862 34.3127
8629 2 8.23754 54.6493 34.2864
2527 1 7.2812 56.1275 35.6509
2283 1 10.0242 54.5911 35.6173
8631 2 10.944 56.1863 34.3128
8443 2 13.6937 54.6493 34.2863
2141 1 15.4804 54.5911 35.6173
2281 1 12.7374 56.1275 35.6508
8441 2 16.4002 56.1863 34.3128
2143 1 18.1936 56.1275 35.6508
8348 2 19.15 54.6492 34.2864
2063 1 20.9367 54.5911 35.6173
2800 1 0.933331 57.7725 33.0931
8866 2 2.74844 57.7211 34.3563
9146 2 0.010183 59.2618 34.4083
2797 1 1.81421 59.1795 35.7506
2490 1 4.54466 57.6467 35.7097
8868 2 5.46651 59.2617 34.4082
2529 1 6.38955 57.7725 33.0931
8602 2 8.20467 57.7211 34.3562
2488 1 7.27039 59.1796 35.7506
2287 1 11.8458 57.7725 33.0931
2282 1 10.0009 57.6466 35.7098
8600 2 10.9228 59.2616 34.4081
8442 2 13.6609 57.7211 34.3562
2130 1 15.4571 57.6466 35.7098
2284 1 12.7266 59.1796 35.7505
2145 1 17.302 57.7726 33.0931
8444 2 16.379 59.2617 34.4081
2128 1 18.1829 59.1796 35.7505
8345 2 19.1172 57.7212 34.3563
2062 1 20.9133 57.6467 35.7097
2799 1 0.918622 60.8618 33.1814
8827 2 2.72914 60.8086 34.4554
2798 1 3.65456 59.3157 33.1391
2489 1 4.53494 60.7314 35.7843
2494 1 6.37487 60.8618 33.1814
2531 1 9.11083 59.3156 33.1391
8601 2 8.18534 60.8087 34.4555
2286 1 11.8311 60.8617 33.1814
2259 1 9.99117 60.7314 35.7843
2285 1 14.5671 59.3156 33.1391
8427 2 13.6416 60.8086 34.4555
2129 1 15.4474 60.7314 35.7843
2134 1 17.2873 60.8617 33.1814
2147 1 20.0233 59.3157 33.1391
8344 2 19.0979 60.8085 34.4554
2061 1 20.9037 60.7314 35.7843
2755 1 0.904065 63.9714 33.2549
8826 2 2.71589 63.9235 34.536
2751 1 1.80159 62.2912 35.8165
2801 1 3.63909 62.4138 33.2194
8825 2 5.44995 62.363 34.4981
2454 1 4.52548 63.8595 35.8457
2492 1 9.09535 62.4138 33.2194
2493 1 6.3603 63.9714 33.2549
8574 2 8.17221 63.9235 34.5359
2491 1 7.25787 62.2911 35.8165
2263 1 11.8166 63.9714 33.2549
8603 2 10.9061 62.363 34.4981
2258 1 9.98171 63.8595 35.8456
2288 1 14.5516 62.4138 33.2195
8426 2 13.6284 63.9235 34.5359
2257 1 12.7141 62.2911 35.8166
2118 1 15.438 63.8595 35.8456
2133 1 17.2728 63.9714 33.2549
8425 2 16.3624 62.363 34.4982
2131 1 18.1703 62.2912 35.8166
2132 1 20.0078 62.4138 33.2195
9147 2 21.8187 62.363 34.4982
8341 2 19.0846 63.9235 34.536
2060 1 20.8942 63.8595 35.8457
2754 1 0.894077 67.1018 33.3186
8788 2 2.70845 67.0598 34.6014
2752 1 1.79413 65.4322 35.8738
2753 1 3.62656 65.5346 33.2878
8828 2 5.4397 65.4896 34.5702
2453 1 4.52005 67.0088 35.9006
2495 1 9.08279 65.5346 33.2878
2458 1 6.35032 67.1018 33.3186
8573 2 8.16462 67.0598 34.6015
2452 1 7.25037 65.4322 35.8738
2262 1 11.8066 67.1018 33.3186
8572 2 10.8959 65.4895 34.5702
2235 1 9.97629 67.0088 35.9006
2261 1 14.539 65.5346 33.2878
8411 2 13.6208 67.0598 34.6015
2260 1 12.7066 65.4322 35.8739
2117 1 15.4325 67.0088 35.9006
2122 1 17.2628 67.1018 33.3186
8428 2 16.3522 65.4894 34.5702
2116 1 18.1629 65.4322 35.8738
2135 1 19.9953 65.5346 33.2878
9106 2 21.8084 65.4895 34.5702
8340 2 19.0772 67.0598 34.6015
2059 1 20.8887 67.0088 35.9006
2717 1 0.888315 70.2465 33.3744
8787 2 2.70454 70.2102 34.6573
2713 1 1.79052 68.5876 35.9263
2756 1 3.6188 68.6726 33.3473
8786 2 5.43423 68.6335 34.6302
2456 1 9.07502 68.6727 33.3473
2457 1 6.34456 70.2464 33.3743
8546 2 8.16081 70.2101 34.6573
2455 1 7.24676 68.5876 35.9263
2239 1 11.8008 70.2465 33.3743
8575 2 10.8905 68.6336 34.6302
2264 1 14.5313 68.6727 33.3473
8410 2 13.6171 70.21 34.6572
2233 1 12.703 68.5876 35.9263
2121 1 17.257 70.2465 33.3744
8409 2 16.3467 68.6337 34.6303
2119 1 18.1592 68.5876 35.9263
9107 2 21.8029 68.6336 34.6302
2120 1 19.9875 68.6726 33.3473
8337 2 19.0733 70.2101 34.6573
2716 1 0.885926 73.4007 33.4239
8756 2 2.70326 73.369 34.7071
2715 1 3.61495 71.8226 33.3998
8789 2 5.43171 71.7888 34.6829
2423 1 6.34215 73.4007 33.4239
2459 1 9.0712 71.8226 33.3998
8545 2 8.15949 73.3691 34.7071
2238 1 11.7984 73.4007 33.4239
8544 2 10.8879 71.7888 34.6829
2237 1 14.5275 71.8226 33.3998
8395 2 13.6157 73.3692 34.7072
2110 1 17.2546 73.4007 33.4239
8412 2 16.3442 71.7888 34.6828
2123 1 19.9837 71.8226 33.3998
9074 2 21.8005 71.7888 34.6828
8336 2 19.072 73.3691 34.7071
2687 1 0.885375 76.5609 33.4694
8755 2 2.70337 76.5335 34.7527
2718 1 3.61355 74.9802 33.447
8754 2 5.43131 74.9508 34.7303
2421 1 9.06979 74.9802 33.447
2422 1 6.34161 76.5609 33.4694
8519 2 8.1596 76.5335 34.7527
2215 1 11.7979 76.5609 33.4694
8547 2 10.8876 74.9508 34.7303
2240 1 14.526 74.9802 33.447
8394 2 13.6158 76.5335 34.7527
2109 1 17.2541 76.5609 33.4694
8393 2 16.3438 74.9508 34.7303
2108 1 19.9823 74.9802 33.447
9075 2 21.8 74.9508 34.7303
8333 2 19.0721 76.5335 34.7527
2686 1 0.885782 79.7253 33.5128
8732 2 2.70422 79.7014 34.7957
2685 1 3.6137 78.1426 33.4913
8757 2 5.43189 78.1171 34.7745
2424 1 9.06994 78.1426 33.4913
2395 1 6.34202 79.7253 33.5128
8518 2 8.16045 79.7014 34.7957
2214 1 11.7983 79.7253 33.5128
8517 2 10.8881 78.1171 34.7745
2213 1 14.5262 78.1426 33.4913
8379 2 13.6167 79.7014 34.7957
2098 1 17.2545 79.7253 33.5128
8396 2 16.3444 78.1171 34.7745
9050 2 21.8006 78.1171 34.7745
2111 1 19.9824 78.1426 33.4913
8332 2 19.0729 79.7014 34.7957
2665 1 0.88615 82.8928 33.5538
8731 2 2.70509 82.872 34.8362
2688 1 3.61413 81.3087 33.5336
8730 2 5.43283 81.2864 34.8162
2393 1 9.07036 81.3087 33.5336
2394 1 6.34239 82.8928 33.5538
8499 2 8.16133 82.872 34.8362
8520 2 10.889 81.2863 34.8162
2192 1 11.7986 82.8928 33.5537
2216 1 14.5266 81.3087 33.5336
8378 2 13.6176 82.872 34.8362
8377 2 16.3453 81.2864 34.8162
2097 1 17.2549 82.8928 33.5537
2096 1 19.9828 81.3087 33.5336
9051 2 21.8015 81.2864 34.8162
8329 2 19.0739 82.872 34.8362
2663 1 3.61448 84.4775 33.5732
8733 2 5.43365 84.458 34.8556
2396 1 9.07071 84.4775 33.5732
8497 2 10.8899 84.458 34.8556
2190 1 14.5269 84.4775 33.5732
8380 2 16.3461 84.458 34.8556
2099 1 19.9832 84.4775 33.5732
9034 2 21.8023 84.458 34.8556
2664 1 0.886578 86.0626 33.5921
8716 2 2.70595 86.0444 34.8745
2666 1 3.61496 87.6482 33.6104
8714 2 5.43443 87.6311 34.8927
2373 1 9.07119 87.6482 33.6104
2375 1 6.34281 86.0626 33.5921
8498 2 8.16217 86.0444 34.8745
2191 1 11.7991 86.0626 33.5921
8500 2 10.8907 87.6311 34.8927
2193 1 14.5274 87.6482 33.6104
8364 2 13.6184 86.0444 34.8744
2086 1 17.2553 86.0626 33.5921
8362 2 16.3469 87.6311 34.8927
9035 2 21.8032 87.6311 34.8927
2084 1 19.9837 87.6482 33.6104
8328 2 19.0747 86.0444 34.8745
8715 2 2.70669 89.2181 34.9103
2651 1 0.887111 89.2342 33.628
8717 2 5.43514 90.8054 34.9272
2649 1 3.61547 90.8203 33.645
8487 2 8.16294 89.2181 34.9103
2376 1 9.07171 90.8203 33.645
2374 1 6.34336 89.2342 33.628
8485 2 10.8914 90.8054 34.9271
2176 1 11.7996 89.2342 33.628
8363 2 13.6192 89.2181 34.9102
2174 1 14.528 90.8203 33.645
8365 2 16.3476 90.8054 34.9271
2085 1 17.2558 89.2342 33.628
9026 2 21.8039 90.8054 34.9271
8325 2 19.0754 89.2181 34.9102
2087 1 19.9842 90.8203 33.645
8708 2 2.70736 92.3928 34.9434
2650 1 0.88761 92.4068 33.6614
8706 2 5.43585 93.9805 34.9591
2652 1 3.61595 93.9934 33.6771
8486 2 8.1636 92.3928 34.9434
2363 1 6.34385 92.4068 33.6614
2361 1 9.07219 93.9934 33.6771
2175 1 11.8001 92.4068 33.6614
8488 2 10.8921 93.9805 34.9591
2177 1 14.5284 93.9934 33.6771
8356 2 13.6198 92.3928 34.9434
2075 1 17.2563 92.4068 33.6614
8354 2 16.3483 93.9805 34.9591
9027 2 21.8046 93.9805 34.9591
2073 1 19.9847 93.9934 33.6771
8324 2 19.0761 92.3928 34.9434
2645 1 0.88809 95.5802 33.692
8707 2 2.7081 95.5683 34.974
8709 2 5.43656 97.1562 34.9882
2643 1 3.61652 97.1672 33.7063
8483 2 8.16432 95.5683 34.974
2364 1 9.07275 97.1672 33.7063
2362 1 6.34433 95.5802 33.692
2168 1 11.8006 95.5802 33.692
8481 2 10.8928 97.1562 34.9882
2166 1 14.529 97.1672 33.7063
8355 2 13.6205 95.5683 34.974
2074 1 17.2568 95.5802 33.692
8357 2 16.349 97.1562 34.9882
9025 2 21.8053 97.1562 34.9882
2076 1 19.9852 97.1672 33.7063
8322 2 19.0768 95.5683 34.974
2644 1 0.888716 98.7543 33.7198
8705 2 2.70881 98.7443 35.0016
11081 2 5.43735 100.332 35.0143
4936 1 3.61719 100.342 33.7325
4609 1 9.07343 100.342 33.7325
2356 1 6.34495 98.7543 33.7198
8482 2 8.16506 98.7442 35.0016
10832 2 10.8936 100.332 35.0143
2167 1 11.8012 98.7543 33.7198
4376 1 14.5297 100.342 33.7325
8353 2 13.6213 98.7442 35.0016
10633 2 16.3498 100.332 35.0143
2068 1 17.2574 98.7543 33.7198
4201 1 19.9859 100.342 33.7325
11417 2 21.8061 100.332 35.0143
8321 2 19.0775 98.7443 35.0016
10494 2 1.0533 51.6098 36.8658
16494 1 4.91169 51.8894 38.2722
10492 2 3.69075 53.1173 36.869
10463 2 6.50959 51.6099 36.8658
10464 2 9.14706 53.1173 36.869
10430 2 11.966 51.61 36.8658
16400 1 10.3679 51.8894 38.2722
10428 2 14.6032 53.1173 36.8689
10399 2 17.422 51.6096 36.8659
16206 1 15.8242 51.8893 38.2722
16512 1 21.2804 51.8893 38.2723
10400 2 20.0594 53.1173 36.8689
16495 1 2.13625 53.7157 38.3488
10493 2 0.914197 54.5874 36.8048
16496 1 5.07606 55.4475 38.3975
10495 2 3.64133 56.0819 36.8559
16398 1 7.59245 53.7157 38.3489
10460 2 6.37044 54.5874 36.8048
10458 2 9.09757 56.0819 36.8559
10429 2 11.8267 54.5874 36.8049
16396 1 10.5323 55.4475 38.3975
16207 1 13.0487 53.7158 38.3489
10431 2 14.5539 56.0818 36.8559
15920 1 18.5049 53.7157 38.3489
10396 2 17.2829 54.5875 36.8049
16208 1 15.9886 55.4475 38.3975
16510 1 21.4448 55.4476 38.3975
10394 2 20.0102 56.0819 36.8559
16491 1 2.54592 57.2116 38.3818
10490 2 0.911915 57.5928 36.9179
16489 1 5.37291 58.8959 38.3516
10488 2 3.62889 59.1296 36.9795
16397 1 8.00219 57.2117 38.3818
10459 2 6.36811 57.5929 36.918
10461 2 9.08518 59.1297 36.9796
10426 2 11.8243 57.593 36.9179
16399 1 10.8291 58.8959 38.3515
16203 1 13.4584 57.2117 38.3818
10424 2 14.5414 59.1297 36.9796
10395 2 17.2806 57.5928 36.9179
16201 1 16.2854 58.8959 38.3516
15919 1 18.9146 57.2116 38.3818
16511 1 21.7416 58.8959 38.3516
10397 2 19.9976 59.1296 36.9795
16490 1 2.66768 60.5083 38.3782
10489 2 0.89315 60.6786 37.0329
16492 1 5.40637 62.1148 38.4014
10491 2 3.61585 62.2413 37.0762
16390 1 8.12394 60.5082 38.3782
10456 2 6.34934 60.6785 37.0329
10454 2 9.0721 62.2412 37.0762
10425 2 11.8055 60.6785 37.033
16388 1 10.8626 62.1148 38.4014
16202 1 13.5802 60.5082 38.3782
10427 2 14.5283 62.2412 37.0761
10392 2 17.2618 60.6786 37.033
16204 1 16.3189 62.1148 38.4014
15914 1 19.0364 60.5082 38.3782
16508 1 21.7751 62.1148 38.4015
10390 2 19.9845 62.2413 37.0762
16480 1 2.68436 63.7136 38.4245
10486 2 0.884051 63.8109 37.1132
16389 1 8.14056 63.7136 38.4246
10455 2 6.34026 63.811 37.1133
10422 2 11.7965 63.811 37.1133
16191 1 13.5968 63.7136 38.4246
10391 2 17.2528 63.8109 37.1132
15913 1 19.0531 63.7136 38.4245
10485 2 0.880568 66.9656 37.1759
16479 1 2.69084 66.9022 38.4726
16478 1 5.41646 65.3092 38.4484
10484 2 3.60997 65.3862 37.1462
10452 2 6.33681 66.9656 37.1759
10457 2 9.06619 65.3863 37.1462
16374 1 8.14708 66.9022 38.4726
16391 1 10.8727 65.3092 38.4484
10421 2 11.7931 66.9656 37.1758
10420 2 14.5224 65.3864 37.1462
16190 1 13.6033 66.9022 38.4726
16189 1 16.3289 65.3093 38.4484
10388 2 17.2493 66.9656 37.1759
16509 1 21.7851 65.3093 38.4484
15900 1 19.0596 66.9022 38.4726
10393 2 19.9787 65.3863 37.1462
10482 2 0.87995 70.1315 37.229
16468 1 2.69391 70.0852 38.5195
16481 1 5.42066 68.494 38.4963
10487 2 3.60817 68.5476 37.2033
2419 1 4.51796 70.1688 35.9509
10450 2 9.06442 68.5476 37.2033
10451 2 6.33619 70.1315 37.229
16373 1 8.15016 70.0852 38.5195
16372 1 10.8769 68.494 38.4963
10418 2 11.7924 70.1315 37.2291
2234 1 9.9742 70.1688 35.9509
10423 2 14.5207 68.5476 37.2033
16171 1 13.6064 70.0852 38.5195
2106 1 15.4305 70.1688 35.9509
16192 1 16.3331 68.494 38.4963
10387 2 17.2486 70.1315 37.2291
16506 1 21.7894 68.494 38.4963
15899 1 19.0626 70.0852 38.5195
10386 2 19.9769 68.5476 37.2033
2058 1 20.8867 70.1688 35.9509
10481 2 0.88093 73.3029 37.2771
16467 1 2.69694 73.2665 38.5645
2714 1 1.78975 71.7514 35.9745
16466 1 5.42354 71.676 38.5422
10480 2 3.60845 71.7167 37.2535
2418 1 4.51825 73.3352 35.9973
10448 2 6.33719 73.3028 37.277
10453 2 9.06466 71.7167 37.2536
16351 1 8.15317 73.2665 38.5645
2417 1 7.24596 71.7514 35.9746
16375 1 10.8798 71.676 38.5422
10417 2 11.7935 73.3028 37.277
2211 1 9.97449 73.3353 35.9973
10416 2 14.5208 71.7168 37.2537
16170 1 13.6094 73.2665 38.5645
2236 1 12.7022 71.7515 35.9746
2105 1 15.4307 73.3353 35.9973
16169 1 16.336 71.676 38.5422
10384 2 17.2497 73.3029 37.277
2104 1 18.1585 71.7514 35.9745
16507 1 21.7923 71.676 38.5422
15878 1 19.0657 73.2665 38.5645
10389 2 19.9771 71.7168 37.2536
2057 1 20.8869 73.3353 35.9973
16456 1 2.69985 76.447 38.6075
10478 2 0.882735 76.4769 37.3214
2683 1 1.79082 74.9198 36.0193
16469 1 5.42653 74.8569 38.5862
10483 2 3.60988 74.8896 37.2996
2391 1 4.51972 76.5049 36.0408
10446 2 9.06612 74.8896 37.2996
16350 1 8.1561 76.447 38.6075
10447 2 6.33896 76.4769 37.3214
2420 1 7.24706 74.9198 36.0193
16349 1 10.8828 74.8569 38.5862
10414 2 11.7952 76.4769 37.3215
2210 1 9.97595 76.5049 36.0408
10419 2 14.5224 74.8896 37.2995
16143 1 13.6123 76.447 38.6075
2209 1 12.7033 74.9198 36.0193
2094 1 15.4322 76.5049 36.0408
16172 1 16.339 74.8569 38.5862
10383 2 17.2514 76.4769 37.3215
2107 1 18.1595 74.9198 36.0193
16504 1 21.7953 74.8569 38.5862
15877 1 19.0686 76.447 38.6075
10382 2 19.9786 74.8896 37.2995
2056 1 20.8884 76.5049 36.0408
16455 1 2.70266 79.6272 38.6489
10477 2 0.884662 79.6525 37.3637
2684 1 1.79246 78.0906 36.0619
10476 2 3.61175 78.0645 37.3429
16454 1 5.42942 78.0371 38.6284
2390 1 4.52151 79.6768 36.0827
10449 2 9.06798 78.0645 37.3429
16327 1 8.15891 79.6272 38.6489
10444 2 6.34095 79.6524 37.3637
2389 1 7.24871 78.0906 36.0619
16352 1 10.8857 78.0371 38.6284
10413 2 11.7972 79.6524 37.3637
2188 1 9.97773 79.6768 36.0827
10412 2 14.5242 78.0645 37.3429
16142 1 13.6152 79.6271 38.6489
2093 1 15.434 79.6769 36.0827
2212 1 12.7049 78.0906 36.0619
16141 1 16.3419 78.0371 38.6284
10380 2 17.2534 79.6525 37.3637
2092 1 18.1612 78.0906 36.0619
15848 1 19.0714 79.6271 38.6489
16505 1 21.7981 78.0371 38.6284
10385 2 19.9805 78.0645 37.3429
2055 1 20.8902 79.6768 36.0827
16444 1 2.70503 82.8075 38.6884
10474 2 0.886516 82.8293 37.4035
2661 1 1.79415 81.2635 36.103
10479 2 3.61375 81.2408 37.3839
16457 1 5.43204 81.2173 38.6689
2371 1 4.52302 82.8505 36.1226
10442 2 9.06999 81.2407 37.3838
16326 1 8.16126 82.8075 38.6884
10443 2 6.34272 82.8293 37.4035
2392 1 7.2504 81.2635 36.103
16325 1 10.8883 81.2173 38.6689
10410 2 11.799 82.8293 37.4035
2187 1 9.97925 82.8505 36.1226
10415 2 14.5262 81.2407 37.3838
16108 1 13.6175 82.8075 38.6884
2186 1 12.7067 81.2635 36.103
2082 1 15.4355 82.8505 36.1226
16144 1 16.3445 81.2172 38.6689
10379 2 17.2553 82.8293 37.4035
2095 1 18.1629 81.2635 36.103
15847 1 19.0737 82.8075 38.6884
16502 1 21.8008 81.2172 38.6689
10378 2 19.9825 81.2407 37.3838
2054 1 20.8917 82.8505 36.1226
2662 1 1.79552 84.438 36.1417
10472 2 3.61542 84.4182 37.4226
16442 1 5.43415 84.3978 38.7074
10445 2 9.07168 84.4182 37.4226
2369 1 7.25175 84.438 36.1417
16328 1 10.8904 84.3978 38.7074
10408 2 14.5279 84.4182 37.4226
2189 1 12.708 84.438 36.1417
16106 1 16.3466 84.3978 38.7074
2080 1 18.1642 84.438 36.1417
16503 1 21.8029 84.3978 38.7074
10381 2 19.9841 84.4182 37.4226
16443 1 2.70696 85.9883 38.7258
10473 2 0.888018 86.0072 37.4413
2647 1 1.79675 87.6138 36.1782
10475 2 3.61683 87.5965 37.4594
16445 1 5.43591 87.5789 38.7437
2370 1 4.52425 86.0258 36.1602
16303 1 8.1632 85.9883 38.7258
10438 2 9.07306 87.5965 37.4594
10440 2 6.34425 86.0073 37.4413
2372 1 7.25298 87.6138 36.1782
10409 2 11.8004 86.0073 37.4413
16301 1 10.8921 87.5789 38.7437
2172 1 9.98049 86.0258 36.1602
16107 1 13.6194 85.9883 38.7258
10411 2 14.5293 87.5965 37.4594
2170 1 12.7092 87.6138 36.1782
2081 1 15.4367 86.0258 36.1602
10376 2 17.2567 86.0072 37.4413
16109 1 16.3484 87.5789 38.7437
2083 1 18.1655 87.6138 36.1782
15810 1 19.0757 85.9883 38.7258
16500 1 21.8046 87.5789 38.7437
10374 2 19.9855 87.5965 37.4594
2053 1 20.893 86.0258 36.1602
16432 1 2.70858 89.1695 38.761
10470 2 0.889345 89.1858 37.4768
2648 1 1.79781 90.7904 36.2124
10468 2 3.61799 90.7753 37.4935
16430 1 5.43738 90.7601 38.7778
2359 1 4.52539 89.2021 36.1956
16302 1 8.16482 89.1695 38.761
10439 2 6.34558 89.1858 37.4768
10441 2 9.07421 90.7753 37.4936
2357 1 7.25405 90.7905 36.2124
10406 2 11.8018 89.1858 37.4768
16304 1 10.8936 90.7601 38.7779
2171 1 9.98163 89.2021 36.1956
16072 1 13.6211 89.1695 38.7611
10404 2 14.5305 90.7753 37.4935
2173 1 12.7103 90.7905 36.2124
2071 1 15.4379 89.2021 36.1956
10375 2 17.2581 89.1858 37.4767
16070 1 16.3499 90.7601 38.7779
2069 1 18.1665 90.7905 36.2124
15809 1 19.0773 89.1695 38.761
16501 1 21.8061 90.7601 38.7778
10377 2 19.9867 90.7753 37.4935
2052 1 20.8941 89.2021 36.1956
10469 2 0.890401 92.3649 37.5097
2641 1 1.79867 93.9676 36.2441
10471 2 3.61907 93.9545 37.5252
2358 1 4.52637 92.379 36.2286
10434 2 9.07531 93.9545 37.5253
10436 2 6.34665 92.3649 37.5097
2360 1 7.25491 93.9676 36.2441
10405 2 11.8029 92.3649 37.5097
2164 1 9.98261 92.379 36.2286
10407 2 14.5316 93.9545 37.5253
2162 1 12.7112 93.9676 36.2441
2070 1 15.4388 92.379 36.2286
10372 2 17.2591 92.3649 37.5097
2072 1 18.1674 93.9676 36.2441
10370 2 19.9878 93.9545 37.5252
2051 1 20.8951 92.379 36.2286
10467 2 0.891448 95.5442 37.5401
2642 1 1.79956 97.1452 36.2731
10465 2 3.62004 97.1341 37.5542
2355 1 4.52724 95.5564 36.2589
10435 2 6.34769 95.5443 37.5401
10437 2 9.07629 97.1341 37.5541
2353 1 7.2558 97.1452 36.2731
10403 2 11.8039 95.5443 37.5401
2163 1 9.98348 95.5564 36.2589
10401 2 14.5325 97.134 37.5541
2067 1 15.4397 95.5564 36.2589
2165 1 12.712 97.1452 36.273
10371 2 17.2602 95.5443 37.5401
2065 1 18.1683 97.1452 36.273
10373 2 19.9888 97.1341 37.5542
2050 1 20.8959 95.5564 36.2589
4890 1 1.80051 100.323 36.299
10466 2 0.89243 98.7239 37.5675
12672 2 3.62109 100.314 37.5801
2354 1 4.52816 98.7342 36.2864
4608 1 7.25675 100.323 36.299
12638 2 9.07732 100.314 37.5801
10433 2 6.34867 98.7239 37.5675
10402 2 11.8049 98.7239 37.5675
2161 1 9.98439 98.7342 36.2864
4353 1 12.713 100.323 36.299
12608 2 14.5336 100.314 37.5801
2066 1 15.4406 98.7342 36.2864
4200 1 18.1692 100.323 36.299
10369 2 17.2611 98.7239 37.5675
12574 2 19.9898 100.314 37.5801
2049 1 20.8969 98.7342 36.2864
22151 2 1.56924 51.9491 39.4218
16493 1 3.46454 52.0404 40.6577
16393 1 8.92074 52.0404 40.6577
22120 2 7.02547 51.9492 39.4218
21990 2 12.4817 51.9493 39.4218
16205 1 14.377 52.0404 40.6577
21768 2 17.938 51.9492 39.4218
15916 1 19.8333 52.0403 40.6577
16487 1 0.799557 53.7176 40.6118
22152 2 1.70623 55.5321 39.4424
22118 2 4.35318 53.7014 39.3861
16394 1 6.25587 53.7177 40.6119
16485 1 3.56864 55.3768 40.6535
16395 1 9.02488 55.3768 40.6534
22116 2 7.16247 55.532 39.4424
16199 1 11.7121 53.7176 40.6118
21991 2 9.80943 53.7014 39.3861
21766 2 15.2657 53.7014 39.3862
21992 2 12.6187 55.5319 39.4424
16197 1 14.4811 55.3768 40.6534
15917 1 17.1683 53.7176 40.6117
21764 2 18.075 55.532 39.4424
21448 2 20.7219 53.7014 39.3862
15918 1 19.9373 55.3768 40.6534
16486 1 0.803018 57.0047 40.8217
22148 2 1.77709 58.8742 39.5496
22117 2 4.49411 57.2422 39.4872
16488 1 3.54728 58.6731 40.8774
16386 1 6.25921 57.0047 40.8218
16384 1 9.00348 58.6731 40.8774
22119 2 7.23338 58.8742 39.5496
16198 1 11.7154 57.0047 40.8218
21987 2 9.95029 57.2422 39.4872
21985 2 12.6897 58.8743 39.5496
21765 2 15.4066 57.2422 39.4872
16200 1 14.4597 58.6731 40.8774
15911 1 17.1717 57.0047 40.8217
21767 2 18.1458 58.8743 39.5496
21447 2 20.8629 57.2422 39.4872
15909 1 19.916 58.6731 40.8774
16476 1 0.835694 60.3196 40.915
22149 2 1.78358 62.0821 39.6397
22110 2 4.50936 60.4815 39.5986
16474 1 3.57709 61.952 40.9468
16385 1 6.29197 60.3195 40.915
16387 1 9.03331 61.952 40.9468
22108 2 7.23983 62.0821 39.6397
16187 1 11.7482 60.3195 40.915
21986 2 9.96556 60.4816 39.5986
21988 2 12.6961 62.0821 39.6397
21758 2 15.4218 60.4816 39.5987
16185 1 14.4896 61.952 40.9468
15910 1 17.2044 60.3196 40.915
21756 2 18.1523 62.0821 39.6397
21446 2 20.8781 60.4816 39.5987
15912 1 19.9458 61.952 40.9468
16475 1 0.857886 63.5731 40.9761
22109 2 4.51236 63.6776 39.6764
16477 1 3.59214 65.1873 41.0032
16370 1 6.31414 63.5731 40.9761
16368 1 9.04842 65.1873 41.0032
21975 2 9.96858 63.6776 39.6765
16186 1 11.7704 63.5731 40.9761
21757 2 15.4248 63.6776 39.6766
16188 1 14.5046 65.1873 41.0032
15897 1 17.2266 63.5731 40.9762
21439 2 20.881 63.6775 39.6765
15895 1 19.9608 65.1873 41.0032
22144 2 1.78469 65.2713 39.7092
16464 1 0.868463 66.7955 41.0291
22095 2 4.51345 66.8642 39.7391
22111 2 7.24094 65.2712 39.7091
16369 1 6.3247 66.7955 41.0291
16167 1 11.781 66.7954 41.0291
21974 2 9.96966 66.8642 39.739
21973 2 12.6972 65.2712 39.7091
21742 2 15.4259 66.8642 39.739
21759 2 18.1534 65.2713 39.7092
15896 1 17.2372 66.7954 41.0291
21438 2 20.8822 66.8642 39.7391
22145 2 1.78608 68.4569 39.7665
16463 1 0.874421 70.0006 41.0782
16462 1 3.59987 68.3996 41.0539
22094 2 4.51528 70.0496 39.7924
16371 1 9.05608 68.3996 41.0539
22093 2 7.24234 68.457 39.7665
16347 1 6.33066 70.0006 41.0782
16166 1 11.7869 70.0006 41.0782
21955 2 9.97152 70.0496 39.7924
21976 2 12.6986 68.457 39.7665
16165 1 14.5123 68.3995 41.0539
21741 2 15.4278 70.0496 39.7923
21740 2 18.1548 68.457 39.7665
15875 1 17.2432 70.0006 41.0782
15898 1 19.9686 68.3995 41.0539
21423 2 20.884 70.0496 39.7924
22140 2 1.78828 71.6423 39.817
16452 1 0.878805 73.1971 41.1248
16465 1 3.60486 71.5997 41.1018
22079 2 4.5177 73.2347 39.8406
16345 1 9.06109 71.5997 41.1018
22096 2 7.24452 71.6423 39.817
16346 1 6.33503 73.1971 41.1248
16139 1 11.7913 73.1971 41.1248
21954 2 9.97395 73.2347 39.8406
21953 2 12.7007 71.6422 39.817
16168 1 14.5173 71.5997 41.1018
21718 2 15.4302 73.2347 39.8405
21743 2 18.157 71.6422 39.817
15874 1 17.2475 73.197 41.1248
15873 1 19.9736 71.5997 41.1018
21422 2 20.8864 73.2347 39.8405
22141 2 1.7911 74.827 39.8633
16451 1 0.88248 76.3884 41.169
16450 1 3.60887 74.7933 41.1472
22078 2 4.52045 76.4191 39.8854
16348 1 9.0651 74.7933 41.1472
22077 2 7.24733 74.827 39.8633
16323 1 6.33873 76.3884 41.169
16138 1 11.795 76.3884 41.169
21928 2 9.97672 76.4191 39.8854
21956 2 12.7035 74.8271 39.8633
16137 1 14.5213 74.7933 41.1472
21717 2 15.433 76.4191 39.8854
21716 2 18.1598 74.8271 39.8633
15845 1 17.2512 76.3884 41.169
15876 1 19.9776 74.7933 41.1472
21399 2 20.8892 76.4191 39.8854
16440 1 0.885815 79.577 41.211
22136 2 1.79368 78.011 39.9069
16453 1 3.61227 77.983 41.1903
22063 2 4.52318 79.6027 39.9277
16322 1 6.34206 79.577 41.211
16321 1 9.06852 77.983 41.1903
22080 2 7.24991 78.011 39.9069
16104 1 11.7983 79.577 41.211
21927 2 9.9794 79.6027 39.9278
21926 2 12.7062 78.011 39.9069
16140 1 14.5247 77.983 41.1903
21686 2 15.4356 79.6027 39.9278
15844 1 17.2545 79.577 41.2111
21719 2 18.1624 78.0109 39.9069
15843 1 19.981 77.983 41.1903
21398 2 20.8919 79.6027 39.9277
16439 1 0.888675 82.7641 41.251
22137 2 1.79637 81.1945 39.9479
16438 1 3.6154 81.1707 41.2313
22062 2 4.52569 82.7862 39.9676
16299 1 6.34492 82.7641 41.251
16324 1 9.07164 81.1707 41.2313
22061 2 7.25258 81.1945 39.948
16103 1 11.8012 82.7641 41.251
21900 2 9.98193 82.7862 39.9676
21929 2 12.7088 81.1945 39.948
16102 1 14.5279 81.1706 41.2313
21685 2 15.4382 82.7863 39.9677
15807 1 17.2574 82.7641 41.251
21684 2 18.165 81.1945 39.9479
15846 1 19.9841 81.1707 41.2313
21367 2 20.8944 82.7863 39.9677
16428 1 0.89099 85.9505 41.2887
22132 2 1.79851 84.3779 39.9869
16441 1 3.618 84.3574 41.2701
22047 2 4.52761 85.9697 40.0056
16297 1 9.07423 84.3574 41.2701
16298 1 6.34722 85.9505 41.2887
22064 2 7.25477 84.3779 39.9869
16068 1 11.8035 85.9505 41.2887
21899 2 9.98386 85.9697 40.0056
16105 1 14.5305 84.3574 41.2701
21647 2 15.4401 85.9697 40.0055
21898 2 12.711 84.3779 39.9868
15806 1 17.2597 85.9505 41.2887
21687 2 18.1673 84.378 39.9868
15805 1 19.9867 84.3574 41.2701
21366 2 20.8963 85.9697 40.0056
22133 2 1.80041 87.5614 40.0236
16426 1 3.62014 87.5436 41.3068
16300 1 9.07637 87.5436 41.3068
22045 2 7.25664 87.5614 40.0236
16066 1 14.5326 87.5436 41.3068
21901 2 12.7129 87.5614 40.0236
21645 2 18.1691 87.5614 40.0236
15808 1 19.9888 87.5436 41.3068
16427 1 0.892893 89.1366 41.3243
22128 2 1.80192 90.7449 40.0579
22046 2 4.52934 89.1531 40.0411
16429 1 3.62183 90.7295 41.3412
16275 1 6.34912 89.1366 41.3243
16273 1 9.07808 90.7295 41.3412
22048 2 7.25817 90.7448 40.0579
16067 1 11.8054 89.1367 41.3243
21872 2 9.98556 89.1531 40.0411
21646 2 15.4418 89.1531 40.0411
16069 1 14.5343 90.7295 41.3412
21870 2 12.7144 90.7448 40.0579
15762 1 17.2616 89.1367 41.3243
21648 2 18.1706 90.7449 40.0579
21327 2 20.898 89.1531 40.0411
15760 1 19.9905 90.7295 41.3412
16431 1 2.70989 92.3508 38.794
16416 1 0.894426 92.3224 41.3575
22129 2 1.80321 93.9282 40.0897
16433 1 5.43858 93.9415 38.8095
22031 2 4.53068 92.3365 40.0741
16414 1 3.6232 93.9151 41.3731
16279 1 8.16613 92.3508 38.794
16274 1 6.35066 92.3224 41.3575
16276 1 9.07943 93.9151 41.373
22029 2 7.25947 93.9283 40.0897
16277 1 10.8948 93.9415 38.8095
16032 1 11.8069 92.3224 41.3575
21871 2 9.98692 92.3365 40.0741
16071 1 13.6224 92.3508 38.794
21607 2 15.4432 92.3365 40.0741
16030 1 14.5357 93.9151 41.373
21873 2 12.7157 93.9283 40.0897
16073 1 16.351 93.9415 38.8095
15761 1 17.2631 92.3224 41.3575
21605 2 18.1719 93.9282 40.0897
15765 1 19.0786 92.3508 38.794
16498 1 21.8073 93.9415 38.8095
21326 2 20.8994 92.3365 40.0741
15763 1 19.9919 93.9151 41.3731
16420 1 2.71101 95.5322 38.8243
16415 1 0.895719 95.5078 41.3879
22124 2 1.8044 97.1116 40.1186
16418 1 5.43971 97.123 38.8383
16417 1 3.62448 97.1005 41.4021
22030 2 4.53193 95.52 40.1046
16278 1 8.16725 95.5322 38.8242
16250 1 9.08071 97.1005 41.4021
16252 1 6.35196 95.5078 41.3879
22032 2 7.26062 97.1117 40.1186
16280 1 10.8959 97.123 38.8383
16031 1 11.8082 95.5078 41.3879
21844 2 9.98817 95.52 40.1045
16036 1 13.6235 95.5322 38.8242
16033 1 14.5369 97.1005 41.4021
21606 2 15.4444 95.5199 40.1045
21842 2 12.7169 97.1117 40.1186
16034 1 16.3522 97.123 38.8383
15716 1 17.2644 95.5078 41.3879
21608 2 18.1731 97.1117 40.1186
16499 1 21.8084 97.123 38.8383
15764 1 19.0797 95.5322 38.8243
15714 1 19.9932 97.1005 41.4021
21280 2 20.9007 95.5199 40.1046
16419 1 2.71216 98.7137 38.8516
16408 1 0.896989 98.6931 41.4154
22125 2 1.8056 100.295 40.1446
16421 1 5.44084 100.305 38.8642
16406 1 3.62574 100.286 41.428
22016 2 4.53311 98.7034 40.132
16256 1 8.16838 98.7137 38.8516
16251 1 6.35323 98.6931 41.4154
16253 1 9.08198 100.286 41.428
22014 2 7.26182 100.295 40.1446
16254 1 10.8971 100.305 38.8642
16000 1 11.8095 98.6931 41.4154
21843 2 9.98935 98.7034 40.132
16035 1 13.6246 98.7137 38.8516
15998 1 14.5382 100.286 41.428
21568 2 15.4456 98.7034 40.132
21845 2 12.7181 100.295 40.1446
16037 1 16.3533 100.305 38.8642
15715 1 17.2657 98.6931 41.4154
21566 2 18.1743 100.295 40.1446
16497 1 21.8096 100.305 38.8642
15719 1 19.0809 98.7137 38.8516
15717 1 19.9945 100.286 41.428
21279 2 20.9018 98.7034 40.132
16483 1 1.68302 51.9945 43.2066
22113 2 5.28617 52.0012 41.9541
16392 1 7.13932 51.9945 43.2066
21989 2 10.7424 52.0013 41.9542
16194 1 12.5955 51.9945 43.2066
15915 1 18.0517 51.9946 43.2066
21761 2 16.1985 52.0013 41.9542
22150 2 21.6548 52.0013 41.9542
22114 2 2.59582 53.6755 41.9445
16484 1 1.72672 55.2652 43.2502
16382 1 4.42692 53.6321 43.2226
22115 2 5.35133 55.3353 41.9749
21983 2 8.05205 53.6756 41.9445
16380 1 7.18291 55.2652 43.2502
16195 1 9.88316 53.6321 43.2226
21981 2 10.8076 55.3353 41.9749
15907 1 15.3394 53.6321 43.2226
21762 2 13.5084 53.6755 41.9445
16196 1 12.6391 55.2652 43.2502
15905 1 18.0954 55.2652 43.2502
21763 2 16.2637 55.3353 41.9749
15552 1 20.7957 53.6321 43.2226
21445 2 18.9646 53.6755 41.9445
22146 2 21.72 55.3352 41.9749
22106 2 2.65407 57.0132 42.024
16472 1 1.75757 58.5496 43.3646
16381 1 4.4731 56.9055 43.2982
22104 2 5.39982 58.6752 42.0861
21982 2 8.11029 57.0132 42.024
16383 1 7.21381 58.5495 43.3647
16183 1 9.9293 56.9055 43.2982
21984 2 10.8561 58.6752 42.0862
15906 1 15.3855 56.9055 43.2982
21754 2 13.5665 57.0132 42.024
16181 1 12.6701 58.5495 43.3647
15908 1 18.1263 58.5495 43.3646
21752 2 16.3123 58.6752 42.0861
15551 1 20.8418 56.9055 43.2982
21444 2 19.0227 57.0132 42.024
22147 2 21.7685 58.6752 42.0861
22105 2 2.68176 60.3134 42.139
16473 1 1.7669 61.8302 43.4704
16366 1 4.48974 60.1933 43.4256
22107 2 5.41572 61.9362 42.1838
21971 2 8.13796 60.3134 42.139
16364 1 7.22312 61.8302 43.4704
16182 1 9.94597 60.1933 43.4256
21969 2 10.872 61.9362 42.1837
15893 1 15.4022 60.1933 43.4256
21753 2 13.5942 60.3134 42.139
16184 1 12.6794 61.8302 43.4704
15891 1 18.1356 61.8302 43.4704
21755 2 16.3282 61.9363 42.1837
15550 1 20.8584 60.1933 43.4256
21437 2 19.0505 60.3134 42.139
22142 2 21.7844 61.9362 42.1837
16460 1 1.77796 65.0825 43.5418
22091 2 2.69103 63.5507 42.2233
16365 1 4.50106 63.4596 43.5082
22089 2 5.4216 65.1597 42.2583
16367 1 7.2342 65.0825 43.5418
21970 2 8.14735 63.5508 42.2233
16163 1 9.95732 63.4595 43.5082
21972 2 10.8778 65.1596 42.2583
15892 1 15.4136 63.4595 43.5082
16161 1 12.6904 65.0825 43.5418
21738 2 13.6036 63.5507 42.2233
15894 1 18.1467 65.0825 43.5418
21736 2 16.3341 65.1596 42.2583
22143 2 21.7903 65.1597 42.2583
15543 1 20.8698 63.4595 43.5082
21436 2 19.0597 63.5507 42.2233
22090 2 2.69519 66.765 42.2901
16343 1 4.50985 66.6995 43.5724
21951 2 8.15137 66.7651 42.2902
16162 1 9.96607 66.6995 43.5724
15871 1 15.4223 66.6995 43.5724
21737 2 13.6076 66.7651 42.2902
15542 1 20.8785 66.6995 43.5724
21421 2 19.0639 66.765 42.2901
16461 1 1.78495 68.3119 43.6008
22075 2 2.69822 69.9689 42.347
22092 2 5.42495 68.3678 42.3194
16342 1 4.5157 69.9204 43.6278
16341 1 7.2412 68.3119 43.6008
21950 2 8.15446 69.9689 42.347
21949 2 10.8812 68.3679 42.3195
16135 1 9.97194 69.9204 43.6278
16164 1 12.6974 68.3119 43.6008
15870 1 15.4282 69.9204 43.6278
21714 2 13.6107 69.9689 42.347
15869 1 18.1537 68.3119 43.6008
21739 2 16.3374 68.3679 42.3195
22138 2 21.7937 68.3678 42.3194
15527 1 20.8844 69.9204 43.6278
21420 2 19.0669 69.969 42.347
16448 1 1.78997 71.5261 43.6536
22074 2 2.70138 73.1672 42.3976
22073 2 5.42779 71.5686 42.3729
16319 1 4.52021 73.1294 43.6784
16344 1 7.24622 71.5261 43.6536
21924 2 8.15759 73.1672 42.3976
21952 2 10.8841 71.5686 42.3729
16134 1 9.97643 73.1294 43.6784
16133 1 12.7025 71.5261 43.6536
15841 1 15.4327 73.1294 43.6784
21713 2 13.6138 73.1672 42.3977
15872 1 18.1587 71.5261 43.6536
21712 2 16.3403 71.5686 42.3729
22139 2 21.7965 71.5686 42.3729
15526 1 20.8889 73.1294 43.6784
21397 2 19.0701 73.1672 42.3977
16449 1 1.79393 74.7308 43.7024
22059 2 2.70441 76.3614 42.4443
22076 2 5.43108 74.7647 42.4214
16318 1 4.52375 76.3307 43.7254
16317 1 7.25016 74.7308 43.7024
21923 2 8.16066 76.3614 42.4443
21922 2 10.8873 74.7647 42.4214
16100 1 9.97998 76.3307 43.7254
16136 1 12.7064 74.7308 43.7024
15840 1 15.4362 76.3307 43.7254
21682 2 13.6169 76.3614 42.4442
15839 1 18.1627 74.7308 43.7024
21715 2 16.3435 74.7647 42.4214
22134 2 21.7998 74.7647 42.4214
15503 1 20.8925 76.3307 43.7254
21396 2 19.0732 76.3614 42.4443
16436 1 1.79735 77.9294 43.7477
22058 2 2.7073 79.553 42.488
16295 1 4.52713 79.5273 43.7693
22057 2 5.43397 77.9574 42.4665
16320 1 7.2536 77.9294 43.7477
21896 2 8.16357 79.553 42.4879
16099 1 9.98338 79.5273 43.7693
21925 2 10.8902 77.9575 42.4665
15803 1 15.4396 79.5273 43.7693
16098 1 12.7098 77.9294 43.7477
21681 2 13.6198 79.553 42.4879
15842 1 18.1661 77.9294 43.7477
21680 2 16.3465 77.9575 42.4665
22135 2 21.8027 77.9574 42.4665
15502 1 20.8959 79.5273 43.7693
21365 2 19.076 79.553 42.4879
16437 1 1.80062 81.1243 43.7901
22043 2 2.71011 82.743 42.5286
16294 1 4.53016 82.7209 43.8104
22060 2 5.43697 81.1483 42.5086
16293 1 7.25686 81.1243 43.7901
21895 2 8.16632 82.743 42.5286
16064 1 9.9864 82.7209 43.8104
21894 2 10.8932 81.1482 42.5086
15802 1 15.4426 82.7209 43.8104
16101 1 12.7131 81.1243 43.7901
21643 2 13.6226 82.743 42.5287
15801 1 18.1693 81.1243 43.7901
21683 2 16.3494 81.1482 42.5086
22130 2 21.8057 81.1482 42.5086
15471 1 20.8989 82.7209 43.8104
21364 2 19.0788 82.743 42.5287
16424 1 1.80332 84.317 43.83
22042 2 2.71235 85.932 42.5672
16271 1 4.53262 85.9128 43.8491
22041 2 5.43939 84.3376 42.5482
16296 1 7.25955 84.317 43.83
21868 2 8.16858 85.932 42.5672
16063 1 9.98886 85.9128 43.8491
21897 2 10.8956 84.3377 42.5482
15758 1 15.4451 85.9128 43.8491
16062 1 12.7158 84.317 43.83
21642 2 13.6248 85.932 42.5672
15804 1 18.172 84.317 43.83
21641 2 16.3519 84.3376 42.5482
22131 2 21.8081 84.3376 42.5482
15470 1 20.9013 85.9128 43.8491
21325 2 19.0811 85.932 42.5672
16425 1 1.80555 87.5084 43.8675
22044 2 5.44142 87.5262 42.5855
16269 1 7.26179 87.5084 43.8675
21866 2 10.8977 87.5262 42.5855
16065 1 12.718 87.5084 43.8675
15756 1 18.1743 87.5084 43.8675
21644 2 16.3539 87.5263 42.5856
22126 2 21.8101 87.5262 42.5856
22027 2 2.71422 89.1203 42.6032
16412 1 1.80733 90.6988 43.9026
16270 1 4.53463 89.1037 43.8854
22025 2 5.44314 90.7142 42.6203
21867 2 8.17049 89.1203 42.6033
16272 1 7.26358 90.6989 43.9026
16028 1 9.99086 89.1037 43.8854
21869 2 10.8994 90.7142 42.6203
15757 1 15.4471 89.1037 43.8854
21603 2 13.6267 89.1203 42.6033
16026 1 12.7198 90.6989 43.9026
15759 1 18.1761 90.6988 43.9026
21601 2 16.3556 90.7142 42.6203
15431 1 20.9033 89.1037 43.8854
21324 2 19.0829 89.1203 42.6033
22127 2 21.8119 90.7142 42.6203
22026 2 2.71577 92.308 42.6367
16413 1 1.8088 93.8886 43.9349
16248 1 4.53622 92.2938 43.9191
22028 2 5.44456 93.9018 42.6524
21840 2 8.17199 92.308 42.6367
16246 1 7.26503 93.8886 43.9349
16027 1 9.99245 92.2938 43.9191
21838 2 10.9008 93.9018 42.6524
15712 1 15.4487 92.2938 43.9191
21602 2 13.6282 92.308 42.6367
16029 1 12.7213 93.8886 43.9349
15710 1 18.1775 93.8886 43.9349
21604 2 16.3571 93.9018 42.6524
15430 1 20.9049 92.2938 43.9191
21278 2 19.0845 92.308 42.6367
22122 2 21.8133 93.9018 42.6524
16404 1 1.81013 97.0778 43.9643
22012 2 2.71711 95.4955 42.6674
16247 1 4.53758 95.4832 43.95
22010 2 5.44586 97.0891 42.6816
16249 1 7.26637 97.0778 43.9643
21839 2 8.17332 95.4955 42.6674
15996 1 9.99382 95.4832 43.95
21841 2 10.9021 97.0891 42.6816
15711 1 15.4501 95.4832 43.95
15994 1 12.7226 97.0778 43.9643
21564 2 13.6296 95.4955 42.6674
15713 1 18.1788 97.0778 43.9643
21562 2 16.3583 97.0891 42.6816
22123 2 21.8146 97.0891 42.6816
15385 1 20.9063 95.4832 43.95
21277 2 19.0858 95.4955 42.6674
16405 1 1.81144 100.267 43.9905
22011 2 2.71836 98.6826 42.695
16232 1 4.53891 98.6723 43.9778
22013 2 5.44713 100.276 42.7077
16230 1 7.26768 100.267 43.9905
21816 2 8.17461 98.6826 42.695
15995 1 9.99514 98.6723 43.9778
21814 2 10.9034 100.276 42.7077
15672 1 15.4514 98.6723 43.9778
15997 1 12.7239 100.267 43.9905
21563 2 13.6309 98.6826 42.695
15670 1 18.1802 100.267 43.9905
21565 2 16.3596 100.276 42.7077
22121 2 21.8159 100.276 42.7077
15384 1 20.9076 98.6723 43.9778
21231 2 19.0871 98.6826 42.6951
22098 2 1.72709 51.9329 47.0599
22112 2 3.51257 51.9697 44.5047
16377 1 5.35046 51.9399 45.7732
21978 2 8.96883 51.9696 44.5047
21977 2 7.1833 51.933 47.0598
16193 1 10.8068 51.9399 45.7732
21760 2 14.425 51.9696 44.5047
21745 2 12.6396 51.933 47.0598
15902 1 16.263 51.9399 45.7732
21440 2 18.0958 51.933 47.0599
21441 2 19.8812 51.9697 44.5047
16482 1 21.7191 51.9399 45.7732
22102 2 0.803462 53.6173 44.5136
16378 1 2.63447 53.5776 45.7897
22099 2 1.74953 55.2055 47.0992
21963 2 4.46601 53.5709 47.0751
22100 2 3.55051 55.2623 44.5384
16379 1 5.37839 55.2109 45.814
21979 2 6.2597 53.6172 44.5136
16179 1 8.09066 53.5775 45.7897
21980 2 9.00671 55.2624 44.5384
21961 2 7.2057 55.2055 47.0993
21750 2 11.716 53.6172 44.5136
21746 2 9.92222 53.5709 47.0752
16177 1 10.8346 55.2109 45.814
15903 1 13.5469 53.5775 45.7897
21430 2 15.3785 53.5709 47.0752
21748 2 14.463 55.2624 44.5384
21747 2 12.662 55.2055 47.0993
21442 2 17.1722 53.6172 44.5136
15904 1 16.2909 55.2109 45.814
21428 2 18.1183 55.2055 47.0993
15549 1 19.0032 53.5775 45.7897
21064 2 20.8347 53.5709 47.0751
21443 2 19.9192 55.2623 44.5384
16470 1 21.7471 55.2109 45.814
22101 2 0.840108 56.9052 44.5742
16362 1 2.66413 56.8428 45.8502
22083 2 1.7711 58.47 47.17
21962 2 4.48943 56.8379 47.1311
22103 2 3.58207 58.5476 44.6229
16360 1 5.40448 58.4754 45.894
21967 2 6.29631 56.9053 44.5742
16178 1 8.12038 56.8428 45.8502
21965 2 9.03832 58.5476 44.623
21964 2 7.22737 58.4699 47.1699
21749 2 11.7526 56.9053 44.5742
21730 2 9.94571 56.8379 47.1311
16180 1 10.8607 58.4754 45.894
15889 1 13.5766 56.8429 45.8502
21429 2 15.4019 56.838 47.1311
21751 2 14.4945 58.5477 44.623
21728 2 12.6836 58.4699 47.1699
21434 2 17.2088 56.9052 44.5742
15887 1 16.3169 58.4754 45.894
21431 2 18.1398 58.4699 47.1699
15548 1 19.0328 56.8428 45.8502
21063 2 20.8581 56.838 47.1311
21432 2 19.9507 58.5477 44.623
16471 1 21.7732 58.4754 45.894
22087 2 0.86436 60.1872 44.6728
16361 1 2.68458 60.1097 45.9442
22084 2 1.78648 61.7307 47.2559
21943 2 4.50789 60.1013 47.2125
22085 2 3.59902 61.8188 44.7191
16363 1 5.4179 61.742 45.9926
21966 2 6.3206 60.1872 44.6728
16159 1 8.14083 60.1097 45.9442
21968 2 9.05524 61.8188 44.7191
21941 2 7.24271 61.7307 47.2559
21734 2 11.7768 60.1871 44.6728
21729 2 9.96414 60.1013 47.2125
16157 1 10.8741 61.742 45.9926
15888 1 13.5971 60.1096 45.9442
21414 2 15.4204 60.1013 47.2125
21732 2 14.5116 61.8188 44.7191
21731 2 12.6989 61.7307 47.2559
21433 2 17.2331 60.1871 44.6728
15890 1 16.3304 61.742 45.9926
21412 2 18.1552 61.7307 47.2559
15541 1 19.0533 60.1096 45.9442
21062 2 20.8766 60.1012 47.2125
21435 2 19.9678 61.8188 44.7191
16458 1 21.7866 61.742 45.9926
22086 2 0.875452 63.4428 44.7609
16339 1 2.69346 63.3715 46.0357
22067 2 1.79444 64.9783 47.3363
22088 2 3.6068 65.061 44.7986
16337 1 5.42495 64.9965 46.074
21942 2 4.51919 63.3565 47.2974
21947 2 6.33171 63.4428 44.7609
21945 2 9.06301 65.061 44.7986
16158 1 8.14971 63.3715 46.0356
21944 2 7.25067 64.9783 47.3363
21733 2 11.788 63.4428 44.7609
16160 1 10.8812 64.9966 46.074
21706 2 9.97546 63.3565 47.2974
21735 2 14.5192 65.061 44.7986
15867 1 13.606 63.3715 46.0356
21413 2 15.4317 63.3565 47.2973
21704 2 12.7069 64.9783 47.3362
21418 2 17.2442 63.4428 44.7609
15865 1 16.3374 64.9966 46.074
21415 2 18.1632 64.9783 47.3362
21416 2 19.9755 65.0609 44.7987
16459 1 21.7937 64.9965 46.074
15540 1 19.0622 63.3715 46.0356
21055 2 20.8879 63.3565 47.2973
22071 2 0.880889 66.6749 44.8331
16338 1 2.69952 66.6172 46.1089
21916 2 4.52512 66.5964 47.3723
21946 2 6.33715 66.6748 44.8331
16131 1 8.15578 66.6172 46.1089
21710 2 11.7934 66.6748 44.833
21705 2 9.98134 66.5964 47.3723
15866 1 13.612 66.6172 46.1089
21390 2 15.4375 66.5963 47.3723
21417 2 17.2496 66.6748 44.8331
15525 1 19.0683 66.6172 46.1089
21054 2 20.8938 66.5963 47.3723
22070 2 0.884333 69.8927 44.8947
16315 1 2.70407 69.8472 46.1711
22069 2 3.61079 68.2851 44.865
16340 1 5.42995 68.2342 46.141
21948 2 9.06707 68.285 44.865
21920 2 6.34055 69.8927 44.8947
16130 1 8.1603 69.8472 46.1712
16129 1 10.8862 68.2342 46.141
21709 2 11.7968 69.8927 44.8947
21708 2 14.5233 68.285 44.865
15837 1 13.6165 69.8472 46.1712
15868 1 16.3424 68.2342 46.141
21394 2 17.253 69.8927 44.8947
21419 2 19.9795 68.285 44.865
16446 1 21.7987 68.2342 46.141
15524 1 19.0728 69.8472 46.1711
22055 2 0.887516 73.1019 44.9491
16314 1 2.70785 73.0654 46.2269
22072 2 3.61411 71.4982 44.9226
16313 1 5.43422 71.4576 46.1997
21918 2 9.07034 71.4982 44.9226
21919 2 6.34377 73.1019 44.9491
16096 1 8.16409 73.0654 46.2268
16132 1 10.8905 71.4576 46.1998
21678 2 11.8 73.1019 44.9491
21711 2 14.5266 71.4982 44.9225
15836 1 13.6203 73.0654 46.2268
15835 1 16.3467 71.4576 46.1997
21393 2 17.2563 73.1019 44.9491
21392 2 19.9828 71.4982 44.9226
16447 1 21.8029 71.4576 46.1997
15501 1 19.0766 73.0654 46.2268
22054 2 0.890492 76.3051 44.9986
16291 1 2.71095 76.275 46.2774
22053 2 3.61724 74.7042 44.9743
16316 1 5.43753 74.6711 46.2527
21921 2 9.07348 74.7042 44.9743
21892 2 6.34671 76.3051 44.9986
16095 1 8.16719 76.2749 46.2774
16094 1 10.8938 74.6711 46.2527
21677 2 11.8029 76.3051 44.9987
21676 2 14.5297 74.7041 44.9743
15799 1 13.6234 76.275 46.2775
15838 1 16.35 74.6711 46.2527
21362 2 17.2592 76.3051 44.9986
21395 2 19.986 74.7041 44.9743
16434 1 21.8063 74.6711 46.2527
15500 1 19.0797 76.275 46.2775
22039 2 0.893371 79.5041 45.0444
16290 1 2.71408 79.4786 46.3239
22056 2 3.62002 77.9051 45.022
16289 1 5.44062 77.8774 46.3012
21891 2 6.34962 79.5042 45.0444
21890 2 9.07626 77.9051 45.022
16060 1 8.17033 79.4786 46.3239
21639 2 11.8059 79.5042 45.0444
16097 1 10.8969 77.8773 46.3012
21679 2 14.5325 77.9051 45.022
15798 1 13.6266 79.4786 46.3239
21361 2 17.2621 79.5042 45.0444
15797 1 16.3531 77.8774 46.3012
21360 2 19.9887 77.9051 45.022
16435 1 21.8093 77.8774 46.3012
15469 1 19.0828 79.4786 46.3239
22038 2 0.896088 82.7003 45.0867
16267 1 2.71691 82.6784 46.3669
22037 2 3.62289 81.1025 45.0658
16292 1 5.44368 81.0788 46.3458
21864 2 6.35232 82.7003 45.0866
21893 2 9.07914 81.1025 45.0658
16059 1 8.17314 82.6784 46.3669
21638 2 11.8086 82.7003 45.0867
16058 1 10.8999 81.0789 46.3458
21637 2 14.5354 81.1025 45.0658
15754 1 13.6294 82.6784 46.3669
21322 2 17.2648 82.7003 45.0867
15800 1 16.3562 81.0788 46.3458
21363 2 19.9916 81.1025 45.0658
16422 1 21.8124 81.0788 46.3458
15468 1 19.0856 82.6784 46.3669
22023 2 0.89833 85.8946 45.1264
16266 1 2.71925 85.8754 46.407
22040 2 3.62539 84.2976 45.1068
16265 1 5.44624 84.2772 46.3873
21862 2 9.08163 84.2976 45.1068
21863 2 6.35453 85.8946 45.1264
16024 1 8.17548 85.8754 46.407
21599 2 11.8108 85.8946 45.1264
16061 1 10.9025 84.2772 46.3873
21640 2 14.5379 84.2976 45.1068
15753 1 13.6317 85.8754 46.407
21321 2 17.267 85.8946 45.1264
15752 1 16.3587 84.2772 46.3873
21320 2 19.9941 84.2976 45.1068
16423 1 21.815 84.2772 46.3873
15429 1 19.088 85.8754 46.407
22021 2 3.6274 87.4912 45.1452
16268 1 5.44841 87.4734 46.4261
21865 2 9.08365 87.4912 45.1452
16022 1 10.9047 87.4734 46.4261
21597 2 14.5399 87.4912 45.1452
15755 1 16.3609 87.4734 46.4261
21323 2 19.9961 87.4912 45.1452
16410 1 21.8171 87.4734 46.4261
16244 1 2.72119 89.0709 46.4444
22022 2 0.900197 89.0875 45.1633
22024 2 3.6292 90.6835 45.1807
16242 1 5.45012 90.6682 46.4621
16023 1 8.17742 89.0709 46.4444
21836 2 6.35645 89.0875 45.1633
21834 2 9.08541 90.6836 45.1807
21598 2 11.8127 89.0875 45.1633
16025 1 10.9064 90.6682 46.4621
15708 1 13.6337 89.0709 46.4444
21600 2 14.5416 90.6836 45.1807
21275 2 17.2689 89.0875 45.1633
15706 1 16.3626 90.6682 46.4621
15428 1 19.0899 89.0709 46.4444
21273 2 19.9979 90.6835 45.1807
16411 1 21.8188 90.6682 46.4621
22008 2 0.901819 92.2794 45.1975
16243 1 2.72273 92.2653 46.479
22006 2 3.6306 93.8753 45.2135
16245 1 5.45155 93.862 46.4952
21835 2 6.35807 92.2794 45.1974
21837 2 9.08685 93.8752 45.2135
15992 1 8.17898 92.2653 46.479
21560 2 11.8143 92.2794 45.1975
15990 1 10.9078 93.862 46.4952
21558 2 14.5431 93.8752 45.2135
15707 1 13.6352 92.2653 46.479
21274 2 17.2705 92.2794 45.1975
15709 1 16.364 93.862 46.4952
21276 2 19.9993 93.8752 45.2135
15383 1 19.0914 92.2653 46.479
16402 1 21.8203 93.862 46.4952
22007 2 0.903161 95.4709 45.2287
16228 1 2.72409 95.4586 46.5105
22009 2 3.63193 97.0664 45.2431
16226 1 5.45287 97.055 46.5251
21810 2 9.08817 97.0663 45.2431
21812 2 6.35941 95.4709 45.2287
15991 1 8.18034 95.4586 46.5105
21559 2 11.8156 95.4709 45.2287
15993 1 10.9091 97.055 46.5251
21561 2 14.5444 97.0664 45.2431
15668 1 13.6366 95.4586 46.5105
21228 2 17.2719 95.4709 45.2287
15666 1 16.3653 97.055 46.5251
21226 2 20.0006 97.0664 45.2431
16403 1 21.8216 97.055 46.5251
15382 1 19.0928 95.4586 46.5105
22000 2 0.904448 98.6618 45.2567
16227 1 2.72541 98.6513 46.5388
21998 2 3.63322 100.257 45.2695
16229 1 5.45417 100.248 46.5516
21811 2 6.36069 98.6618 45.2567
21813 2 9.08946 100.257 45.2695
15968 1 8.18164 98.6513 46.5388
21528 2 11.817 98.6618 45.2567
15966 1 10.9104 100.248 46.5516
21526 2 14.5457 100.257 45.2695
15667 1 13.6379 98.6513 46.5388
21227 2 17.2732 98.6618 45.2567
15669 1 16.3666 100.248 46.5516
21229 2 20.0019 100.257 45.2695
16401 1 21.8229 100.248 46.5516
15338 1 19.0941 98.6513 46.5388
16376 1 3.56092 51.9064 48.3306
21958 2 5.39023 51.903 49.6167
16174 1 9.01716 51.9064 48.3306
21744 2 10.8465 51.9031 49.6167
15901 1 14.4734 51.9064 48.3305
21425 2 16.3027 51.9031 49.6167
22097 2 21.7589 51.9031 49.6167
15545 1 19.9296 51.9064 48.3306
16358 1 0.839685 53.5389 48.3498
21959 2 2.66885 53.5337 49.6346
16356 1 3.57714 55.1683 48.3744
21960 2 5.40435 55.1623 49.6583
16175 1 6.29594 53.5389 48.3498
21726 2 8.12509 53.5338 49.6347
16176 1 9.03341 55.1683 48.3744
15885 1 11.7521 53.5389 48.3498
21724 2 10.8606 55.1622 49.6583
21426 2 13.5813 53.5338 49.6347
15883 1 14.4897 55.1684 48.3744
15546 1 17.2084 53.5389 48.3498
21427 2 16.3168 55.1623 49.6583
21061 2 19.0375 53.5337 49.6347
22081 2 21.773 55.1623 49.6583
15547 1 19.9459 55.1684 48.3744
16357 1 0.858727 56.7958 48.4052
21939 2 2.68389 56.7893 49.6875
16359 1 3.59615 58.4232 48.4415
21937 2 5.41961 58.4153 49.7214
16155 1 6.31497 56.7958 48.4052
21725 2 8.14018 56.7893 49.6875
16153 1 9.05238 58.4232 48.4415
15884 1 11.7712 56.7958 48.4052
21727 2 10.8759 58.4153 49.7214
21410 2 13.5964 56.7893 49.6874
15886 1 14.5086 58.4232 48.4414
15538 1 17.2274 56.7958 48.4052
21408 2 16.3321 58.4152 49.7213
21060 2 19.0526 56.7893 49.6874
22082 2 21.7884 58.4152 49.7213
15536 1 19.9649 58.4232 48.4414
16335 1 0.875702 60.0504 48.4822
21938 2 2.69825 60.0408 49.7583
16333 1 3.6096 61.6771 48.5254
21940 2 5.432 61.6658 49.7974
16154 1 6.33195 60.0504 48.4821
16156 1 9.06583 61.6771 48.5254
21702 2 8.15448 60.0408 49.7584
15863 1 11.7882 60.0503 48.4821
21700 2 10.8882 61.6658 49.7974
15861 1 14.5221 61.6771 48.5254
21409 2 13.6107 60.0408 49.7584
15537 1 17.2444 60.0503 48.4821
21411 2 16.3445 61.6658 49.7974
22065 2 21.8007 61.6658 49.7973
15539 1 19.9784 61.6771 48.5254
21053 2 19.0669 60.0408 49.7583
16334 1 0.885277 63.3032 48.5676
21912 2 2.70831 63.2897 49.8366
16336 1 3.61608 64.9273 48.6072
21910 2 5.43986 64.9114 49.8748
16125 1 9.07233 64.9273 48.6073
16127 1 6.34153 63.3032 48.5676
21701 2 8.16454 63.2897 49.8366
15862 1 11.7978 63.3032 48.5676
21703 2 10.8961 64.9114 49.8748
15864 1 14.5286 64.9273 48.6073
21386 2 13.6208 63.2897 49.8367
15522 1 17.254 63.3032 48.5676
21384 2 16.3524 64.9114 49.8748
22066 2 21.8086 64.9114 49.8748
15520 1 19.9848 64.9273 48.6072
21052 2 19.077 63.2897 49.8367
16311 1 0.890347 66.5484 48.6441
21911 2 2.71442 66.5305 49.9113
16309 1 3.62043 68.1669 48.6789
21913 2 5.44466 68.1472 49.9462
16126 1 6.34658 66.5484 48.6441
16128 1 9.07667 68.1669 48.6789
21670 2 8.17065 66.5305 49.9113
15833 1 11.8028 66.5484 48.6441
21668 2 10.9009 68.1472 49.9462
15831 1 14.5329 68.1669 48.6789
21385 2 13.6269 66.5305 49.9113
15521 1 17.2591 66.5484 48.6441
21387 2 16.3571 68.1472 49.9462
22049 2 21.8134 68.1472 49.9462
15523 1 19.9891 68.1669 48.6789
21037 2 19.0831 66.5305 49.9113
22068 2 1.79901 68.2111 47.4061
16310 1 0.894169 69.7825 48.7115
21884 2 2.71824 69.7616 49.9795
21915 2 4.52888 69.8232 47.438
21914 2 7.25523 68.2111 47.4061
16092 1 6.35041 69.7824 48.7115
21669 2 8.17447 69.7616 49.9795
21674 2 9.98512 69.8232 47.438
15832 1 11.8066 69.7824 48.7115
21707 2 12.7115 68.2111 47.4062
21389 2 15.4414 69.8232 47.438
21354 2 13.6307 69.7616 49.9795
21388 2 18.1677 68.2111 47.4062
15498 1 17.2629 69.7825 48.7115
21039 2 20.8976 69.8232 47.438
21036 2 19.087 69.7616 49.9795
22051 2 1.8023 71.433 47.4679
16287 1 0.897218 73.0065 48.7717
21883 2 2.72114 72.9845 50.0412
21888 2 4.53185 73.0408 47.4964
16312 1 3.62395 71.3956 48.7424
21882 2 5.44792 71.374 50.0112
21917 2 7.25852 71.433 47.4679
16090 1 9.08019 71.3956 48.7424
16091 1 6.35346 73.0064 48.7717
21631 2 8.17738 72.9844 50.0412
21673 2 9.98809 73.0408 47.4964
21671 2 10.9042 71.374 50.0111
15795 1 11.8097 73.0064 48.7717
21672 2 12.7148 71.433 47.4679
21358 2 15.4443 73.0408 47.4964
15834 1 14.5364 71.3956 48.7424
21353 2 13.6337 72.9845 50.0411
21391 2 18.171 71.433 47.4679
21352 2 16.3604 71.374 50.0111
15497 1 17.2659 73.0065 48.7717
21038 2 20.9006 73.0408 47.4964
22050 2 21.8166 71.374 50.0112
15496 1 19.9927 71.3956 48.7424
21013 2 19.0899 72.9845 50.0411
22052 2 1.80512 74.6467 47.5234
16286 1 0.899778 76.2222 48.8261
21856 2 2.72366 76.2004 50.0973
21887 2 4.53454 76.2513 47.5493
16285 1 3.62658 74.6154 48.7995
21885 2 5.45058 74.5932 50.0699
21886 2 7.26138 74.6467 47.5234
16093 1 9.08282 74.6154 48.7995
16056 1 6.35602 76.2222 48.8261
21630 2 8.1799 76.2005 50.0972
21635 2 9.9908 76.2513 47.5493
21629 2 10.9068 74.5932 50.0698
15794 1 11.8123 76.2222 48.8261
21675 2 12.7176 74.6467 47.5234
21357 2 15.447 76.2513 47.5493
15793 1 14.5391 74.6154 48.7995
21314 2 13.6361 76.2005 50.0973
21356 2 18.1738 74.6467 47.5234
21355 2 16.363 74.5932 50.0698
15466 1 17.2685 76.2222 48.8261
21015 2 20.9032 76.2513 47.5493
22033 2 21.8193 74.5932 50.0698
15499 1 19.9953 74.6154 48.7995
21012 2 19.0924 76.2004 50.0973
22035 2 1.80776 77.8545 47.574
16263 1 0.902476 79.4318 48.8756
21855 2 2.72587 79.4111 50.1485
21860 2 4.53714 79.4566 47.5976
16288 1 3.62926 77.8277 48.8514
21854 2 5.45285 77.8064 50.1235
21889 2 7.26398 77.8545 47.574
16054 1 9.0855 77.8277 48.8514
16055 1 6.35871 79.4318 48.8756
21591 2 8.1821 79.4111 50.1485
21634 2 9.99336 79.4566 47.5976
15750 1 11.815 79.4318 48.8756
21632 2 10.9091 77.8064 50.1235
21318 2 15.4496 79.4566 47.5976
21633 2 12.7202 77.8545 47.574
15796 1 14.5417 77.8276 48.8514
21313 2 13.6383 79.4111 50.1485
21359 2 18.1765 77.8545 47.574
15465 1 17.2712 79.4318 48.8756
21312 2 16.3653 77.8064 50.1235
21014 2 20.9059 79.4566 47.5976
22034 2 21.8216 77.8064 50.1235
15464 1 19.998 77.8276 48.8514
20981 2 19.0946 79.4111 50.1485
22036 2 1.81031 81.0579 47.6202
16262 1 0.904894 82.6368 48.9209
21828 2 2.72807 82.6176 50.1952
22017 2 -0.00113653 81.0148 50.1723
21859 2 4.53964 82.6584 47.642
16261 1 3.63187 81.0347 48.8987
21857 2 5.45511 81.0148 50.1724
21858 2 7.26656 81.0579 47.6202
16020 1 6.36114 82.6368 48.9209
16057 1 9.08812 81.0347 48.8987
21590 2 8.1843 82.6176 50.1952
21595 2 9.99588 82.6584 47.642
15749 1 11.8174 82.6368 48.9209
21589 2 10.9113 81.0148 50.1724
21317 2 15.4521 82.6584 47.642
21636 2 12.7228 81.058 47.6202
15748 1 14.5444 81.0347 48.8987
21267 2 13.6406 82.6176 50.1952
21316 2 18.179 81.0579 47.6202
15426 1 17.2736 82.6368 48.9209
21315 2 16.3676 81.0148 50.1723
20983 2 20.9084 82.6584 47.642
15467 1 20.0006 81.0347 48.8987
20980 2 19.0968 82.6177 50.1952
22019 2 1.81259 84.2582 47.6631
16240 1 0.907007 85.8386 48.9629
22018 2 0.000856401 84.2197 50.2172
21832 2 4.54171 85.8576 47.6833
16264 1 3.6341 84.2381 48.9423
21826 2 5.45708 84.2197 50.2172
21861 2 7.26885 84.2582 47.663
16018 1 9.09033 84.2381 48.9423
16019 1 6.36324 85.8387 48.9629
21594 2 9.99793 85.8576 47.6833
15704 1 11.8195 85.8387 48.9629
21592 2 10.9133 84.2197 50.2172
21271 2 15.4542 85.8575 47.6833
21593 2 12.7251 84.2582 47.6631
15751 1 14.5466 84.238 48.9423
21319 2 18.1813 84.2582 47.6631
15425 1 17.2757 85.8386 48.9629
21265 2 16.3696 84.2197 50.2172
20982 2 20.9104 85.8576 47.6833
15424 1 20.0028 84.238 48.9423
22020 2 1.81448 87.4564 47.7028
16238 1 3.63603 87.4388 48.9827
21830 2 7.27068 87.4564 47.7028
16021 1 9.09227 87.4388 48.9827
21596 2 12.7269 87.4564 47.7028
15702 1 14.5485 87.4388 48.9827
21269 2 18.1832 87.4564 47.7028
15427 1 20.0047 87.4388 48.9827
16239 1 0.908742 89.0385 49.0017
22004 2 1.81621 90.653 47.7394
21831 2 4.54349 89.0549 47.7214
16241 1 3.63758 90.6378 49.0199
15988 1 6.36498 89.0384 49.0017
21833 2 7.27245 90.653 47.7394
15986 1 9.09383 90.6378 49.0199
21556 2 9.99974 89.0549 47.7215
15703 1 11.8212 89.0385 49.0017
21270 2 15.456 89.0549 47.7215
21554 2 12.7287 90.653 47.7394
15705 1 14.5501 90.6378 49.0199
15380 1 17.2774 89.0385 49.0017
21272 2 18.1849 90.653 47.7394
20943 2 20.9122 89.0549 47.7214
15378 1 20.0063 90.6378 49.0199
22005 2 1.81753 93.8487 47.7729
16224 1 0.910152 92.2368 49.0373
21808 2 4.54501 92.251 47.7566
16222 1 3.63893 93.8355 49.0539
21806 2 7.27378 93.8487 47.7729
15987 1 6.36639 92.2368 49.0373
15989 1 9.09517 93.8355 49.0539
21555 2 10.0013 92.251 47.7565
15664 1 11.8226 92.2368 49.0373
21224 2 15.4575 92.251 47.7565
21557 2 12.73 93.8487 47.773
15662 1 14.5514 93.8355 49.0539
21222 2 18.1863 93.8487 47.7729
15379 1 17.2789 92.2368 49.0373
20942 2 20.9137 92.251 47.7566
15381 1 20.0076 93.8355 49.0539
21996 2 1.81884 97.0436 47.8032
16223 1 0.91143 95.4339 49.0696
21807 2 4.5463 95.4462 47.7885
16225 1 3.64017 97.0322 49.0844
21809 2 7.27506 97.0436 47.8032
15962 1 9.09641 97.0322 49.0844
15964 1 6.36767 95.4339 49.0696
21524 2 10.0025 95.4462 47.7885
15663 1 11.8239 95.4339 49.0696
21223 2 15.4588 95.4462 47.7885
21522 2 12.7313 97.0436 47.8032
15665 1 14.5526 97.0322 49.0844
21225 2 18.1876 97.0436 47.8032
15335 1 17.2802 95.4339 49.0696
20899 2 20.915 95.4462 47.7885
15333 1 20.0089 97.0322 49.0844
21997 2 1.82008 100.238 47.83
16216 1 0.912676 98.6303 49.0984
21792 2 4.54757 98.6408 47.817
16214 1 3.64141 100.228 49.1115
21790 2 7.27632 100.238 47.83
15963 1 6.36892 98.6303 49.0984
15965 1 9.09765 100.228 49.1115
21523 2 10.0038 98.6408 47.817
15632 1 11.8251 98.6303 49.0984
21184 2 15.4601 98.6408 47.817
21525 2 12.7325 100.238 47.83
15630 1 14.5539 100.228 49.1115
21182 2 18.1888 100.238 47.83
15334 1 17.2814 98.6303 49.0984
20898 2 20.9163 98.6408 47.817
15336 1 20.0101 100.228 49.1115
16354 1 1.76484 51.8836 50.8892
21957 2 3.59224 51.8811 52.176
16173 1 7.22107 51.8836 50.8892
21721 2 9.04843 51.8811 52.176
15880 1 12.6773 51.8836 50.8892
21424 2 14.5047 51.8812 52.176
15544 1 18.1336 51.8836 50.8892
21057 2 19.961 51.8811 52.1759
21935 2 0.868382 53.506 52.194
16355 1 1.77508 55.1352 50.9327
16151 1 4.49777 53.5102 50.9085
21933 2 3.60163 55.1294 52.2165
21722 2 6.32465 53.506 52.194
16149 1 7.23132 55.1352 50.9327
21723 2 9.05787 55.1294 52.2165
15881 1 9.95399 53.5102 50.9085
21406 2 11.7809 53.506 52.194
15534 1 15.4103 53.5102 50.9085
15882 1 12.6876 55.1352 50.9327
21404 2 14.5141 55.1294 52.2164
21058 2 17.2371 53.506 52.194
15532 1 18.1438 55.1352 50.9327
15184 1 20.8665 53.5101 50.9085
21059 2 19.9703 55.1294 52.2164
21934 2 0.879047 56.752 52.2435
16331 1 1.78884 58.3818 50.9933
16150 1 4.51 56.7587 50.961
21936 2 3.61268 58.374 52.2741
21698 2 6.33529 56.7521 52.2435
16152 1 7.24505 58.3818 50.9933
21696 2 9.06887 58.3741 52.2741
15859 1 9.96623 56.7587 50.961
21405 2 11.7915 56.7521 52.2436
15533 1 15.4225 56.7586 50.961
15857 1 12.7013 58.3818 50.9933
21407 2 14.5251 58.3741 52.2742
21050 2 17.2477 56.752 52.2435
15535 1 18.1576 58.3817 50.9933
15183 1 20.8787 56.7587 50.961
21048 2 19.9814 58.3741 52.2741
16332 1 1.80023 61.6275 51.067
21908 2 0.88979 59.9956 52.3077
16123 1 4.52304 60.0048 51.0289
21906 2 3.62257 61.6168 52.343
16121 1 7.25648 61.6275 51.067
21697 2 6.34601 59.9955 52.3077
21699 2 9.07887 61.6168 52.3429
15858 1 9.97925 60.0048 51.029
21382 2 11.8022 59.9956 52.3077
15518 1 15.4355 60.0048 51.029
15860 1 12.7127 61.6275 51.067
21380 2 14.5351 61.6168 52.343
15516 1 18.1689 61.6275 51.067
21049 2 17.2585 59.9956 52.3077
15182 1 20.8918 60.0047 51.0289
21051 2 19.9912 61.6169 52.3431
16307 1 1.80689 64.8716 51.1447
21907 2 0.898317 63.2378 52.3797
16122 1 4.53214 63.2499 51.1061
21909 2 3.62975 64.8577 52.4162
16124 1 7.26314 64.8716 51.1447
21664 2 9.08595 64.8577 52.4163
21666 2 6.35459 63.2378 52.3797
15829 1 9.98842 63.2499 51.1062
21381 2 11.8109 63.2377 52.3796
15517 1 15.4447 63.2499 51.1062
15827 1 12.7194 64.8715 51.1447
21383 2 14.5422 64.8577 52.4162
15519 1 18.1756 64.8716 51.1447
21034 2 17.2671 63.2377 52.3797
15175 1 20.9009 63.2499 51.1061
21032 2 19.9985 64.8577 52.4162
16308 1 1.81138 68.1098 51.2173
21880 2 0.904346 66.4761 52.4523
16088 1 4.53749 66.4915 51.1817
21878 2 3.63462 68.0928 52.4872
16086 1 7.26762 68.1098 51.2173
21665 2 6.36059 66.4761 52.4523
21667 2 9.09085 68.0928 52.4872
15828 1 9.99373 66.4915 51.1817
21350 2 11.8168 66.4761 52.4523
15494 1 15.45 66.4916 51.1817
15830 1 12.7239 68.1098 51.2173
21348 2 14.5471 68.0928 52.4872
15492 1 18.1801 68.1098 51.2173
21033 2 17.273 66.4761 52.4522
15174 1 20.9062 66.4915 51.1817
21035 2 20.0034 68.0927 52.4872
21879 2 0.908267 69.7079 52.5211
16087 1 4.54114 69.7262 51.2513
21627 2 6.3645 69.708 52.5212
15791 1 9.99737 69.7262 51.2513
21349 2 11.8207 69.708 52.5212
15493 1 15.4536 69.7262 51.2513
21010 2 17.277 69.708 52.5212
15159 1 20.9099 69.7262 51.2513
16283 1 1.8144 71.3406 51.2838
21852 2 0.911239 72.9336 52.585
21881 2 3.63796 71.3216 52.5538
16052 1 4.54372 72.9532 51.3148
21625 2 9.09422 71.3216 52.5538
16089 1 7.27064 71.3406 51.2838
21626 2 6.36745 72.9336 52.585
15790 1 9.99996 72.9532 51.3148
21310 2 11.8237 72.9336 52.5851
21351 2 14.5504 71.3215 52.5538
15789 1 12.7269 71.3406 51.2838
15462 1 15.4562 72.9532 51.3148
15495 1 18.1831 71.3406 51.2838
21009 2 17.2799 72.9336 52.5851
21008 2 20.0067 71.3215 52.5538
15158 1 20.9125 72.9532 51.3148
16284 1 1.81667 74.5641 51.3444
21851 2 0.91344 76.1532 52.6438
21850 2 3.6405 74.544 52.615
16051 1 4.54594 76.1732 51.3726
16050 1 7.27289 74.5641 51.3444
21628 2 9.09677 74.544 52.615
21587 2 6.36968 76.1532 52.6438
15746 1 10.0022 76.1732 51.3726
21309 2 11.8259 76.1532 52.6438
15792 1 12.7291 74.5641 51.3444
21308 2 14.553 74.5441 52.615
15461 1 15.4584 76.1732 51.3727
15460 1 18.1854 74.5641 51.3444
20978 2 17.2822 76.1532 52.6438
21011 2 20.0092 74.5441 52.615
15135 1 20.9147 76.1732 51.3726
16259 1 1.81893 77.7808 51.3995
21824 2 0.915412 79.3677 52.6977
16016 1 4.54817 79.3872 51.4252
21853 2 3.64255 77.761 52.6714
16053 1 7.27518 77.7808 51.3996
21585 2 9.09879 77.761 52.6714
21586 2 6.37166 79.3678 52.6977
15745 1 10.0044 79.3872 51.4252
21263 2 11.8279 79.3677 52.6976
15422 1 15.4606 79.3872 51.4252
15744 1 12.7314 77.7808 51.3995
21311 2 14.555 77.761 52.6714
15463 1 18.1876 77.7808 51.3995
20977 2 17.2841 79.3677 52.6977
15134 1 20.9169 79.3872 51.4252
20976 2 20.0113 77.761 52.6715
16260 1 1.82108 80.9923 51.4496
21823 2 0.917258 82.5782 52.7468
16015 1 4.55013 82.5966 51.473
21822 2 3.64451 80.9734 52.7228
16014 1 7.27731 80.9923 51.4496
21548 2 6.37349 82.5782 52.7468
21588 2 9.10075 80.9734 52.7228
15700 1 10.0064 82.5966 51.473
21262 2 11.8297 82.5782 52.7468
15421 1 15.4626 82.5966 51.473
15747 1 12.7336 80.9923 51.4496
21261 2 14.557 80.9734 52.7228
15420 1 18.1898 80.9923 51.4496
20938 2 17.286 82.5782 52.7468
15103 1 20.9188 82.5966 51.473
20979 2 20.0132 80.9734 52.7228
21827 2 2.72978 85.8213 50.2383
16236 1 1.82291 84.2 51.4955
21800 2 0.918631 85.7857 52.7919
15984 1 4.55187 85.8027 51.517
21825 2 3.64607 84.1823 52.7699
21552 2 8.18603 85.8213 50.2383
16017 1 7.27915 84.2 51.4955
21546 2 9.10231 84.1823 52.7699
21547 2 6.37488 85.7857 52.7919
15699 1 10.0081 85.8027 51.517
21216 2 11.8311 85.7857 52.7919
21266 2 13.6422 85.8213 50.2383
15376 1 15.4643 85.8027 51.517
15698 1 12.7354 84.2 51.4955
21264 2 14.5586 84.1823 52.7698
15423 1 18.1916 84.2 51.4955
20937 2 17.2874 85.7857 52.7919
20941 2 19.0985 85.8213 50.2383
15102 1 20.9206 85.8027 51.517
20936 2 20.0148 84.1823 52.7698
22002 2 0.00248197 87.4222 50.2586
16237 1 1.82451 87.4048 51.5376
21829 2 5.45873 87.4222 50.2586
21798 2 3.64754 87.3886 52.8129
15982 1 7.28075 87.4048 51.5376
21549 2 9.10375 87.3886 52.8129
21550 2 10.9149 87.4222 50.2585
15701 1 12.737 87.4048 51.5376
21214 2 14.56 87.3885 52.8129
21268 2 16.3712 87.4222 50.2586
15374 1 18.1932 87.4048 51.5376
20939 2 20.0163 87.3885 52.8129
21804 2 2.73143 89.0227 50.2779
22003 2 0.00407622 90.6228 50.2965
21799 2 0.920174 88.9909 52.833
16220 1 1.82586 90.6076 51.5762
21802 2 5.4603 90.6228 50.2965
15983 1 4.55332 89.0064 51.5574
21801 2 3.6489 90.5928 52.8521
21551 2 8.18769 89.0227 50.2779
21516 2 6.3764 88.9909 52.833
15985 1 7.28209 90.6077 51.5762
21514 2 9.10514 90.5929 52.8522
21553 2 10.9166 90.6228 50.2965
15660 1 10.0096 89.0064 51.5574
21215 2 11.8326 88.9909 52.8331
21220 2 13.6439 89.0227 50.2779
15375 1 15.4658 89.0064 51.5574
15658 1 12.7383 90.6077 51.5762
21217 2 14.5614 90.5929 52.8522
21218 2 16.3728 90.6228 50.2965
20894 2 17.2889 88.9909 52.833
15377 1 18.1946 90.6076 51.5762
20940 2 19.1002 89.0227 50.2779
15067 1 20.922 89.0064 51.5574
20892 2 20.0176 90.5929 52.8522
21803 2 2.7328 92.2226 50.3142
21994 2 0.0052504 93.8222 50.331
21784 2 0.921275 92.1946 52.8704
16221 1 1.82707 93.8091 51.6112
21805 2 5.46149 93.8223 50.331
15960 1 4.55459 92.2085 51.5942
21782 2 3.6499 93.796 52.8878
21520 2 8.18902 92.2226 50.3142
21515 2 6.37753 92.1945 52.8704
15958 1 7.28331 93.8091 51.6112
21517 2 9.10616 93.7959 52.8877
21518 2 10.9177 93.8223 50.331
15659 1 10.0108 92.2085 51.5942
21176 2 11.8337 92.1945 52.8704
21219 2 13.6453 92.2226 50.3141
15331 1 15.4671 92.2085 51.5942
15661 1 12.7395 93.8091 51.6112
21174 2 14.5624 93.796 52.8877
21221 2 16.374 93.8222 50.331
20893 2 17.29 92.1946 52.8705
15329 1 18.1958 93.8091 51.6112
20897 2 19.1015 92.2226 50.3141
15066 1 20.9233 92.2085 51.5942
20895 2 20.0186 93.796 52.8878
21788 2 2.734 95.4216 50.3469
21995 2 0.00647714 97.0208 50.3619
16212 1 1.8282 97.0094 51.6425
21783 2 0.922361 95.3971 52.9041
21786 2 5.46273 97.0207 50.3619
15959 1 4.55575 95.4093 51.6273
21785 2 3.65105 96.998 52.9195
21519 2 8.19022 95.4216 50.3469
15961 1 7.28444 97.0094 51.6425
21490 2 9.10729 96.998 52.9195
21492 2 6.37861 95.3971 52.9041
21521 2 10.919 97.0208 50.3619
15628 1 10.012 95.4093 51.6273
21175 2 11.8348 95.3971 52.9041
21180 2 13.6464 95.4216 50.3469
15330 1 15.4682 95.4093 51.6273
15626 1 12.7407 97.0094 51.6425
21177 2 14.5635 96.998 52.9194
21178 2 16.3752 97.0208 50.3619
15332 1 18.1969 97.0094 51.6425
20851 2 17.2911 95.3971 52.9041
20896 2 19.1027 95.4216 50.3469
15031 1 20.9245 95.4093 51.6273
20849 2 20.0198 96.998 52.9194
21787 2 2.73518 98.6198 50.376
21993 2 0.00767506 100.219 50.3892
16213 1 1.82937 100.209 51.6701
21776 2 0.923497 98.5988 52.9338
21789 2 5.46392 100.219 50.3892
15944 1 4.55691 98.6093 51.6568
21774 2 3.6522 100.199 52.9473
21496 2 8.19144 98.6198 50.376
15942 1 7.2856 100.209 51.6701
21491 2 6.37971 98.5988 52.9339
21493 2 9.10843 100.199 52.9473
21494 2 10.9201 100.219 50.3892
15627 1 10.0131 98.6093 51.6568
21144 2 11.836 98.5988 52.9339
21179 2 13.6477 98.6198 50.376
15293 1 15.4694 98.6093 51.6568
15629 1 12.7418 100.209 51.6701
21142 2 14.5646 100.199 52.9473
21181 2 16.3764 100.219 50.3892
15291 1 18.1981 100.209 51.6701
20850 2 17.2922 98.5988 52.9338
20854 2 19.1039 98.6198 50.376
15030 1 20.9256 98.6093 51.6568
20852 2 20.0209 100.199 52.9473
21931 2 1.79089 51.8658 54.7367
16146 1 5.42094 51.8677 53.45
21720 2 7.24707 51.8657 54.7368
15879 1 10.8772 51.8677 53.45
21401 2 12.7033 51.8658 54.7368
15529 1 16.3335 51.8677 53.45
21056 2 18.1596 51.8658 54.7368
16353 1 21.7897 51.8677 53.45
16147 1 2.69621 53.4889 53.4682
21932 2 1.79744 55.1046 54.7751
21694 2 4.52193 53.4855 54.7537
16148 1 5.42834 55.1093 53.491
15855 1 8.15244 53.4889 53.4681
21692 2 7.25369 55.1047 54.7751
21402 2 9.97813 53.4855 54.7537
15853 1 10.8846 55.1093 53.491
15530 1 13.6087 53.4888 53.4681
21046 2 15.4343 53.4856 54.7538
21403 2 12.71 55.1047 54.7751
15531 1 16.3408 55.1093 53.4909
21044 2 18.1662 55.1046 54.7751
15181 1 19.0649 53.4888 53.4682
20712 2 20.8906 53.4855 54.7538
16329 1 21.7971 55.1093 53.4909
16119 1 2.70493 56.7294 53.5173
21904 2 1.80572 58.3421 54.8283
21693 2 4.52966 56.7235 54.8001
16117 1 5.43811 58.3491 53.5469
15854 1 8.16118 56.7294 53.5173
21695 2 7.26199 58.342 54.8282
21378 2 9.98586 56.7235 54.8001
15856 1 10.8943 58.3491 53.547
15514 1 13.6174 56.7293 53.5173
21045 2 15.4421 56.7235 54.8001
21376 2 12.7182 58.3421 54.8283
15512 1 16.3506 58.3491 53.547
21047 2 18.1744 58.3421 54.8283
15180 1 19.0737 56.7293 53.5173
20711 2 20.8984 56.7235 54.8001
16330 1 21.8068 58.349 53.5469
16118 1 2.71484 59.9687 53.5793
21905 2 1.81377 61.5786 54.8916
16120 1 5.44721 61.5882 53.6138
21662 2 4.53788 59.9605 54.8588
15825 1 8.17109 59.9687 53.5793
21660 2 7.26998 61.5786 54.8916
15823 1 10.9035 61.5882 53.6138
21377 2 9.99417 59.9604 54.8588
15513 1 13.6273 59.9687 53.5793
21030 2 15.4504 59.9604 54.8588
21379 2 12.7263 61.5785 54.8915
15515 1 16.3597 61.5882 53.6138
21028 2 18.1825 61.5785 54.8915
16305 1 21.8159 61.5883 53.6138
15173 1 19.0835 59.9687 53.5793
20710 2 20.9066 59.9605 54.8589
16084 1 2.7229 63.2074 53.6497
21876 2 1.82014 64.8142 54.9607
16306 1 -0.00227856 64.8265 53.6864
16082 1 5.45396 64.8265 53.6864
21661 2 4.54534 63.1965 54.9257
15824 1 8.17915 63.2074 53.6498
21663 2 7.2764 64.8143 54.9607
15826 1 10.9102 64.8265 53.6864
21346 2 10.0015 63.1966 54.9257
15490 1 13.6354 63.2074 53.6497
21029 2 15.4578 63.1965 54.9257
21344 2 12.7326 64.8143 54.9607
15488 1 16.3664 64.8264 53.6864
21031 2 18.1888 64.8142 54.9607
15172 1 19.0916 63.2074 53.6497
20703 2 20.9141 63.1964 54.9257
16083 1 2.72822 66.4447 53.7226
21877 2 1.82501 68.0467 55.0301
16281 1 0.0021547 68.0619 53.758
16085 1 5.45839 68.0619 53.758
21623 2 4.5509 66.431 54.9956
15787 1 8.18446 66.4447 53.7226
21621 2 7.28124 68.0468 55.0301
15785 1 10.9146 68.0619 53.758
21345 2 10.0071 66.431 54.9956
15489 1 13.6407 66.4447 53.7226
21006 2 15.4634 66.431 54.9956
21347 2 12.7375 68.0468 55.0301
15491 1 16.3709 68.0619 53.758
21004 2 18.1937 68.0468 55.0301
15157 1 19.0969 66.4447 53.7226
20702 2 20.9196 66.431 54.9955
16048 1 2.73181 69.6779 53.7924
21622 2 4.55487 69.6615 55.0641
15786 1 8.18802 69.6779 53.7924
21306 2 10.0111 69.6615 55.064
15458 1 13.6442 69.6779 53.7924
21005 2 15.4673 69.6616 55.0641
15156 1 19.1005 69.6779 53.7924
20687 2 20.9236 69.6616 55.0641
21848 2 1.82822 71.2753 55.0973
16282 1 0.00503279 71.2925 53.8257
16047 1 2.73434 72.9057 53.8579
16046 1 5.46128 71.2925 53.8257
21583 2 4.55772 72.8879 55.1293
21624 2 7.28449 71.2753 55.0972
15742 1 8.19058 72.9056 53.8579
15788 1 10.9175 71.2924 53.8257
21305 2 10.014 72.8878 55.1293
21304 2 12.7407 71.2753 55.0972
15457 1 13.6468 72.9056 53.8579
20974 2 15.4702 72.8878 55.1292
15456 1 16.3738 71.2925 53.8257
21007 2 18.1969 71.2753 55.0972
15133 1 19.1031 72.9057 53.8579
20686 2 20.9264 72.8879 55.1293
21849 2 1.83079 74.4991 55.1601
16012 1 2.73642 76.1279 53.9183
16257 1 0.00728087 74.5175 53.8888
16049 1 5.46351 74.5175 53.8888
21582 2 4.55993 76.1093 55.1899
21581 2 7.28698 74.4991 55.1602
15741 1 8.19266 76.1279 53.9183
15740 1 10.9198 74.5175 53.8888
21259 2 10.0162 76.1093 55.19
21307 2 12.7432 74.4991 55.1601
15418 1 13.6489 76.1279 53.9183
20973 2 15.4724 76.1093 55.1899
15459 1 16.376 74.5175 53.8888
20972 2 18.1995 74.4991 55.1601
15132 1 19.1051 76.1279 53.9183
20663 2 20.9287 76.1093 55.1899
16011 1 2.73822 79.345 53.9734
21820 2 1.83273 77.7184 55.2186
16258 1 0.00923812 77.737 53.9465
16010 1 5.46548 77.737 53.9465
21544 2 4.56175 79.3266 55.246
15696 1 8.19446 79.345 53.9734
21584 2 7.28896 77.7184 55.2186
15743 1 10.9217 77.737 53.9465
21258 2 10.018 79.3266 55.246
15417 1 13.6507 79.345 53.9734
20934 2 15.4742 79.3266 55.246
21257 2 12.7452 77.7184 55.2186
15416 1 16.378 77.737 53.9465
20975 2 18.2015 77.7184 55.2185
15101 1 19.1069 79.3449 53.9734
20662 2 20.9304 79.3266 55.246
15980 1 2.7398 82.5579 54.0238
21821 2 1.83436 80.9338 55.2722
16234 1 0.0109426 80.9518 53.9992
16013 1 5.46719 80.9518 53.9992
21543 2 4.56317 82.5403 55.2974
15695 1 8.19604 82.5579 54.0238
21542 2 7.29064 80.9338 55.2722
15694 1 10.9234 80.9518 53.9992
21212 2 10.0194 82.5403 55.2974
15372 1 13.6523 82.5579 54.0238
20933 2 15.4756 82.5403 55.2974
21260 2 12.7469 80.9338 55.2723
15419 1 16.3796 80.9518 53.9992
20932 2 18.2031 80.9339 55.2723
15100 1 19.1085 82.5579 54.0238
20632 2 20.9319 82.5403 55.2974
15979 1 2.74118 85.7676 54.0698
21796 2 1.83567 84.146 55.3214
16235 1 0.0123927 84.1631 54.0473
15978 1 5.46863 84.1631 54.0473
21512 2 4.56438 85.7511 55.3443
15656 1 8.19741 85.7676 54.0698
21545 2 7.29188 84.146 55.3214
15697 1 10.9249 84.1631 54.0473
21211 2 10.0206 85.7511 55.3443
15371 1 13.6536 85.7676 54.0698
20890 2 15.4769 85.7511 55.3444
21210 2 12.7481 84.146 55.3214
15370 1 16.3811 84.1631 54.0473
20935 2 18.2044 84.146 55.3214
15065 1 19.1099 85.7676 54.0698
20631 2 20.9331 85.7511 55.3444
21797 2 1.83693 87.3556 55.3662
16218 1 0.0136567 87.3715 54.0913
15981 1 5.46989 87.3715 54.0913
21510 2 7.29317 87.3556 55.3662
15654 1 10.9261 87.3715 54.0913
21213 2 12.7494 87.3556 55.3662
15373 1 16.3824 87.3715 54.0913
20888 2 18.2056 87.3556 55.3662
15956 1 2.74236 88.9749 54.1118
21780 2 1.83801 90.5633 55.4068
16219 1 0.0147898 90.5779 54.1313
21511 2 4.56562 88.9596 55.387
15954 1 5.47103 90.5779 54.1313
15655 1 8.19859 88.9749 54.1118
21513 2 7.29425 90.5633 55.4068
21172 2 10.0219 88.9596 55.387
15657 1 10.9273 90.5779 54.1313
15327 1 13.6548 88.9749 54.1118
20889 2 15.4781 88.9596 55.387
21170 2 12.7505 90.5633 55.4068
15325 1 16.3835 90.5779 54.1313
20891 2 18.2067 90.5633 55.4068
15064 1 19.1111 88.9749 54.1118
20600 2 20.9343 88.9596 55.387
15955 1 2.74345 92.1805 54.1498
21781 2 1.83897 93.7699 55.4434
16210 1 0.0158571 93.7828 54.1674
21488 2 4.56659 92.1668 55.4256
15957 1 5.47209 93.7828 54.1674
15624 1 8.19969 92.1805 54.1498
21486 2 7.29519 93.7699 55.4434
21171 2 10.0228 92.1668 55.4256
15622 1 10.9283 93.7828 54.1674
15326 1 13.6559 92.1805 54.1498
20847 2 15.4791 92.1667 55.4256
21173 2 12.7514 93.7699 55.4434
15328 1 16.3846 93.7828 54.1674
20845 2 18.2077 93.7699 55.4434
15029 1 19.1122 92.1805 54.1498
20599 2 20.9353 92.1667 55.4256
15940 1 2.74449 95.3848 54.1839
16211 1 0.0168932 96.9866 54.1995
21772 2 1.84002 96.9754 55.4759
15938 1 5.47313 96.9867 54.1995
21487 2 4.56761 95.3727 55.4601
15623 1 8.20072 95.3848 54.1839
21489 2 7.29625 96.9754 55.4759
15625 1 10.9294 96.9867 54.1995
21140 2 10.0238 95.3727 55.4602
15289 1 13.657 95.3848 54.1839
20846 2 15.4801 95.3727 55.4602
21138 2 12.7525 96.9754 55.4759
15287 1 16.3856 96.9867 54.1995
20848 2 18.2087 96.9754 55.4759
15028 1 19.1132 95.3848 54.1839
20568 2 20.9363 95.3727 55.4601
15939 1 2.74555 98.5883 54.2141
16209 1 0.0179709 100.19 54.2277
21773 2 1.84108 100.18 55.5043
15941 1 5.47421 100.19 54.2277
21472 2 4.56866 98.5779 55.4905
15600 1 8.20179 98.5883 54.2141
21470 2 7.29734 100.18 55.5043
15598 1 10.9304 100.19 54.2277
21139 2 10.0249 98.5779 55.4906
15288 1 13.658 98.5883 54.2141
20811 2 15.4811 98.5779 55.4906
21141 2 12.7536 100.18 55.5043
15290 1 16.3867 100.19 54.2277
20809 2 18.2098 100.18 55.5043
14994 1 19.1143 98.5883 54.2141
20567 2 20.9374 98.5779 55.4906
16111 1 1.81292 51.849 58.5746
16145 1 3.61798 51.8566 56.0122
21689 2 5.44312 51.8554 57.2984
15850 1 9.07421 51.8566 56.0122
15849 1 7.26918 51.849 58.5746
21400 2 10.8994 51.8553 57.2984
15528 1 14.5304 51.8566 56.0122
15505 1 12.7254 51.849 58.5746
21041 2 16.3556 51.8553 57.2984
15176 1 18.1816 51.849 58.5746
21930 2 21.8118 51.8553 57.2984
15177 1 19.9867 51.8566 56.0122
16115 1 0.892308 53.4734 56.0289
21690 2 2.71742 53.4708 57.3143
21902 2 -0.00787021 55.0861 57.3338
16112 1 1.81759 55.0753 58.609
15817 1 4.54315 53.462 58.5899
16113 1 3.62368 55.09 56.0498
21691 2 5.44837 55.0861 57.3338
15851 1 6.34855 53.4734 56.0289
21374 2 8.17364 53.4708 57.3143
15852 1 9.07992 55.09 56.0498
15815 1 7.27383 55.0753 58.609
15510 1 11.8048 53.4733 56.029
15506 1 9.99937 53.462 58.5899
21372 2 10.9045 55.0861 57.3339
21042 2 13.6299 53.4708 57.3142
15166 1 15.4556 53.462 58.5899
15508 1 14.5362 55.09 56.0498
15507 1 12.7301 55.0753 58.609
15178 1 17.261 53.4733 56.0289
21043 2 16.3608 55.0861 57.3338
15164 1 18.1863 55.0753 58.609
20709 2 19.0862 53.4708 57.3142
14896 1 20.9119 53.462 58.5899
15179 1 19.9924 55.09 56.0498
16114 1 0.899115 56.7066 56.0742
21658 2 2.72325 56.7014 57.3568
16076 1 1.82356 58.3022 58.657
21903 2 -0.00139776 58.3169 57.3828
16116 1 3.63098 58.3232 56.1016
21656 2 5.45484 58.3169 57.3829
15816 1 4.54862 56.6886 58.6315
15821 1 6.35535 56.7066 56.0741
21373 2 8.17949 56.7014 57.3568
15819 1 9.08724 58.3232 56.1016
15818 1 7.27981 58.3022 58.657
15509 1 11.8116 56.7066 56.0742
21375 2 10.9111 58.3168 57.3828
15482 1 10.0049 56.6886 58.6315
21026 2 13.6358 56.7014 57.3569
15511 1 14.5435 58.3232 56.1016
15480 1 12.7361 58.3022 58.657
15165 1 15.4611 56.6886 58.6315
15170 1 17.2678 56.7066 56.0742
15167 1 18.1923 58.3022 58.657
21024 2 16.3673 58.3168 57.3828
20708 2 19.092 56.7014 57.3569
15168 1 19.9997 58.3232 56.1016
14895 1 20.9173 56.6886 58.6315
16080 1 0.906813 59.9397 56.1315
16077 1 1.82975 61.53 58.715
21657 2 2.73006 59.9321 57.4114
21874 2 0.00515186 61.5475 57.4421
16078 1 3.63849 61.5564 56.1635
15779 1 4.55483 59.916 58.685
21659 2 5.46137 61.5475 57.4422
15820 1 6.36306 59.9397 56.1315
15822 1 9.09472 61.5564 56.1635
15777 1 7.28599 61.5299 58.715
21342 2 8.18626 59.9322 57.4115
15486 1 11.8193 59.9397 56.1315
15481 1 10.011 59.916 58.6849
21340 2 10.9176 61.5475 57.4422
15484 1 14.551 61.5564 56.1635
15150 1 15.4673 59.916 58.6849
15483 1 12.7422 61.53 58.715
21025 2 13.6425 59.9321 57.4115
15169 1 17.2755 59.9397 56.1315
15148 1 18.1985 61.53 58.715
21027 2 16.3738 61.5475 57.4422
15171 1 20.0072 61.5564 56.1635
14894 1 20.9235 59.916 58.6849
20701 2 19.0988 59.9321 57.4114
16079 1 0.91373 63.1729 56.1971
16040 1 1.83506 64.7581 58.7798
21619 2 2.73628 63.1628 57.4744
21875 2 0.0108112 64.7781 57.5077
16081 1 3.64459 64.7894 56.2317
15778 1 4.56067 63.144 58.7468
21617 2 5.46704 64.778 57.5077
15781 1 9.10084 64.7894 56.2317
15783 1 6.36997 63.1729 56.1971
15780 1 7.29131 64.7581 58.7798
21341 2 8.19256 63.1628 57.4745
15485 1 11.8262 63.1729 56.1971
15450 1 10.0169 63.144 58.7468
21343 2 10.9233 64.7781 57.5078
15487 1 14.5571 64.7894 56.2317
15149 1 15.4731 63.144 58.7468
15448 1 12.7475 64.7581 58.7797
21002 2 13.6487 63.1628 57.4745
15154 1 17.2825 63.1729 56.1971
15151 1 18.2038 64.7581 58.7798
21000 2 16.3795 64.7781 57.5078
15152 1 20.0133 64.7894 56.2318
14887 1 20.9294 63.144 58.7468
20700 2 19.105 63.1628 57.4745
16044 1 0.918786 66.4057 56.2667
21618 2 2.74135 66.393 57.5414
21846 2 0.0153168 68.0073 57.5752
16042 1 3.64882 68.0213 56.3015
21620 2 5.47158 68.0073 57.5752
15782 1 6.37501 66.4057 56.2667
15784 1 9.10505 68.0212 56.3015
21302 2 8.19764 66.393 57.5413
15454 1 11.8312 66.4057 56.2667
21300 2 10.9279 68.0073 57.5752
15452 1 14.5613 68.0212 56.3015
21001 2 13.6539 66.393 57.5413
15153 1 17.2875 66.4057 56.2667
21003 2 16.3841 68.0072 57.5751
15155 1 20.0175 68.0213 56.3015
20685 2 19.11 66.3931 57.5414
16043 1 0.922347 69.6362 56.3356
21579 2 2.74519 69.6211 57.6088
15738 1 6.37858 69.6362 56.3357
21301 2 8.20137 69.6211 57.6088
15453 1 11.8348 69.6362 56.3357
20970 2 13.6577 69.6211 57.6088
15130 1 17.2911 69.6362 56.3356
20684 2 19.114 69.6211 57.6088
21847 2 0.0184941 71.2342 57.642
16008 1 0.925052 72.8632 56.4018
21578 2 2.74809 72.8466 57.6743
16045 1 3.65187 71.2502 56.3692
21577 2 5.47475 71.2342 57.642
15736 1 9.1081 71.2502 56.3692
15737 1 6.38128 72.8632 56.4019
21255 2 8.20431 72.8466 57.6743
21303 2 10.931 71.2343 57.642
15414 1 11.8375 72.8631 56.4019
15455 1 14.5643 71.2502 56.3692
20969 2 13.6605 72.8466 57.6744
20968 2 16.3872 71.2343 57.6421
15129 1 17.2938 72.8631 56.4019
15128 1 20.0206 71.2502 56.3692
20661 2 19.1168 72.8466 57.6744
21818 2 0.0212322 74.4581 57.7059
16007 1 0.927072 76.0862 56.464
21540 2 2.75033 76.0688 57.7364
16006 1 3.65424 74.4752 56.4335
21580 2 5.47747 74.4581 57.7058
15739 1 9.11047 74.4752 56.4335
15692 1 6.38332 76.0862 56.464
21254 2 8.2066 76.0688 57.7363
21253 2 10.9337 74.4581 57.7058
15413 1 11.8395 76.0862 56.464
15412 1 14.5667 74.4752 56.4335
20930 2 13.6629 76.0687 57.7364
20971 2 16.3899 74.4581 57.7059
15098 1 17.2958 76.0862 56.464
15131 1 20.023 74.4752 56.4335
20660 2 19.1191 76.0688 57.7364
15976 1 0.928595 79.3052 56.5213
21539 2 2.75193 79.2877 57.7943
21819 2 0.0230836 77.6787 57.7659
16009 1 3.65601 77.6961 56.4932
21538 2 5.4793 77.6787 57.7659
15690 1 9.11225 77.6961 56.4932
15691 1 6.38484 79.3052 56.5213
21208 2 8.20818 79.2877 57.7942
15368 1 11.8411 79.3052 56.5213
21256 2 10.9355 77.6787 57.7659
15415 1 14.5685 77.6962 56.4932
20929 2 13.6644 79.2877 57.7942
15097 1 17.2973 79.3052 56.5213
20928 2 16.3918 77.6787 57.7659
15096 1 20.0247 77.6962 56.4932
20630 2 19.1206 79.2877 57.7942
15975 1 0.929871 82.5208 56.5739
21508 2 2.75322 82.5036 57.8474
21794 2 0.0245102 80.896 57.8214
15974 1 3.65739 80.9133 56.5482
21541 2 5.48075 80.896 57.8214
15652 1 6.38611 82.5208 56.5739
15693 1 9.11364 80.9133 56.5482
21207 2 8.20946 82.5036 57.8474
15367 1 11.8424 82.5208 56.5739
21206 2 10.937 80.896 57.8213
15366 1 14.5699 80.9133 56.5482
20886 2 13.6657 82.5036 57.8473
15062 1 17.2986 82.5208 56.5739
20931 2 16.3932 80.896 57.8213
15099 1 20.0261 80.9133 56.5482
20629 2 19.1219 82.5036 57.8473
15952 1 0.930926 85.7335 56.6218
21507 2 2.75431 85.7173 57.8961
21795 2 0.0256271 84.1107 57.8723
15977 1 3.65855 84.1275 56.5984
21506 2 5.48187 84.1108 57.8723
15650 1 9.11479 84.1275 56.5984
15651 1 6.38716 85.7335 56.6218
21168 2 8.21053 85.7173 57.8961
15323 1 11.8434 85.7335 56.6218
21209 2 10.9381 84.1107 57.8722
15369 1 14.571 84.1275 56.5984
20885 2 13.6668 85.7173 57.8961
15061 1 17.2996 85.7335 56.6218
20884 2 16.3944 84.1107 57.8722
15060 1 20.0272 84.1275 56.5984
20598 2 19.123 85.7173 57.8961
15951 1 0.931898 88.944 56.6653
21484 2 2.75529 88.9289 57.9401
21778 2 0.0267105 87.3233 57.9187
15950 1 3.65952 87.339 56.6441
21509 2 5.48295 87.3233 57.9187
15620 1 6.38812 88.944 56.6653
15653 1 9.11576 87.339 56.6441
21167 2 8.21152 88.9289 57.9402
15322 1 11.8444 88.944 56.6653
21166 2 10.9392 87.3233 57.9187
15321 1 14.572 87.339 56.6441
20843 2 13.6678 88.9289 57.9402
15026 1 17.3006 88.944 56.6653
20887 2 16.3954 87.3233 57.9187
15063 1 20.0282 87.339 56.6441
20597 2 19.124 88.9289 57.9402
21779 2 0.0276044 90.5342 57.9605
15953 1 3.6605 90.5486 56.6854
21482 2 5.48383 90.5342 57.9605
15618 1 9.11673 90.5486 56.6854
21169 2 10.9401 90.5342 57.9606
15324 1 14.573 90.5486 56.6854
20841 2 16.3963 90.5342 57.9606
15024 1 20.0292 90.5486 56.6854
15936 1 0.932844 92.1528 56.7045
21483 2 2.75619 92.1392 57.9799
21770 2 0.0285219 93.744 57.9981
15934 1 3.66143 93.7568 56.7225
21485 2 5.48477 93.744 57.9981
15619 1 6.38908 92.1528 56.7045
21136 2 8.21242 92.1392 57.9799
15621 1 9.11767 93.7568 56.7225
15285 1 11.8453 92.1528 56.7045
21134 2 10.941 93.744 57.9981
20842 2 13.6686 92.1393 57.9799
15283 1 14.5739 93.7568 56.7225
15025 1 17.3016 92.1528 56.7045
20844 2 16.3972 93.744 57.9981
20566 2 19.1249 92.1392 57.9799
15027 1 20.0301 93.7568 56.7225
15935 1 0.933784 95.3605 56.7395
21468 2 2.7571 95.3486 58.0153
21771 2 0.0294911 96.9529 58.0313
15937 1 3.66239 96.9641 56.7554
21466 2 5.48574 96.9529 58.0313
15594 1 9.11863 96.9641 56.7554
15596 1 6.39003 95.3605 56.7395
21135 2 8.21336 95.3485 58.0152
15284 1 11.8463 95.3605 56.7395
21137 2 10.942 96.9529 58.0313
15286 1 14.5749 96.9641 56.7554
20807 2 13.6696 95.3485 58.0152
14991 1 17.3025 95.3605 56.7395
20805 2 16.3982 96.9528 58.0313
14989 1 20.0311 96.9641 56.7554
20565 2 19.1258 95.3486 58.0153
15928 1 0.934771 98.5674 56.7703
21467 2 2.75813 98.557 58.0463
21769 2 0.0305685 100.161 58.0602
15926 1 3.6634 100.171 56.7842
21469 2 5.48679 100.161 58.0603
15595 1 6.39102 98.5674 56.7703
15597 1 9.11964 100.171 56.7841
21112 2 8.21436 98.557 58.0463
15255 1 11.8473 98.5674 56.7703
21110 2 10.943 100.161 58.0603
15253 1 14.5759 100.171 56.7841
20806 2 13.6706 98.557 58.0463
14990 1 17.3035 98.5674 56.7703
20808 2 16.3993 100.161 58.0602
14992 1 20.0321 100.171 56.7841
20535 2 19.1269 98.557 58.0463
16110 1 0.0066411 51.8436 61.1366
21688 2 3.63773 51.8479 59.8599
15812 1 5.46288 51.8435 61.1366
21369 2 9.09398 51.848 59.8598
15504 1 10.9191 51.8436 61.1366
21040 2 14.5502 51.848 59.8598
15161 1 16.3754 51.8436 61.1366
20705 2 20.0064 51.8479 59.8599
21654 2 0.911513 53.4597 59.8743
15813 1 2.73673 53.4533 61.1507
16074 1 0.0106254 55.0634 61.1684
21652 2 3.64193 55.0716 59.8925
15814 1 5.46688 55.0634 61.1684
21370 2 6.36772 53.4597 59.8743
15478 1 8.19298 53.4533 61.1507
21371 2 9.09816 55.0716 59.8925
21022 2 11.824 53.4597 59.8743
15476 1 10.9231 55.0635 61.1684
15162 1 13.6492 53.4533 61.1507
21020 2 14.5544 55.0716 59.8925
20706 2 17.2803 53.4596 59.8743
15163 1 16.3793 55.0635 61.1684
14893 1 19.1054 53.4533 61.1507
20707 2 20.0106 55.0716 59.8924
21653 2 0.916412 56.6838 59.914
15775 1 2.7412 56.6739 61.1894
16075 1 0.015619 58.2846 61.2133
21655 2 3.64715 58.296 59.9383
15773 1 5.47186 58.2846 61.2133
21338 2 6.37264 56.6838 59.914
15477 1 8.19744 56.6739 61.1894
21336 2 9.10341 58.296 59.9383
21021 2 11.8289 56.6838 59.914
15479 1 10.9281 58.2846 61.2133
15146 1 13.6537 56.6739 61.1894
21023 2 14.5597 58.296 59.9383
20698 2 17.2851 56.6838 59.914
15144 1 16.3843 58.2846 61.2133
14892 1 19.1099 56.6739 61.1894
20696 2 20.0159 58.296 59.9383
21615 2 0.92189 59.9086 59.9654
15774 1 2.74634 59.8957 61.2398
16038 1 0.0207568 61.507 61.2683
21613 2 3.65271 61.5212 59.9943
15776 1 5.47702 61.507 61.2683
21337 2 6.37814 59.9087 59.9654
21339 2 9.10891 61.5212 59.9943
15446 1 8.20257 59.8957 61.2398
20998 2 11.8344 59.9087 59.9654
15444 1 10.9333 61.507 61.2683
20996 2 14.5651 61.5212 59.9944
15145 1 13.6588 59.8957 61.2398
20697 2 17.2906 59.9086 59.9655
15147 1 16.3895 61.507 61.2683
20699 2 20.0214 61.5212 59.9944
14885 1 19.1151 59.8957 61.2397
21614 2 0.927161 63.134 60.0249
15730 1 2.75128 63.1186 61.2986
16039 1 0.0254202 64.7304 61.3302
21616 2 3.65765 64.747 60.0568
15728 1 5.48166 64.7305 61.3302
21296 2 9.11396 64.7469 60.0567
21298 2 6.38343 63.1339 60.0249
15445 1 8.20753 63.1186 61.2986
20997 2 11.8397 63.134 60.0249
15447 1 10.9379 64.7304 61.3302
20999 2 14.5702 64.7469 60.0567
15122 1 13.6638 63.1186 61.2986
20682 2 17.2959 63.134 60.0249
15120 1 16.3941 64.7304 61.3302
20680 2 20.0264 64.747 60.0568
14884 1 19.12 63.1186 61.2986
16041 1 1.83915 67.986 58.8474
21575 2 0.931701 66.3599 60.0894
15729 1 2.75558 66.3424 61.3627
16002 1 0.0293711 67.9544 61.3957
15734 1 4.56534 66.3722 58.8135
21573 2 3.66185 67.9725 60.1224
15731 1 5.48561 67.9544 61.3957
15732 1 7.29537 67.986 58.8474
21297 2 6.38787 66.3599 60.0895
21299 2 9.11801 67.9726 60.1225
15406 1 8.2118 66.3425 61.3627
15449 1 10.0216 66.3722 58.8135
20966 2 11.8442 66.3599 60.0895
15404 1 10.9418 67.9545 61.3957
15126 1 15.4778 66.3722 58.8135
15451 1 12.7516 67.986 58.8474
20964 2 14.5742 67.9726 60.1225
15121 1 13.668 66.3424 61.3627
15124 1 18.2079 67.986 58.8474
20681 2 17.3005 66.3598 60.0894
15123 1 16.3981 67.9545 61.3957
14886 1 20.934 66.3722 58.8135
20683 2 20.0305 67.9725 60.1224
14869 1 19.1243 66.3424 61.3627
21574 2 0.935441 69.5849 60.1556
15684 1 2.75921 69.5664 61.4289
15733 1 4.56897 69.5995 58.8811
21251 2 6.39171 69.5849 60.1556
15405 1 8.21546 69.5663 61.4289
15410 1 10.0252 69.5995 58.8812
20965 2 11.8479 69.5849 60.1557
15125 1 15.4814 69.5995 58.8812
15090 1 13.6717 69.5663 61.4289
20658 2 17.3041 69.585 60.1557
14871 1 20.9377 69.5995 58.8811
14868 1 19.1279 69.5664 61.4289
16004 1 1.84236 71.2125 58.9145
16003 1 0.0326424 71.178 61.4619
21536 2 0.938418 72.8089 60.2209
15683 1 2.76212 72.7895 61.4946
15688 1 4.57181 72.8248 58.9473
21576 2 3.66507 71.1972 60.1885
15682 1 5.48887 71.178 61.4619
15735 1 7.2986 71.2125 58.9145
21249 2 9.12134 71.1971 60.1885
21250 2 6.39468 72.8089 60.2209
15360 1 8.21837 72.7895 61.4946
15409 1 10.0281 72.8248 58.9473
15407 1 10.9451 71.178 61.4619
20926 2 11.8509 72.8089 60.2209
15408 1 12.7548 71.2125 58.9145
15094 1 15.4843 72.8248 58.9473
20967 2 14.5776 71.1972 60.1885
15089 1 13.6746 72.7895 61.4946
15127 1 18.2111 71.2125 58.9145
15088 1 16.4014 71.178 61.4619
20657 2 17.3071 72.8089 60.2209
14870 1 20.9405 72.8248 58.9473
20656 2 20.0338 71.1972 60.1885
14846 1 19.1308 72.7895 61.4946
16005 1 1.84481 74.4365 58.9793
15970 1 0.0351708 74.4006 61.5268
21535 2 0.940757 76.0308 60.2836
15644 1 2.76423 76.0115 61.5582
15687 1 4.57385 76.0476 59.0104
21534 2 3.6678 74.4201 60.2526
15685 1 5.49142 74.4006 61.5268
15686 1 7.30106 74.4365 58.9793
21252 2 9.12408 74.4201 60.2526
21204 2 6.39698 76.0308 60.2837
15359 1 8.22047 76.0115 61.5582
15364 1 10.0301 76.0476 59.0104
15358 1 10.9477 74.4006 61.5268
20925 2 11.8532 76.0307 60.2836
15411 1 12.7573 74.4365 58.9793
15093 1 15.4863 76.0476 59.0104
20924 2 14.5803 74.4201 60.2526
15054 1 13.6767 76.0115 61.5582
15092 1 18.2135 74.4365 58.9793
15091 1 16.4039 74.4006 61.5267
20627 2 17.3095 76.0307 60.2836
14848 1 20.9426 76.0476 59.0104
20659 2 20.0365 74.4201 60.2526
14845 1 19.133 76.0114 61.5582
15972 1 1.84654 77.658 59.0404
21504 2 0.942232 79.2506 60.3427
15643 1 2.76565 79.2318 61.6181
15971 1 0.0368983 77.6219 61.5886
15648 1 4.57531 79.2676 59.0693
21537 2 3.66964 77.641 60.3137
15642 1 5.49314 77.6219 61.5886
15689 1 7.30278 77.658 59.0404
21202 2 9.1259 77.641 60.3137
21203 2 6.39844 79.2506 60.3427
15315 1 8.22189 79.2319 61.6181
15363 1 10.0315 79.2676 59.0693
20882 2 11.8547 79.2506 60.3428
15361 1 10.9494 77.6219 61.5886
15058 1 15.4878 79.2676 59.0693
15362 1 12.759 77.658 59.0404
20927 2 14.5821 77.641 60.3137
15053 1 13.6781 79.2319 61.6181
15095 1 18.2152 77.658 59.0404
20626 2 17.3109 79.2506 60.3427
15052 1 16.4056 77.6219 61.5886
14847 1 20.944 79.2676 59.0693
20625 2 20.0384 77.641 60.3137
14822 1 19.1344 79.2319 61.6181
15973 1 1.84774 80.8766 59.0971
21503 2 0.943426 82.4683 60.3973
15946 1 0.0380597 80.8414 61.6465
15647 1 4.57636 82.4851 59.1237
21502 2 3.671 80.8597 60.3706
15645 1 5.49431 80.8414 61.6465
15646 1 7.30399 80.8767 59.0971
21164 2 6.39966 82.4683 60.3973
21205 2 9.12722 80.8597 60.3706
15319 1 10.0326 82.4851 59.1237
20881 2 11.8559 82.4683 60.3973
15313 1 10.9505 80.8414 61.6465
15057 1 15.4888 82.4851 59.1237
15365 1 12.7602 80.8767 59.0971
20880 2 14.5834 80.8597 60.3706
15056 1 18.2165 80.8767 59.0971
20595 2 17.3122 82.4683 60.3973
15055 1 16.4068 80.8414 61.6465
14824 1 20.9451 82.4851 59.1237
20628 2 20.0397 80.8597 60.3706
15948 1 1.84866 84.093 59.1491
21480 2 0.94443 85.6842 60.4474
15616 1 4.5772 85.7003 59.1733
21505 2 3.6721 84.0765 60.4229
15649 1 7.3049 84.093 59.1491
21162 2 9.12831 84.0765 60.4229
21163 2 6.40069 85.6842 60.4474
15318 1 10.0334 85.7003 59.1733
20839 2 11.8569 85.6842 60.4474
15317 1 12.7611 84.093 59.1491
15022 1 15.4897 85.7003 59.1733
20883 2 14.5845 84.0765 60.4229
15059 1 18.2174 84.093 59.1491
20594 2 17.3132 85.6842 60.4474
14823 1 20.9459 85.7003 59.1733
20593 2 20.0408 84.0765 60.4229
15949 1 1.84951 87.3071 59.1963
21479 2 0.945267 88.8987 60.4927
15615 1 4.57805 88.9135 59.2181
21478 2 3.673 87.2916 60.4706
15614 1 7.30573 87.3071 59.1963
21132 2 6.40152 88.8987 60.4927
21165 2 9.12924 87.2916 60.4706
15281 1 10.0343 88.9135 59.2181
20838 2 11.8577 88.8986 60.4927
15021 1 15.4905 88.9135 59.2181
15320 1 12.762 87.3071 59.1963
20837 2 14.5855 87.2916 60.4706
15020 1 18.2182 87.3071 59.1963
20563 2 17.314 88.8987 60.4927
14800 1 20.9468 88.9135 59.2181
20596 2 20.0417 87.2916 60.4706
15932 1 1.85036 90.5197 59.2388
21481 2 3.6738 90.5055 60.5136
15617 1 7.3066 90.5196 59.2388
21130 2 9.13004 90.5054 60.5136
15279 1 12.7628 90.5197 59.2388
20840 2 14.5863 90.5054 60.5136
15023 1 18.2191 90.5197 59.2388
20561 2 20.0425 90.5054 60.5136
21464 2 0.946172 92.112 60.5334
15933 1 1.85121 93.7311 59.2768
15592 1 4.5789 92.1255 59.2584
21462 2 3.67476 93.7184 60.552
21131 2 6.40241 92.112 60.5334
15590 1 7.30746 93.7311 59.2768
21133 2 9.13099 93.7184 60.552
15280 1 10.0351 92.1255 59.2584
20803 2 11.8586 92.112 60.5334
14987 1 15.4914 92.1255 59.2584
15282 1 12.7637 93.7311 59.2768
20801 2 14.5872 93.7184 60.552
20562 2 17.3149 92.112 60.5334
14985 1 18.2199 93.7311 59.2768
14799 1 20.9476 92.1255 59.2584
20564 2 20.0435 93.7184 60.552
15924 1 1.85216 96.9416 59.3105
21463 2 0.947106 95.3245 60.5695
15591 1 4.5798 95.3364 59.2942
21465 2 3.67571 96.9305 60.5858
15593 1 7.30839 96.9416 59.3104
21106 2 9.13197 96.9305 60.5859
21108 2 6.40334 95.3245 60.5695
15251 1 10.036 95.3364 59.2942
20802 2 11.8596 95.3245 60.5695
14986 1 15.4923 95.3364 59.2942
15249 1 12.7646 96.9416 59.3104
20804 2 14.5882 96.9305 60.5859
14988 1 18.2209 96.9416 59.3105
20532 2 17.3158 95.3245 60.5695
14776 1 20.9485 95.3364 59.2942
20530 2 20.0444 96.9305 60.5858
15925 1 1.85314 100.152 59.3397
21456 2 0.948129 98.5363 60.6011
15576 1 4.58076 98.5466 59.3256
21454 2 3.67677 100.142 60.6153
15574 1 7.30938 100.152 59.3397
21107 2 6.40435 98.5363 60.6011
21109 2 9.13301 100.142 60.6153
15250 1 10.037 98.5466 59.3256
20775 2 11.8606 98.5363 60.6011
14959 1 15.4932 98.5466 59.3256
15252 1 12.7656 100.152 59.3397
20773 2 14.5892 100.142 60.6153
14957 1 18.2218 100.152 59.3397
20531 2 17.3168 98.5363 60.6011
14775 1 20.9495 98.5466 59.3256
20533 2 20.0455 100.142 60.6153
21650 2 1.83123 51.8424 62.4211
15811 1 3.65593 51.8393 63.6984
21368 2 7.28746 51.8424 62.4211
15473 1 9.11219 51.8393 63.6984
21017 2 12.7437 51.8423 62.4211
15160 1 14.5684 51.8393 63.6984
20704 2 18.1999 51.8423 62.4211
14889 1 20.0246 51.8393 63.6984
15771 1 0.929256 53.4461 63.7115
21651 2 1.83469 55.0597 62.4514
21334 2 4.56095 53.4508 62.4344
15769 1 3.65923 55.0533 63.7282
15474 1 6.38548 53.4461 63.7116
21332 2 7.29094 55.0596 62.4514
15475 1 9.11548 55.0532 63.7281
21018 2 10.0172 53.4508 62.4344
15142 1 11.8417 53.4461 63.7116
20694 2 15.4734 53.4508 62.4344
21019 2 12.7472 55.0597 62.4514
15140 1 14.5717 55.0533 63.7281
14890 1 17.298 53.4461 63.7116
20692 2 18.2034 55.0597 62.4514
20456 2 20.9297 53.4508 62.4343
14891 1 20.0279 55.0533 63.7281
15770 1 0.933072 56.6609 63.748
21611 2 1.83918 58.2781 62.4945
21333 2 4.56498 56.6688 62.4715
15772 1 3.66333 58.2688 63.7706
15442 1 6.38929 56.6609 63.748
21335 2 7.29535 58.2782 62.4946
15440 1 9.11957 58.2688 63.7706
20994 2 10.0213 56.6687 62.4715
15141 1 11.8455 56.6609 63.748
20693 2 15.4774 56.6687 62.4715
20992 2 12.7516 58.2781 62.4945
15143 1 14.5758 58.2688 63.7706
14882 1 17.3018 56.6609 63.748
20695 2 18.2079 58.2781 62.4945
20455 2 20.9336 56.6688 62.4715
14880 1 20.0321 58.2688 63.7706
21612 2 1.84376 61.4981 62.5476
15726 1 0.937415 59.8772 63.7958
21294 2 4.56954 59.8878 62.5199
15724 1 3.66768 61.4861 63.8231
21292 2 7.30007 61.498 62.5476
15441 1 6.39365 59.8772 63.7958
15443 1 9.12391 61.4861 63.8231
20993 2 10.0258 59.8879 62.5199
15118 1 11.8499 59.8773 63.7958
20678 2 15.482 59.8879 62.5199
20995 2 12.7563 61.498 62.5476
15116 1 14.5802 61.4861 63.8231
20676 2 18.2124 61.4981 62.5477
14881 1 17.3061 59.8773 63.7958
20454 2 20.9383 59.8879 62.5199
14883 1 20.0364 61.4861 63.8231
21571 2 1.84814 64.719 62.6076
15725 1 0.941733 63.0953 63.8522
21293 2 4.5741 63.1084 62.5768
15727 1 3.67185 64.7049 63.8827
21295 2 7.30434 64.7191 62.6076
15400 1 9.12809 64.7049 63.8827
15402 1 6.39797 63.0953 63.8522
20962 2 10.0304 63.1083 62.5767
15117 1 11.8542 63.0953 63.8522
20677 2 15.4867 63.1083 62.5767
20960 2 12.7606 64.719 62.6076
15119 1 14.5843 64.7049 63.8827
20679 2 18.2169 64.719 62.6076
14866 1 17.3105 63.0953 63.8522
20447 2 20.9429 63.1084 62.5768
14864 1 20.0406 64.7049 63.8827
21572 2 1.85211 67.9407 62.6715
15680 1 0.945727 66.3148 63.9142
21247 2 4.57829 66.3299 62.6393
15678 1 3.67567 67.9249 63.9464
21245 2 7.30837 67.9406 62.6715
15401 1 6.40197 66.3148 63.9142
15403 1 9.13192 67.9249 63.9464
20961 2 10.0345 66.3299 62.6394
15086 1 11.8582 66.3148 63.9142
20654 2 15.4907 66.33 62.6394
20963 2 12.7646 67.9407 62.6716
15084 1 14.5881 67.925 63.9464
20652 2 18.2208 67.9407 62.6716
14865 1 17.3144 66.3148 63.9142
20446 2 20.947 66.3299 62.6393
14867 1 20.0444 67.9249 63.9464
21532 2 1.85541 71.1628 62.7366
15679 1 0.949264 69.5353 63.979
21246 2 4.582 69.5517 62.704
15681 1 3.67892 71.1457 64.0117
21248 2 7.31167 71.1627 62.7366
15354 1 9.13517 71.1457 64.0117
15356 1 6.40551 69.5353 63.979
20922 2 10.0382 69.5516 62.704
15085 1 11.8618 69.5352 63.979
20653 2 15.4945 69.5517 62.704
20920 2 12.7679 71.1627 62.7366
15087 1 14.5914 71.1457 64.0117
20655 2 18.2241 71.1628 62.7367
14843 1 17.318 69.5353 63.979
20431 2 20.9507 69.5517 62.7041
14841 1 20.0477 71.1457 64.0117
15640 1 0.952187 72.7561 64.0441
21200 2 4.58488 72.7737 62.769
15355 1 6.40842 72.7561 64.0442
20921 2 10.0412 72.7737 62.769
15050 1 11.8647 72.7561 64.0441
20623 2 15.4974 72.7737 62.769
14842 1 17.3209 72.7561 64.0441
20430 2 20.9536 72.7737 62.769
21533 2 1.85803 74.3843 62.8008
15639 1 0.954359 75.9769 64.1077
15638 1 3.68151 74.3665 64.0762
21199 2 4.58718 75.9946 62.8319
21198 2 7.31422 74.3843 62.8008
15357 1 9.13774 74.3665 64.0762
15311 1 6.4106 75.9769 64.1077
20878 2 10.0434 75.9946 62.8319
15049 1 11.8668 75.9769 64.1077
20923 2 12.7705 74.3843 62.8008
15048 1 14.594 74.3665 64.0762
20622 2 15.4996 75.9946 62.8319
20621 2 18.2268 74.3843 62.8007
14819 1 17.3231 75.9769 64.1077
14844 1 20.0502 74.3665 64.0762
20411 2 20.9559 75.9946 62.8319
21500 2 1.85995 77.6048 62.8623
15608 1 0.955768 79.1973 64.1682
21160 2 4.58881 79.2148 62.8918
15641 1 3.68325 77.5872 64.1384
21201 2 7.31617 77.6048 62.8623
15309 1 9.13949 77.5872 64.1384
15310 1 6.412 79.1973 64.1682
20877 2 10.045 79.2148 62.8918
15014 1 11.8682 79.1973 64.1682
20591 2 15.5012 79.2149 62.8918
20876 2 12.7724 77.6048 62.8623
15051 1 14.5957 77.5872 64.1384
20624 2 18.2287 77.6048 62.8623
14818 1 17.3245 79.1973 64.1682
20410 2 20.9575 79.2148 62.8918
14817 1 20.052 77.5872 64.1384
15612 1 2.76663 82.4506 61.6738
21501 2 1.86124 80.8246 62.9202
15607 1 0.9568 82.4169 64.2246
21159 2 4.58993 82.434 62.9475
15606 1 3.68444 80.8072 64.197
15314 1 8.22287 82.4506 61.6738
21158 2 7.31749 80.8246 62.9201
15273 1 6.41304 82.4169 64.2246
15312 1 9.14068 80.8072 64.197
20835 2 10.0462 82.4339 62.9474
15013 1 11.8693 82.4169 64.2246
15018 1 13.6791 82.4506 61.6738
20590 2 15.5024 82.4339 62.9475
20879 2 12.7738 80.8246 62.9201
15012 1 14.5969 80.8072 64.197
20589 2 18.23 80.8246 62.9202
14795 1 17.3255 82.4169 64.2246
14821 1 19.1353 82.4506 61.6738
20391 2 20.9587 82.434 62.9475
14820 1 20.0531 80.8072 64.197
15611 1 2.76741 85.6678 61.7247
15947 1 0.0388909 84.0594 61.6998
21476 2 1.8623 84.043 62.9736
15584 1 0.957682 85.6359 64.2764
15610 1 5.49513 84.0594 61.6998
21128 2 4.59089 85.6519 62.9986
15609 1 3.68535 84.0265 64.2511
15277 1 8.22364 85.6678 61.7246
21161 2 7.31858 84.043 62.9736
15271 1 9.14159 84.0265 64.2511
15272 1 6.41391 85.6359 64.2764
15316 1 10.9514 84.0594 61.6998
20834 2 10.0471 85.6519 62.9986
14979 1 11.8701 85.6359 64.2764
15017 1 13.6799 85.6678 61.7246
20559 2 15.5034 85.6518 62.9985
20833 2 12.7748 84.043 62.9736
15015 1 14.5978 84.0265 64.2511
15016 1 16.4076 84.0594 61.6998
20592 2 18.231 84.043 62.9736
14794 1 17.3264 85.6359 64.2764
14798 1 19.1361 85.6678 61.7246
20390 2 20.9596 85.6518 62.9985
14793 1 20.0541 84.0265 64.2511
15588 1 2.76823 88.8836 61.7706
15930 1 0.0396971 87.2759 61.7482
21477 2 1.86326 87.2604 63.0222
15583 1 0.958555 88.8542 64.3232
15613 1 5.49593 87.2759 61.7482
21127 2 4.59181 88.8688 63.0448
15582 1 3.68624 87.2452 64.3004
15276 1 8.22446 88.8836 61.7706
21126 2 7.31948 87.2604 63.0222
15243 1 6.41479 88.8542 64.3232
15274 1 9.14247 87.2452 64.3004
15275 1 10.9522 87.2759 61.7482
20799 2 10.048 88.8688 63.0448
14978 1 11.871 88.8542 64.3232
14983 1 13.6807 88.8836 61.7706
20558 2 15.5043 88.8688 63.0447
20836 2 12.7757 87.2605 63.0223
14977 1 14.5987 87.2452 64.3004
15019 1 16.4084 87.2759 61.7482
20557 2 18.2319 87.2604 63.0222
14771 1 17.3273 88.8542 64.3232
14797 1 19.137 88.8836 61.7706
20371 2 20.9605 88.8688 63.0447
14796 1 20.0549 87.2452 64.3004
15931 1 0.0405255 90.4912 61.7918
21460 2 1.86415 90.477 63.0661
15586 1 5.49676 90.4912 61.7918
15585 1 3.68713 90.4631 64.3448
21129 2 7.32038 90.477 63.0661
15241 1 9.14337 90.4631 64.3448
15278 1 10.953 90.4912 61.7918
20797 2 12.7766 90.477 63.0661
14980 1 14.5996 90.4631 64.3448
14981 1 16.4092 90.4912 61.7918
20560 2 18.2329 90.477 63.0661
14769 1 20.0558 90.4631 64.3448
15587 1 2.76906 92.0985 61.8118
15922 1 0.0413867 93.7056 61.8306
15568 1 0.95948 92.0718 64.3651
21461 2 1.86511 93.6929 63.1052
15589 1 5.49763 93.7056 61.8306
21104 2 4.59274 92.0851 63.0863
15566 1 3.6881 93.6804 64.3842
15247 1 8.2253 92.0985 61.8118
15242 1 6.41572 92.0718 64.3651
21102 2 7.32134 93.6929 63.1052
15244 1 9.14434 93.6804 64.3842
15245 1 10.9539 93.7056 61.8306
20798 2 10.049 92.0851 63.0863
14951 1 11.872 92.0718 64.3651
14982 1 13.6815 92.0985 61.8118
20528 2 15.5052 92.0851 63.0863
20800 2 12.7776 93.6929 63.1052
14949 1 14.6006 93.6804 64.3842
14984 1 16.4101 93.7056 61.8306
14770 1 17.3282 92.0718 64.3651
20526 2 18.2338 93.6929 63.1052
14774 1 19.1378 92.0985 61.8118
20370 2 20.9614 92.0851 63.0863
14772 1 20.0568 93.6804 64.3842
15572 1 2.76999 95.3125 61.8483
15923 1 0.0423543 96.9193 61.8648
21452 2 1.86613 96.9082 63.1396
15567 1 0.960495 95.2889 64.4021
15570 1 5.49859 96.9193 61.8648
21103 2 4.59372 95.3006 63.123
15569 1 3.68914 96.8972 64.4188
15246 1 8.22623 95.3126 61.8483
21105 2 7.32238 96.9082 63.1396
15219 1 9.14538 96.8972 64.4188
15221 1 6.41674 95.2889 64.4021
15248 1 10.9548 96.9193 61.8648
20771 2 10.0499 95.3006 63.1229
14950 1 11.873 95.2889 64.4021
14955 1 13.6825 95.3125 61.8483
20527 2 15.5062 95.3007 63.123
20769 2 12.7786 96.9082 63.1395
14952 1 14.6016 96.8972 64.4188
14953 1 16.4111 96.9193 61.8648
20529 2 18.2348 96.9082 63.1395
14748 1 17.3292 95.2889 64.4021
14773 1 19.1387 95.3125 61.8483
20351 2 20.9624 95.3006 63.123
14746 1 20.0579 96.8972 64.4188
15571 1 2.77097 98.526 61.8802
15921 1 0.0433511 100.133 61.8945
21453 2 1.8672 100.123 63.1694
15560 1 0.961558 98.5054 64.4343
15573 1 5.4996 100.133 61.8944
21088 2 4.59481 98.5157 63.155
15558 1 3.69022 100.114 64.4488
15225 1 8.2272 98.526 61.8802
21086 2 7.32344 100.123 63.1694
15220 1 6.41779 98.5054 64.4343
15222 1 9.14646 100.114 64.4488
15223 1 10.9558 100.133 61.8944
20770 2 10.051 98.5157 63.155
14931 1 11.874 98.5054 64.4343
14954 1 13.6834 98.526 61.8802
20504 2 15.5073 98.5157 63.155
20772 2 12.7797 100.123 63.1694
14929 1 14.6027 100.114 64.4488
14956 1 16.4121 100.133 61.8945
20502 2 18.2359 100.123 63.1694
14747 1 17.3303 98.5054 64.4343
14751 1 19.1397 98.526 61.8802
20350 2 20.9635 98.5157 63.155
14749 1 20.0589 100.114 64.4488
21649 2 0.023696 51.8376 64.9813
15767 1 1.84786 51.8356 66.2612
21329 2 5.47989 51.8376 64.9812
15472 1 7.3041 51.8356 66.2612
21016 2 10.9361 51.8377 64.9812
15137 1 12.7603 51.8356 66.2612
20689 2 16.3924 51.8377 64.9813
14888 1 18.2166 51.8356 66.2612
21330 2 2.75322 53.443 64.9939
21609 2 0.0267034 55.0486 65.0098
15768 1 1.85063 55.0437 66.2893
15438 1 4.57721 53.4394 66.2736
21331 2 5.48295 55.0486 65.0097
20990 2 8.20948 53.443 64.9939
15436 1 7.30685 55.0437 66.2893
15138 1 10.0334 53.4394 66.2736
20988 2 10.9392 55.0486 65.0097
20690 2 13.6657 53.443 64.9939
14878 1 15.4897 53.4394 66.2736
15139 1 12.7631 55.0437 66.2893
20691 2 16.3954 55.0486 65.0097
14876 1 18.2193 55.0437 66.2893
20453 2 19.1219 53.443 64.9939
14704 1 20.9459 53.4394 66.2736
21290 2 2.75653 56.6548 65.029
21610 2 0.0303307 58.2612 65.0508
15722 1 1.85414 58.2537 66.3297
21288 2 5.48659 58.2612 65.0508
15437 1 4.58037 56.6485 66.3081
20989 2 8.21276 56.6548 65.029
15439 1 7.31036 58.2537 66.3297
20991 2 10.9428 58.2612 65.0508
15114 1 10.0366 56.6485 66.3081
20674 2 13.669 56.6548 65.029
14877 1 15.4929 56.6485 66.3082
15112 1 12.7666 58.2538 66.3297
20672 2 16.3991 58.2612 65.0508
14879 1 18.2229 58.2538 66.3297
20452 2 19.1253 56.6548 65.029
14703 1 20.9491 56.6485 66.3082
21289 2 2.76053 59.8683 65.0751
21569 2 0.0343995 61.4759 65.1016
15723 1 1.85792 61.4659 66.3801
21291 2 5.49063 61.476 65.1016
15398 1 4.58407 59.8595 66.3539
20958 2 8.21678 59.8683 65.0751
15396 1 7.31417 61.4659 66.3801
20956 2 10.9469 61.4759 65.1016
15113 1 10.0403 59.8595 66.3539
20673 2 13.673 59.8683 65.0752
14862 1 15.4965 59.8595 66.3539
15115 1 12.7704 61.4659 66.3801
20675 2 16.4032 61.4759 65.1016
14860 1 18.2266 61.4659 66.3801
20445 2 19.1292 59.8683 65.0752
14702 1 20.9528 59.8595 66.3539
21243 2 2.76458 63.0839 65.1299
21570 2 0.0385286 64.6922 65.1596
15676 1 1.86181 64.6801 66.4377
21241 2 5.49478 64.6922 65.1596
15397 1 4.58797 63.0727 66.4082
20957 2 8.22085 63.0838 65.1299
15399 1 7.31804 64.6802 66.4377
20959 2 10.951 64.6922 65.1596
15082 1 10.0442 63.0727 66.4082
20650 2 13.6771 63.0838 65.1299
14861 1 15.5004 63.0727 66.4082
15080 1 12.7743 64.6802 66.4377
20648 2 16.4072 64.6922 65.1595
14863 1 18.2305 64.6801 66.4377
20444 2 19.1333 63.0839 65.1299
14695 1 20.9567 63.0727 66.4082
21242 2 2.76861 66.3009 65.1903
21530 2 0.042389 67.9101 65.2219
15677 1 1.86543 67.8964 66.4999
21244 2 5.49865 67.9101 65.2218
15352 1 4.59177 66.288 66.4684
20918 2 8.22483 66.3009 65.1904
15350 1 7.32167 67.8964 66.4999
20916 2 10.9549 67.9101 65.2218
15081 1 10.048 66.288 66.4684
20649 2 13.6811 66.3009 65.1904
14839 1 15.5042 66.2881 66.4684
15083 1 12.7779 67.8964 66.4999
20651 2 16.4111 67.9101 65.2218
14837 1 18.2342 67.8964 66.4999
20429 2 19.1373 66.301 65.1904
14694 1 20.9605 66.2881 66.4684
21196 2 2.77217 69.5196 65.2538
21531 2 0.0455304 71.1294 65.286
15636 1 1.86859 71.1143 66.5643
21194 2 5.50174 71.1295 65.2861
15351 1 4.59519 69.5052 66.532
20917 2 8.22844 69.5195 65.2537
15353 1 7.32481 71.1143 66.5643
20919 2 10.958 71.1294 65.286
15046 1 10.0514 69.5052 66.532
20619 2 13.6847 69.5195 65.2537
14838 1 15.5077 69.5051 66.532
15044 1 12.7811 71.1143 66.5643
20617 2 16.4143 71.1293 65.286
14840 1 18.2373 71.1143 66.5643
20428 2 19.1409 69.5195 65.2538
14683 1 20.9639 69.5052 66.532
21195 2 2.77502 72.7393 65.318
15307 1 4.59808 72.7237 66.5965
20874 2 8.23119 72.7394 65.3181
15045 1 10.0543 72.7238 66.5965
20618 2 13.6874 72.7394 65.3182
14815 1 15.5105 72.7238 66.5965
20409 2 19.1437 72.7393 65.3181
14682 1 20.9668 72.7238 66.5965
21498 2 0.0480626 74.3493 65.3499
15637 1 1.87111 74.3334 66.6285
21156 2 2.77721 75.9593 65.3811
21197 2 5.50435 74.3493 65.3498
15306 1 4.60023 75.9433 66.6599
15305 1 7.32735 74.3334 66.6285
20873 2 8.23342 75.9593 65.3811
20872 2 10.9606 74.3493 65.3499
15010 1 10.0565 75.9433 66.6599
15047 1 12.7836 74.3334 66.6285
20587 2 13.6897 75.9593 65.3811
14814 1 15.5127 75.9433 66.6599
20620 2 16.4168 74.3493 65.3499
14813 1 18.2398 74.3334 66.6285
20408 2 19.1459 75.9593 65.3811
14671 1 20.9689 75.9433 66.6599
21155 2 2.77888 79.1797 65.4414
21499 2 0.049975 77.5694 65.4118
15604 1 1.87294 77.5533 66.6906
21154 2 5.50625 77.5694 65.4117
15269 1 4.60178 79.1634 66.7206
20831 2 8.23518 79.1797 65.4414
15308 1 7.32918 77.5533 66.6906
20875 2 10.9625 77.5694 65.4117
15009 1 10.058 79.1634 66.7206
20586 2 13.6914 79.1796 65.4414
14791 1 15.5142 79.1634 66.7205
15008 1 12.7854 77.5533 66.6906
20585 2 16.4187 77.5695 65.4118
14816 1 18.2417 77.5533 66.6906
20389 2 19.1476 79.1796 65.4414
14670 1 20.9705 79.1634 66.7205
21124 2 2.78023 82.3999 65.4976
21474 2 0.0515243 80.7898 65.47
15605 1 1.87429 80.7737 66.7495
21157 2 5.5077 80.7898 65.47
15268 1 4.60297 82.3839 66.7773
20830 2 8.23648 82.3999 65.4976
15267 1 7.33052 80.7737 66.7495
20829 2 10.9639 80.7898 65.47
14975 1 10.0592 82.384 66.7773
20555 2 13.6927 82.3999 65.4976
14790 1 15.5154 82.384 66.7773
15011 1 12.7867 80.7737 66.7495
20588 2 16.4202 80.7898 65.47
14789 1 18.243 80.7737 66.7495
20388 2 19.1489 82.3999 65.4976
14659 1 20.9717 82.384 66.7773
21123 2 2.78126 85.6198 65.5494
21475 2 0.052653 84.0099 65.5241
15580 1 1.87537 83.9943 66.8041
21122 2 5.5089 84.0099 65.5241
15239 1 4.60402 85.6046 66.8296
20795 2 8.23749 85.6198 65.5494
15270 1 7.33161 83.9943 66.8041
20832 2 10.9651 84.0099 65.5241
14974 1 10.0603 85.6046 66.8296
20554 2 13.6937 85.6198 65.5494
14767 1 15.5165 85.6046 66.8296
14973 1 12.7879 83.9943 66.8041
20553 2 16.4213 84.0099 65.5241
14792 1 18.2441 83.9943 66.8041
20369 2 19.15 85.6198 65.5494
14658 1 20.9727 85.6046 66.8296
21100 2 2.78231 88.8393 65.5963
21458 2 0.0536253 87.2296 65.5735
15581 1 1.87644 87.215 66.8539
21125 2 5.50986 87.2296 65.5735
15238 1 4.6051 88.8252 66.8769
20794 2 8.23852 88.8393 65.5963
15237 1 7.33267 87.215 66.8539
20793 2 10.9661 87.2296 65.5734
14947 1 10.0613 88.8252 66.877
20524 2 13.6948 88.8393 65.5963
14766 1 15.5176 88.8252 66.877
14976 1 12.7889 87.215 66.8539
20556 2 16.4224 87.2296 65.5735
14765 1 18.2452 87.215 66.8539
20368 2 19.151 88.8393 65.5963
14647 1 20.9738 88.8252 66.877
21459 2 0.0547203 90.4489 65.6179
15564 1 1.87753 90.4354 66.8987
21098 2 5.51096 90.4489 65.6179
15240 1 7.33377 90.4354 66.8987
20796 2 10.9672 90.4489 65.6179
14945 1 12.79 90.4354 66.8987
20522 2 16.4234 90.4489 65.6179
14768 1 18.2462 90.4354 66.8987
21099 2 2.78337 92.0583 65.6383
21450 2 0.0557578 93.6677 65.6575
15565 1 1.87868 93.6556 66.9386
15217 1 4.60622 92.0456 66.9193
21101 2 5.51202 93.6677 65.6575
20767 2 8.23961 92.0583 65.6383
15215 1 7.33492 93.6556 66.9386
14946 1 10.0625 92.0456 66.9193
20765 2 10.9683 93.6677 65.6575
20523 2 13.6958 92.0583 65.6383
14744 1 15.5187 92.0456 66.9193
14948 1 12.7912 93.6556 66.9386
20525 2 16.4245 93.6677 65.6575
14742 1 18.2474 93.6556 66.9386
20349 2 19.1521 92.0583 65.6383
14646 1 20.9749 92.0456 66.9193
21084 2 2.78444 95.2769 65.6755
21451 2 0.0569306 96.8861 65.6922
15556 1 1.87987 96.8754 66.9734
15216 1 4.60739 95.2656 66.9566
21082 2 5.51316 96.8861 65.6922
20766 2 8.24069 95.2769 65.6754
15218 1 7.3361 96.8754 66.9734
14927 1 10.0636 95.2656 66.9566
20768 2 10.9694 96.8861 65.6922
14743 1 15.5199 95.2656 66.9566
20500 2 13.697 95.2769 65.6754
14925 1 12.7923 96.8754 66.9734
20498 2 16.4257 96.886 65.6922
14745 1 18.2486 96.8754 66.9734
14635 1 20.9761 95.2656 66.9566
20348 2 19.1532 95.2769 65.6755
21083 2 2.78564 98.4951 65.7079
21449 2 0.0580714 100.104 65.7223
15557 1 1.88108 100.095 67.0036
21085 2 5.5143 100.104 65.7224
15203 1 4.60859 98.4852 66.9891
20747 2 8.24186 98.4952 65.7079
15201 1 7.33732 100.095 67.0036
20745 2 10.9705 100.104 65.7224
14926 1 10.0648 98.4852 66.9891
20499 2 13.6981 98.4952 65.7078
14728 1 15.5211 98.4852 66.9891
14928 1 12.7936 100.095 67.0036
20501 2 16.4268 100.104 65.7223
14726 1 18.2498 100.095 67.0037
20330 2 19.1544 98.4951 65.7078
14634 1 20.9773 98.4852 66.9891
15766 1 0.0382622 51.8321 68.8287
21282 2 1.8617 51.8259 70.0939
15433 1 5.49451 51.8321 68.8287
21328 2 3.67141 51.8327 67.5399
20985 2 9.1277 51.8327 67.5399
20984 2 7.31794 51.8259 70.0939
15136 1 10.9507 51.8321 68.8287
20688 2 14.584 51.8326 67.5398
20665 2 12.7742 51.8259 70.0939
14873 1 16.407 51.8321 68.8287
20448 2 18.2304 51.8259 70.0939
20449 2 20.0402 51.8327 67.5399
21286 2 0.944427 53.4347 67.5517
15434 1 2.7675 53.4329 68.8405
15720 1 0.0405925 55.0343 68.8555
21283 2 1.86409 55.0237 70.1201
20950 2 4.59095 53.4246 70.1055
15435 1 5.49685 55.0343 68.8555
21284 2 3.67394 55.0373 67.567
20986 2 6.4007 53.4347 67.5517
15110 1 8.22373 53.4329 68.8405
20987 2 9.13027 55.0373 67.567
20948 2 7.32029 55.0237 70.1201
20670 2 11.8568 53.4347 67.5517
20666 2 10.0472 53.4245 70.1055
15108 1 10.9531 55.0342 68.8555
14874 1 13.68 53.4329 68.8405
20438 2 15.5035 53.4245 70.1055
20668 2 14.5866 55.0373 67.567
20667 2 12.7765 55.0237 70.1201
20450 2 17.313 53.4347 67.5517
14875 1 16.4093 55.0343 68.8555
20436 2 18.2328 55.0237 70.1201
14701 1 19.1362 53.4329 68.8405
20296 2 20.9597 53.4245 70.1055
20451 2 20.0427 55.0374 67.567
15394 1 2.77025 56.6361 68.8735
21285 2 0.947391 56.6403 67.5852
15721 1 0.0436466 58.2386 68.8943
21235 2 1.86735 58.2241 70.158
15392 1 5.49988 58.2386 68.8943
21287 2 3.67728 58.244 67.6062
20949 2 4.59378 56.6236 70.1376
15109 1 8.22647 56.6361 68.8735
20954 2 6.40365 56.6403 67.5852
20952 2 9.1335 58.244 67.6063
20951 2 7.32362 58.2241 70.158
20669 2 11.8599 56.6403 67.5852
15111 1 10.9561 58.2386 68.8943
20642 2 10.05 56.6236 70.1377
14858 1 13.6827 56.6362 68.8735
20671 2 14.5897 58.244 67.6063
20437 2 15.5063 56.6236 70.1377
20640 2 12.7799 58.2241 70.1579
20442 2 17.3161 56.6403 67.5852
14856 1 16.4124 58.2386 68.8943
20439 2 18.2361 58.2241 70.1579
14700 1 19.139 56.6361 68.8735
20440 2 20.046 58.2439 67.6062
20295 2 20.9625 56.6236 70.1376
15393 1 2.77354 59.8417 68.9175
15674 1 0.0471685 61.4455 68.943
21239 2 0.951074 59.8482 67.6296
21236 2 1.87099 61.4277 70.2056
15395 1 5.50339 61.4456 68.943
21237 2 3.6811 61.4531 67.6551
20910 2 4.59725 59.8254 70.1807
15078 1 8.22979 59.8417 68.9176
20953 2 6.40728 59.8482 67.6296
20955 2 9.13735 61.453 67.6551
20908 2 7.32722 61.4277 70.2056
15076 1 10.9596 61.4455 68.943
20646 2 11.8636 59.8482 67.6296
20641 2 10.0535 59.8254 70.1806
14857 1 13.686 59.8417 68.9175
20644 2 14.5935 61.453 67.6551
20643 2 12.7835 61.4277 70.2056
20422 2 15.5097 59.8254 70.1806
14859 1 16.4159 61.4455 68.943
20441 2 17.3198 59.8482 67.6296
20420 2 18.2397 61.4277 70.2056
14693 1 19.1422 59.8417 68.9175
20443 2 20.0498 61.453 67.6551
20294 2 20.966 59.8254 70.1807
15348 1 2.77711 63.0501 68.9702
15675 1 0.0508127 64.6554 68.9989
21238 2 0.954959 63.0586 67.6827
15346 1 5.50705 64.6554 68.999
21240 2 3.68494 64.6646 67.7115
20909 2 4.60099 63.0306 70.2323
15077 1 8.23335 63.0501 68.9702
20912 2 9.14115 64.6646 67.7115
20914 2 6.41115 63.0586 67.6827
15079 1 10.9633 64.6554 68.999
20645 2 11.8674 63.0585 67.6827
20611 2 10.0572 63.0307 70.2323
14835 1 13.6896 63.0501 68.9702
20647 2 14.5974 64.6646 67.7116
20421 2 15.5134 63.0307 70.2323
14833 1 16.4195 64.6554 68.999
20426 2 17.3237 63.0585 67.6827
14692 1 19.1458 63.0501 68.9702
20424 2 20.0537 64.6646 67.7116
20288 2 20.9697 63.0306 70.2323
15347 1 2.78066 66.2613 69.029
15634 1 0.054242 67.8679 69.0598
21192 2 0.958667 66.2716 67.7417
15349 1 5.51047 67.8679 69.0598
21190 2 3.6885 67.879 67.7726
15042 1 8.2369 66.2613 69.029
20913 2 6.41493 66.2715 67.7417
20915 2 9.14477 67.879 67.7726
15040 1 10.9667 67.8679 69.0599
20615 2 11.8712 66.2715 67.7417
14834 1 13.6932 66.2613 69.029
20613 2 14.601 67.8789 67.7725
14836 1 16.423 67.8679 69.0598
20425 2 17.3274 66.2715 67.7418
14681 1 19.1494 66.2613 69.0289
20427 2 20.0573 67.879 67.7726
15303 1 2.78391 69.4752 69.0912
15635 1 0.057166 71.0832 69.123
21191 2 0.962087 69.487 67.8039
15301 1 5.51341 71.0831 69.123
21193 2 3.69168 71.0957 67.8357
15041 1 8.24012 69.4752 69.0913
20868 2 9.14788 71.0957 67.8357
20870 2 6.4183 69.4871 67.804
15043 1 10.9696 71.0831 69.123
20614 2 11.8745 69.4871 67.804
14811 1 13.6964 69.4752 69.0913
20616 2 14.6041 71.0957 67.8357
14809 1 16.4259 71.0831 69.123
20406 2 17.3308 69.487 67.8039
14680 1 19.1526 69.4752 69.0912
20404 2 20.0604 71.0957 67.8357
15302 1 2.7866 72.6917 69.1548
21152 2 0.964775 72.7048 67.8675
15006 1 8.24283 72.6917 69.1548
20869 2 6.42105 72.7047 67.8675
20583 2 11.8773 72.7048 67.8674
14810 1 13.6991 72.6917 69.1548
20405 2 17.3335 72.7048 67.8675
14669 1 19.1553 72.6917 69.1548
15602 1 0.0596138 74.3007 69.1865
15265 1 2.78876 75.9101 69.2179
21151 2 0.96715 75.9237 67.9302
15304 1 5.51585 74.3007 69.1865
21150 2 3.69415 74.3141 67.899
20871 2 9.1504 74.3141 67.899
15005 1 8.24499 75.9101 69.2179
20827 2 6.4234 75.9237 67.9302
15004 1 10.9721 74.3007 69.1865
20582 2 11.8796 75.9237 67.9302
20581 2 14.6067 74.3141 67.8989
14787 1 13.7012 75.9101 69.2179
14812 1 16.4283 74.3007 69.1865
20386 2 17.3359 75.9237 67.9302
20407 2 20.0629 74.3141 67.899
14668 1 19.1575 75.9101 69.2179
15264 1 2.79047 79.1302 69.2785
15603 1 0.0615458 77.52 69.2486
21120 2 0.96883 79.1443 67.9906
15263 1 5.51778 77.52 69.2486
21153 2 3.69608 77.5339 67.9609
14971 1 8.24672 79.1302 69.2785
20825 2 9.15236 77.5339 67.9609
20826 2 6.42502 79.1444 67.9906
15007 1 10.974 77.52 69.2486
20551 2 11.8812 79.1444 67.9907
14786 1 13.703 79.1303 69.2785
20584 2 14.6086 77.5339 67.9609
14785 1 16.4303 77.52 69.2486
20385 2 17.3375 79.1444 67.9906
14657 1 19.1592 79.1302 69.2785
20384 2 20.0648 77.5339 67.9608
15235 1 2.79193 82.3517 69.3353
15578 1 0.0631083 80.7408 69.3074
21119 2 0.970375 82.3658 68.047
15266 1 5.51934 80.7408 69.3074
21118 2 3.69775 80.755 68.0193
14970 1 8.24816 82.3517 69.3353
20791 2 6.42662 82.3658 68.047
20828 2 9.15399 80.755 68.0193
14969 1 10.9756 80.7408 69.3074
20550 2 11.8829 82.3658 68.0469
14763 1 13.7044 82.3517 69.3353
20549 2 14.6102 80.755 68.0194
14788 1 16.4318 80.7408 69.3074
20366 2 17.3391 82.3658 68.047
14656 1 19.1606 82.3517 69.3353
20387 2 20.0664 80.755 68.0194
15234 1 2.79326 85.5741 69.3877
15579 1 0.0644828 83.9628 69.3621
21096 2 0.971697 85.5877 68.0992
15233 1 5.52072 83.9628 69.3621
21121 2 3.69921 83.9767 68.0737
14943 1 8.24949 85.5741 69.3877
20789 2 9.15543 83.9767 68.0736
20790 2 6.42794 85.5877 68.0992
14972 1 10.977 83.9628 69.3621
20520 2 11.8842 85.5877 68.0992
14762 1 13.7057 85.5741 69.3877
20552 2 14.6117 83.9767 68.0736
14761 1 16.4332 83.9628 69.3621
20365 2 17.3404 85.5877 68.0992
14645 1 19.162 85.5741 69.3877
20364 2 20.0679 83.9767 68.0736
15213 1 2.79462 88.797 69.4352
15562 1 0.0658091 87.1855 69.4121
21095 2 0.97289 88.8098 68.1465
15236 1 5.52204 87.1855 69.4121
21094 2 3.70042 87.1987 68.1234
14942 1 8.25086 88.797 69.4352
20763 2 6.42915 88.8098 68.1465
20792 2 9.15666 87.1987 68.1235
14941 1 10.9783 87.1855 69.4121
20519 2 11.8854 88.8097 68.1465
14740 1 13.7071 88.797 69.4352
20518 2 14.6129 87.1987 68.1235
14764 1 16.4345 87.1855 69.4121
20346 2 17.3416 88.8097 68.1465
14644 1 19.1633 88.797 69.4352
20367 2 20.0691 87.1987 68.1235
15563 1 0.0672107 90.4085 69.4571
15211 1 5.52345 90.4085 69.4571
21097 2 3.70164 90.4208 68.1682
20761 2 9.15787 90.4208 68.1682
14944 1 10.9797 90.4085 69.4571
20521 2 14.6141 90.4208 68.1682
14738 1 16.4359 90.4085 69.4571
20344 2 20.0704 90.4208 68.1683
15212 1 2.79605 92.02 69.4777
21080 2 0.974153 92.0317 68.1888
15554 1 0.0686504 93.6315 69.4971
15214 1 5.52488 93.6315 69.4971
21078 2 3.70291 93.6426 68.2081
14923 1 8.25229 92.02 69.4777
20762 2 6.43038 92.0317 68.1888
20764 2 9.15915 93.6426 68.2081
20496 2 11.8866 92.0317 68.1888
14921 1 10.9811 93.6315 69.4971
14739 1 13.7085 92.02 69.4777
20494 2 14.6154 93.6426 68.208
20345 2 17.3429 92.0317 68.1888
14741 1 16.4374 93.6315 69.4971
14633 1 19.1648 92.02 69.4777
20347 2 20.0716 93.6426 68.208
15199 1 2.79747 95.243 69.5152
21079 2 0.975467 95.2533 68.2261
15555 1 0.0700406 96.8544 69.5321
15197 1 5.52629 96.8544 69.5321
21081 2 3.70425 96.864 68.243
14922 1 8.25371 95.243 69.5152
20743 2 6.43171 95.2533 68.2262
20741 2 9.16049 96.864 68.243
20495 2 11.8879 95.2533 68.2262
14924 1 10.9825 96.8544 69.5321
14724 1 13.7099 95.243 69.5152
20497 2 14.6167 96.864 68.2431
20327 2 17.3442 95.2533 68.2261
14722 1 16.4388 96.8544 69.5321
14632 1 19.1662 95.243 69.5152
20325 2 20.073 96.864 68.243
15198 1 2.79886 98.4658 69.5479
15553 1 0.071419 100.077 69.5625
21072 2 0.976767 98.4747 68.2588
15200 1 5.52766 100.077 69.5625
21070 2 3.70547 100.085 68.2734
14911 1 8.2551 98.4658 69.5479
20742 2 6.433 98.4747 68.2588
20744 2 9.16171 100.085 68.2734
14909 1 10.9839 100.077 69.5625
20480 2 11.8892 98.4747 68.2588
14723 1 13.7113 98.4658 69.5479
20478 2 14.6179 100.085 68.2734
14725 1 16.4401 100.077 69.5625
20326 2 17.3455 98.4747 68.2588
14622 1 19.1676 98.4658 69.5479
20328 2 20.0742 100.085 68.2734
21281 2 0.0500619 51.8174 72.6348
15432 1 3.68099 51.827 71.4128
20945 2 5.50633 51.8174 72.6348
15105 1 9.13725 51.827 71.4128
20664 2 10.9626 51.8174 72.6348
14872 1 14.5935 51.827 71.4128
20433 2 16.4188 51.8174 72.6348
14697 1 20.0497 51.827 71.4128
15390 1 0.953757 53.4247 71.4241
20946 2 2.77932 53.4122 72.646
21233 2 0.0524696 55.0077 72.6602
15388 1 3.68307 55.0229 71.4386
20947 2 5.50876 55.0077 72.6602
15106 1 6.41001 53.4247 71.4241
20638 2 8.23551 53.4122 72.6459
15107 1 9.13933 55.0229 71.4386
14854 1 11.8662 53.4247 71.4241
20636 2 10.965 55.0077 72.6602
20434 2 13.6918 53.4121 72.646
14852 1 14.5956 55.0229 71.4386
14698 1 17.3225 53.4247 71.4242
20435 2 16.4212 55.0077 72.6601
20293 2 19.1481 53.4122 72.646
14699 1 20.0518 55.0229 71.4386
15389 1 0.956201 56.6217 71.456
20906 2 2.78217 56.604 72.6773
21234 2 0.0556429 58.2012 72.6971
15391 1 3.68581 58.2213 71.4761
20904 2 5.5119 58.2012 72.697
15074 1 6.41245 56.6217 71.456
15072 1 9.14206 58.2213 71.4762
20637 2 8.23841 56.604 72.6773
14853 1 11.8687 56.6217 71.4561
20639 2 10.9681 58.2013 72.6971
14855 1 14.5983 58.2213 71.4762
20418 2 13.6947 56.6041 72.6773
14690 1 17.3249 56.6217 71.456
20416 2 16.4243 58.2012 72.6971
14688 1 20.0545 58.2213 71.4762
20292 2 19.1509 56.6041 72.6773
15344 1 0.959226 59.8217 71.4987
20905 2 2.78555 59.7995 72.7193
21186 2 0.0592176 61.399 72.7436
15342 1 3.68898 61.4231 71.5233
20907 2 5.51543 61.399 72.7436
15073 1 6.41546 59.8217 71.4987
15075 1 9.14522 61.4231 71.5233
20607 2 8.24182 59.7995 72.7193
14831 1 11.8717 59.8217 71.4987
20605 2 10.9717 61.3989 72.7435
14829 1 14.6014 61.4231 71.5233
20417 2 13.698 59.7995 72.7193
14689 1 17.3279 59.8217 71.4987
20419 2 16.4279 61.3989 72.7436
14691 1 20.0577 61.4231 71.5233
20286 2 19.1543 59.7995 72.7192
21188 2 1.87466 64.6347 70.2606
15343 1 0.962442 63.0253 71.5499
20862 2 2.78908 62.9996 72.7697
21187 2 0.0627866 64.6014 72.7973
15345 1 3.69212 64.6285 71.578
20860 2 5.51902 64.6014 72.7973
20911 2 7.3309 64.6347 70.2605
15036 1 9.14836 64.6285 71.578
15038 1 6.41867 63.0253 71.5499
20606 2 8.24534 62.9996 72.7697
14830 1 11.8749 63.0253 71.5499
20608 2 10.9753 64.6015 72.7973
20609 2 12.7871 64.6347 70.2605
14832 1 14.6046 64.6285 71.578
20398 2 13.7016 62.9996 72.7697
20423 2 18.2434 64.6347 70.2606
14678 1 17.3312 63.0253 71.5499
20396 2 16.4315 64.6015 72.7973
14676 1 20.0608 64.6285 71.578
20285 2 19.1578 62.9996 72.7696
21189 2 1.878 67.8454 70.3204
15299 1 0.965509 66.2327 71.6073
20861 2 2.79257 66.2045 72.8262
21146 2 0.0659958 67.8088 72.8561
20866 2 4.60449 66.2396 70.29
15297 1 3.69505 67.8377 71.6375
20863 2 5.52221 67.8088 72.8561
20864 2 7.33425 67.8455 70.3204
15037 1 6.42175 66.2327 71.6073
15039 1 9.15127 67.8376 71.6375
20575 2 8.24884 66.2045 72.8262
20610 2 10.0607 66.2396 70.29
14807 1 11.878 66.2326 71.6073
20573 2 10.9785 67.8088 72.8561
20402 2 15.517 66.2396 70.29
20612 2 12.7905 67.8455 70.3204
14805 1 14.6075 67.8376 71.6375
20397 2 13.705 66.2045 72.8261
20400 2 18.2467 67.8454 70.3204
14677 1 17.3342 66.2326 71.6073
20399 2 16.4347 67.8088 72.8561
20287 2 20.9732 66.2396 70.29
14679 1 20.0638 67.8377 71.6375
20278 2 19.1612 66.2045 72.8262
21148 2 1.881 71.0596 70.3827
15298 1 0.968279 69.4436 71.6682
20819 2 2.79553 69.4143 72.8866
21147 2 0.0686581 71.0208 72.9176
20865 2 4.60768 69.4521 70.3513
15300 1 3.69762 71.0503 71.6992
20817 2 5.52494 71.0208 72.9176
20867 2 7.33723 71.0596 70.3827
15000 1 9.15386 71.0503 71.6992
15002 1 6.42452 69.4436 71.6682
20574 2 8.25174 69.4143 72.8866
20579 2 10.0639 69.4521 70.3513
14806 1 11.8808 69.4436 71.6682
20576 2 10.9812 71.0208 72.9175
20401 2 15.5202 69.4521 70.3514
20577 2 12.7935 71.0596 70.3827
14808 1 14.6101 71.0503 71.6992
20378 2 13.708 69.4143 72.8866
20403 2 18.2497 71.0596 70.3827
14666 1 17.337 69.4436 71.6682
20376 2 16.4374 71.0209 72.9175
20280 2 20.9764 69.4521 70.3514
14664 1 20.0663 71.0503 71.6992
20277 2 19.1642 69.4143 72.8866
15261 1 0.970625 72.6579 71.7304
20818 2 2.79807 72.6283 72.9485
20823 2 4.61045 72.668 70.4141
15001 1 6.42687 72.6579 71.7304
20543 2 8.25433 72.6282 72.9485
20578 2 10.0667 72.6679 70.4141
14783 1 11.8831 72.6579 71.7304
20382 2 15.5229 72.668 70.4141
20377 2 13.7106 72.6282 72.9485
14665 1 17.3393 72.6579 71.7304
20279 2 20.9792 72.668 70.4141
20270 2 19.1668 72.6282 72.9485
21149 2 1.88364 74.277 70.4454
21114 2 0.0714151 74.2368 72.9791
15260 1 0.972589 75.8754 71.7938
20783 2 2.80058 75.8467 73.0094
20822 2 4.61289 75.8865 70.4762
15259 1 3.69973 74.2662 71.7626
20820 2 5.5276 74.2368 72.9792
20821 2 7.33989 74.2769 70.4453
15003 1 9.15597 74.2662 71.7626
14967 1 6.42882 75.8754 71.7938
20542 2 8.25681 75.8467 73.0095
20547 2 10.0691 75.8864 70.4763
20541 2 10.9838 74.2369 72.9792
14782 1 11.885 75.8754 71.7938
20580 2 12.7961 74.2769 70.4453
20381 2 15.5254 75.8864 70.4762
14781 1 14.6122 74.2662 71.7626
20358 2 13.713 75.8467 73.0096
20380 2 18.2524 74.2769 70.4454
20379 2 16.4401 74.2368 72.9792
14654 1 17.3413 75.8754 71.7938
20272 2 20.9816 75.8864 70.4762
14667 1 20.0684 74.2662 71.7626
20269 2 19.1692 75.8467 73.0095
21116 2 1.88572 77.4966 70.5066
15231 1 0.974256 79.0958 71.854
20782 2 2.80265 79.0689 73.0687
21115 2 0.0734193 77.4575 73.0394
20787 2 4.6147 79.1073 70.5363
15262 1 3.70157 77.4853 71.8242
20781 2 5.52967 77.4574 73.0394
20824 2 7.34196 77.4966 70.5066
14965 1 9.15781 77.4853 71.8242
14966 1 6.4305 79.0959 71.854
20512 2 8.25883 79.0689 73.0687
20546 2 10.0709 79.1073 70.5363
14759 1 11.8867 79.0959 71.854
20544 2 10.9859 77.4574 73.0394
20362 2 15.5272 79.1073 70.5363
20545 2 12.7982 77.4966 70.5066
14784 1 14.614 77.4853 71.8242
20357 2 13.7151 79.0689 73.0687
20383 2 18.2544 77.4966 70.5066
14653 1 17.343 79.0958 71.854
20356 2 16.4422 77.4575 73.0394
20271 2 20.9834 79.1073 70.5363
14652 1 20.0703 77.4853 71.8242
20262 2 19.1714 79.0689 73.0687
21117 2 1.88745 80.7185 70.565
15230 1 0.975846 82.3185 71.9107
21090 2 0.075492 80.6809 73.0973
20786 2 4.61641 82.3302 70.5927
15229 1 3.70316 80.7069 71.8828
20784 2 5.53179 80.6809 73.0973
20785 2 7.3437 80.7185 70.5651
14939 1 6.43209 82.3185 71.9107
14968 1 9.1594 80.7069 71.8828
20516 2 10.0727 82.3302 70.5927
14758 1 11.8883 82.3185 71.9107
20510 2 10.988 80.6809 73.0973
20361 2 15.5289 82.3302 70.5927
20548 2 12.8 80.7186 70.565
14757 1 14.6156 80.707 71.8828
20360 2 18.2562 80.7186 70.565
14642 1 17.3446 82.3185 71.9107
20359 2 16.4442 80.6809 73.0973
20264 2 20.9851 82.3302 70.5927
14655 1 20.0719 80.7069 71.8828
21092 2 1.88911 83.9423 70.6194
15209 1 0.977528 85.5428 71.963
20759 2 4.61805 85.5545 70.6449
15232 1 3.70481 83.9305 71.9374
20788 2 7.34531 83.9423 70.6193
14937 1 9.16105 83.9305 71.9374
14938 1 6.43376 85.5428 71.963
20515 2 10.0743 85.5545 70.6449
14736 1 11.89 85.5428 71.963
20342 2 15.5305 85.5545 70.6449
20514 2 12.8016 83.9423 70.6194
14760 1 14.6173 83.9305 71.9375
20363 2 18.2578 83.9422 70.6194
14641 1 17.3462 85.5428 71.963
20263 2 20.9868 85.5545 70.6449
14640 1 20.0735 83.9305 71.9374
21093 2 1.89073 87.1668 70.6692
15208 1 0.979196 88.7679 72.0106
20758 2 4.6196 88.7792 70.6923
15207 1 3.70648 87.1553 71.9874
20757 2 7.34696 87.1668 70.6692
14919 1 6.43545 88.7679 72.0106
14940 1 9.16272 87.1553 71.9874
20492 2 10.0758 88.7792 70.6924
14735 1 11.8917 88.7679 72.0106
20341 2 15.5321 88.7792 70.6923
20517 2 12.8032 87.1668 70.6692
14734 1 14.6189 87.1553 71.9874
20340 2 18.2594 87.1668 70.6692
14630 1 17.3479 88.7679 72.0106
20256 2 20.9883 88.7792 70.6923
14643 1 20.0752 87.1553 71.9874
21076 2 1.8922 90.3917 70.7141
15210 1 3.70817 90.3807 72.0325
20760 2 7.34846 90.3917 70.7142
14917 1 9.16441 90.3807 72.0325
20490 2 12.8047 90.3917 70.7142
14737 1 14.6206 90.3807 72.0325
20343 2 18.2609 90.3917 70.7142
14628 1 20.0769 90.3807 72.0325
15195 1 0.980912 91.9936 72.0531
21077 2 1.89373 93.6167 70.7541
20739 2 4.62107 92.0042 70.7347
15193 1 3.70992 93.6066 72.0724
14918 1 6.43717 91.9936 72.0531
14920 1 9.16616 93.6066 72.0724
20737 2 7.34999 93.6167 70.7541
14720 1 11.8934 91.9936 72.0531
20491 2 10.0773 92.0043 70.7347
20323 2 15.5335 92.0042 70.7348
14718 1 14.6224 93.6066 72.0724
20493 2 12.8062 93.6167 70.7541
14629 1 17.3496 91.9936 72.0531
20321 2 18.2624 93.6168 70.7541
20255 2 20.9898 92.0042 70.7347
14631 1 20.0786 93.6066 72.0725
15194 1 0.98268 95.2196 72.0906
21068 2 1.89526 96.8415 70.7892
20738 2 4.62263 95.2291 70.7722
15196 1 3.71167 96.8326 72.1076
14907 1 6.43892 95.2196 72.0906
14905 1 9.16791 96.8326 72.1076
20740 2 7.35149 96.8415 70.7891
14719 1 11.8952 95.2196 72.0906
20476 2 10.0789 95.2291 70.7722
20322 2 15.5351 95.2291 70.7722
14721 1 14.6242 96.8326 72.1076
20474 2 12.8077 96.8414 70.7891
14619 1 17.3514 95.2196 72.0906
20324 2 18.264 96.8414 70.7891
20248 2 20.9913 95.2292 70.7722
14617 1 20.0804 96.8326 72.1076
15189 1 0.98439 98.4456 72.1234
21069 2 1.89661 100.066 70.8197
15187 1 3.71328 100.059 72.1381
20727 2 4.62407 98.4537 70.805
14906 1 6.44062 98.4456 72.1234
14908 1 9.16952 100.059 72.1381
20725 2 7.35284 100.066 70.8197
14712 1 11.8969 98.4456 72.1234
20475 2 10.0803 98.4537 70.805
14710 1 14.6258 100.059 72.1381
20311 2 15.5366 98.4537 70.8049
20477 2 12.8091 100.066 70.8196
14618 1 17.3531 98.4456 72.1234
20309 2 18.2653 100.066 70.8196
14620 1 20.082 100.059 72.1381
20247 2 20.9928 98.4537 70.805
15386 1 1.83647 51.8264 74.0714
20944 2 3.67859 51.813 75.1249
15104 1 7.29269 51.8264 74.0714
20633 2 9.13489 51.8129 75.1249
14849 1 12.7489 51.8264 74.0714
20432 2 14.5911 51.8129 75.1249
14696 1 18.2052 51.8264 74.0714
20289 2 20.0473 51.813 75.1249
20902 2 0.951159 53.4046 75.1355
15387 1 1.83651 55.0169 74.097
15070 1 4.5647 53.4213 74.0827
20900 2 3.68024 54.9971 75.1491
20634 2 6.40737 53.4046 75.1355
15068 1 7.29272 55.017 74.097
20635 2 9.1365 54.9971 75.1492
14850 1 10.021 53.4213 74.0827
20414 2 11.8636 53.4046 75.1354
14686 1 15.4772 53.4213 74.0827
14851 1 12.7489 55.017 74.097
20412 2 14.5927 54.9971 75.1492
20290 2 17.3199 53.4046 75.1354
14684 1 18.2052 55.0169 74.097
14608 1 20.9334 53.4213 74.0827
20291 2 20.0489 54.9971 75.1492
20901 2 0.953041 56.5906 75.1655
15340 1 1.83626 58.2108 74.1342
15069 1 4.56463 56.6133 74.1143
20903 2 3.68222 58.1854 75.1847
20603 2 6.40929 56.5906 75.1655
15071 1 7.2925 58.2108 74.1342
20601 2 9.13846 58.1853 75.1847
14827 1 10.0209 56.6133 74.1143
20413 2 11.8655 56.5906 75.1655
14685 1 15.4771 56.6134 74.1142
14825 1 12.7487 58.2108 74.1342
20415 2 14.5947 58.1854 75.1847
20283 2 17.3217 56.5906 75.1656
14687 1 18.205 58.2108 74.1342
14607 1 20.9333 56.6134 74.1142
20281 2 20.051 58.1854 75.1847
15341 1 1.83568 61.4088 74.181
20858 2 0.95523 59.7813 75.2061
15034 1 4.56417 59.8093 74.1565
20856 2 3.68447 61.3788 75.2296
15032 1 7.29191 61.4088 74.181
20602 2 6.41148 59.7813 75.2061
20604 2 9.14067 61.3788 75.2297
14826 1 10.0204 59.8093 74.1565
20394 2 11.8677 59.7813 75.2061
14674 1 15.4767 59.8092 74.1565
14828 1 12.7481 61.4088 74.181
20392 2 14.5969 61.3788 75.2297
14672 1 18.2044 61.4088 74.181
20282 2 17.3239 59.7813 75.2061
14606 1 20.9329 59.8092 74.1565
20284 2 20.0532 61.3788 75.2297
15295 1 1.83475 64.6114 74.2353
20857 2 0.957258 62.9777 75.255
15033 1 4.56342 63.0095 74.2074
20859 2 3.68625 64.5781 75.2818
15035 1 7.29097 64.6114 74.2353
20569 2 9.14249 64.5781 75.2818
20571 2 6.41348 62.9777 75.2549
14803 1 10.0196 63.0095 74.2074
20393 2 11.8697 62.9777 75.255
14673 1 15.4759 63.0095 74.2073
14801 1 12.7472 64.6114 74.2353
20395 2 14.5987 64.578 75.2818
14675 1 18.2035 64.6114 74.2352
20275 2 17.326 62.9777 75.255
14605 1 20.9321 63.0095 74.2073
20273 2 20.055 64.5781 75.2818
15296 1 1.83346 67.8182 74.2943
20815 2 0.958992 66.1799 75.3099
14998 1 4.56224 66.2142 74.2644
20813 2 3.68779 67.783 75.339
14996 1 7.28969 67.8182 74.2943
20570 2 6.41523 66.1798 75.3099
20572 2 9.14403 67.783 75.339
14802 1 10.0185 66.2143 74.2643
20374 2 11.8715 66.1798 75.3099
14662 1 15.4747 66.2142 74.2643
14804 1 12.7459 67.8182 74.2943
20372 2 14.6003 67.783 75.339
14660 1 18.2022 67.8182 74.2943
20274 2 17.3277 66.1799 75.3099
14604 1 20.931 66.2142 74.2644
20276 2 20.0565 67.783 75.339
15257 1 1.83227 71.0289 74.3559
20814 2 0.960255 69.3875 75.3688
14997 1 4.56091 69.423 74.3249
20816 2 3.68898 70.9934 75.399
14999 1 7.28851 71.0289 74.3559
20537 2 9.1452 70.9934 75.399
20539 2 6.41651 69.3875 75.3688
14779 1 10.0171 69.423 74.3249
20373 2 11.8728 69.3875 75.3688
14661 1 15.4734 69.4231 74.3249
14777 1 12.7448 71.0289 74.3559
20375 2 14.6015 70.9934 75.3989
14663 1 18.201 71.0289 74.3559
20267 2 17.329 69.3875 75.3688
14603 1 20.9296 69.4231 74.3249
20265 2 20.0577 70.9934 75.3989
20779 2 0.961458 72.6006 75.4293
14963 1 4.55986 72.6353 74.3866
20538 2 6.4177 72.6007 75.4293
14778 1 10.0161 72.6353 74.3866
20354 2 11.8739 72.6007 75.4294
14650 1 15.4723 72.6353 74.3866
20266 2 17.3301 72.6007 75.4293
14602 1 20.9286 72.6353 74.3866
15258 1 1.83103 74.2428 74.4174
20778 2 0.962624 75.8186 75.4879
20777 2 3.69023 74.209 75.4585
14962 1 4.55874 75.8517 74.4479
20540 2 9.14647 74.209 75.4585
14961 1 7.28727 74.2428 74.4174
20508 2 6.41886 75.8186 75.4879
14755 1 10.015 75.8517 74.4479
20353 2 11.8751 75.8185 75.4878
20352 2 14.6027 74.2091 75.4586
14780 1 12.7435 74.2429 74.4174
14649 1 15.4712 75.8517 74.4479
14648 1 18.1997 74.2429 74.4174
20259 2 17.3314 75.8185 75.4879
20268 2 20.0589 74.2091 75.4586
14601 1 20.9274 75.8518 74.4479
15227 1 1.83041 77.4612 74.4779
20751 2 0.96406 79.0407 75.5456
14935 1 4.55843 79.0713 74.5072
20780 2 3.69144 77.4292 75.517
14964 1 7.28666 77.4611 74.4779
20506 2 9.14766 77.4292 75.517
20507 2 6.42028 79.0407 75.5456
14754 1 10.0147 79.0713 74.5072
20334 2 11.8765 79.0408 75.5456
14638 1 15.4709 79.0713 74.5072
14753 1 12.7429 77.4611 74.4779
20355 2 14.6039 77.4292 75.517
14651 1 18.1991 77.4611 74.4779
20258 2 17.3328 79.0408 75.5456
14600 1 20.9272 79.0713 74.5072
20257 2 20.0602 77.4292 75.517
20755 2 2.8045 82.2935 73.1249
15228 1 1.83037 80.682 74.5357
20750 2 0.965429 82.2661 75.6008
14934 1 4.55874 82.2935 74.5633
20749 2 3.69284 80.6532 75.5736
20511 2 8.26076 82.2935 73.1249
14933 1 7.2866 80.6821 74.5357
20484 2 6.42168 82.2661 75.6008
20509 2 9.14908 80.6532 75.5736
14732 1 10.015 82.2935 74.5633
20333 2 11.8779 82.2662 75.6008
20338 2 13.717 82.2935 73.1248
14637 1 15.4712 82.2935 74.5633
14756 1 12.7429 80.682 74.5357
20332 2 14.6053 80.6532 75.5736
14636 1 18.1991 80.682 74.5357
20251 2 17.3341 82.2662 75.6008
20261 2 19.1732 82.2935 73.1248
14599 1 20.9275 82.2935 74.5633
20260 2 20.0615 80.6532 75.5736
20754 2 2.80621 85.5204 73.1767
21091 2 0.0772417 83.9067 73.1513
15205 1 1.83103 83.9054 74.5898
20731 2 0.967192 85.4938 75.652
20753 2 5.53347 83.9067 73.1513
14915 1 4.5597 85.5178 74.6151
20752 2 3.69436 83.8797 75.6269
20488 2 8.26249 85.5204 73.1767
14936 1 7.28729 83.9054 74.5898
20482 2 9.15062 83.8797 75.6269
20483 2 6.42343 85.4938 75.652
20513 2 10.9897 83.9067 73.1514
14731 1 10.0159 85.5178 74.615
20315 2 11.8797 85.4937 75.652
20337 2 13.7187 85.5204 73.1768
14626 1 15.4722 85.5178 74.615
14730 1 12.7435 83.9055 74.5898
20335 2 14.6069 83.8797 75.6269
20336 2 16.4459 83.9067 73.1514
14639 1 18.1997 83.9055 74.5898
20250 2 17.3359 85.4937 75.652
20254 2 19.1749 85.5204 73.1768
14598 1 20.9284 85.5179 74.6151
20249 2 20.0631 83.8797 75.627
21074 2 0.0790594 87.1342 73.201
20735 2 2.80809 88.7481 73.224
20730 2 0.969157 88.7231 75.6987
15206 1 1.83224 87.1306 74.6392
20756 2 5.53525 87.1342 73.2009
20729 2 3.69631 87.1083 75.6759
14914 1 4.56113 88.7437 74.6621
20487 2 8.26432 88.7481 73.2239
20485 2 9.15253 87.1083 75.6759
20468 2 6.4254 88.7232 75.6987
14913 1 7.28849 87.1306 74.6392
20486 2 10.9915 87.1342 73.2009
20314 2 11.8816 88.7232 75.6987
14716 1 10.0174 88.7437 74.6621
20319 2 13.7206 88.7482 73.224
20313 2 14.6088 87.1083 75.6759
14733 1 12.7447 87.1306 74.6392
14625 1 15.4736 88.7437 74.6621
20339 2 16.4478 87.1342 73.201
20243 2 17.3379 88.7231 75.6987
14624 1 18.201 87.1306 74.6392
20253 2 19.1768 88.7482 73.224
20252 2 20.065 87.1083 75.6759
14597 1 20.9299 88.7437 74.6621
21075 2 0.0808834 90.3622 73.2458
15191 1 1.83387 90.3572 74.6838
20733 2 5.53714 90.3622 73.2458
20732 2 3.69829 90.3382 75.7203
20466 2 9.15453 90.3382 75.7204
14916 1 7.2901 90.3572 74.6838
20489 2 10.9934 90.3621 73.2458
20316 2 14.6108 90.3382 75.7203
14714 1 12.7463 90.3572 74.6838
20317 2 16.4496 90.3621 73.2458
14627 1 18.2026 90.3572 74.6838
20241 2 20.067 90.3382 75.7203
20734 2 2.80997 91.9762 73.2664
20719 2 0.97126 91.9533 75.7407
21066 2 0.0827731 93.5903 73.2857
15192 1 1.83579 93.5851 74.7236
14903 1 4.56292 91.971 74.7043
20736 2 5.53902 93.5903 73.2857
20717 2 3.70049 93.5685 75.7599
20472 2 8.26619 91.9762 73.2663
20467 2 6.42749 91.9533 75.7407
20469 2 9.15672 93.5685 75.7599
14901 1 7.29203 93.5851 74.7236
20303 2 11.8837 91.9533 75.7408
14715 1 10.0192 91.971 74.7043
20470 2 10.9953 93.5903 73.2857
20318 2 13.7224 91.9762 73.2663
14615 1 15.4754 91.971 74.7043
20301 2 14.6129 93.5685 75.76
14717 1 12.7483 93.5851 74.7236
20242 2 17.34 91.9533 75.7408
20320 2 16.4515 93.5903 73.2856
14613 1 18.2045 93.5851 74.7236
20246 2 19.1787 91.9762 73.2663
14596 1 20.9316 91.971 74.7043
20244 2 20.0692 93.5686 75.76
20723 2 2.81179 95.2044 73.3038
21067 2 0.084495 96.8184 73.3207
20718 2 0.97343 95.1839 75.778
15185 1 1.83788 96.8137 74.7586
20721 2 5.54073 96.8185 73.3207
14902 1 4.56495 95.1993 74.7417
20720 2 3.70255 96.7994 75.795
20471 2 8.26802 95.2044 73.3038
20460 2 6.42969 95.1839 75.778
20458 2 9.1588 96.7993 75.7949
14904 1 7.29412 96.8137 74.7586
20473 2 10.997 96.8185 73.3208
20302 2 11.8859 95.1839 75.778
14708 1 10.0212 95.1993 74.7417
20307 2 13.7243 95.2044 73.3038
14614 1 15.4774 95.1993 74.7417
20304 2 14.615 96.7993 75.7949
14706 1 12.7504 96.8138 74.7586
20305 2 16.4532 96.8185 73.3208
20236 2 17.3421 95.1839 75.778
14616 1 18.2066 96.8138 74.7586
20245 2 19.1805 95.2044 73.3037
14595 1 20.9337 95.1993 74.7417
20234 2 20.0713 96.7994 75.795
20722 2 2.81338 98.4324 73.3366
21065 2 0.0860297 100.046 73.3513
20715 2 0.975376 98.4148 75.8108
15186 1 1.83988 100.043 74.7892
20724 2 5.54228 100.046 73.3513
20713 2 3.70442 100.03 75.8256
14899 1 4.56703 98.4283 74.7745
20464 2 8.26962 98.4324 73.3366
20461 2 9.16065 100.03 75.8256
20459 2 6.43162 98.4148 75.8108
14897 1 7.29613 100.043 74.7892
14707 1 10.0233 98.4283 74.7744
20462 2 10.9985 100.046 73.3513
20299 2 11.8879 98.4148 75.8108
20306 2 13.7259 98.4324 73.3366
14611 1 15.4795 98.4283 74.7744
14709 1 12.7524 100.043 74.7892
20297 2 14.6169 100.03 75.8256
20308 2 16.4547 100.046 73.3514
20235 2 17.3441 98.4148 75.8108
14609 1 18.2086 100.043 74.7892
20237 2 20.0731 100.03 75.8256
14594 1 20.9357 98.4283 74.7745
20239 2 19.1821 98.4324 73.3366
12527 2 2.71005 102.167 -3.45702
6144 1 1.7858 103.721 -2.38004
6110 1 4.5153 102.154 -2.39347
12528 2 5.43724 103.734 -3.44371
12430 2 8.1663 102.167 -3.45703
6108 1 7.24205 103.721 -2.38005
5983 1 9.97154 102.154 -2.39348
12428 2 10.8935 103.734 -3.4437
5758 1 15.4278 102.154 -2.39348
12239 2 13.6225 102.167 -3.45704
5984 1 12.6983 103.721 -2.38006
5756 1 18.1545 103.721 -2.38005
12240 2 16.3497 103.734 -3.44367
5440 1 20.884 102.154 -2.39347
11952 2 19.0788 102.167 -3.45703
12542 2 21.8059 103.734 -3.44368
12523 2 2.70834 105.3 -3.43139
6109 1 4.51279 105.289 -2.36764
12429 2 8.16456 105.3 -3.43137
5979 1 9.96902 105.289 -2.36764
5757 1 15.4253 105.289 -2.36763
12235 2 13.6208 105.3 -3.43135
5439 1 20.8815 105.289 -2.36763
11951 2 19.077 105.3 -3.43136
12522 2 2.7071 108.432 -3.41003
6140 1 1.78381 106.856 -2.3564
12521 2 5.43577 106.866 -3.42012
6102 1 4.51131 108.423 -2.34627
12422 2 8.16334 108.432 -3.41003
6111 1 7.24005 106.856 -2.35639
12431 2 10.892 106.866 -3.42013
5978 1 9.96755 108.423 -2.34628
5750 1 15.4238 108.422 -2.34626
5977 1 12.6963 106.856 -2.3564
12234 2 13.6196 108.432 -3.41001
5759 1 18.1525 106.856 -2.3564
12233 2 16.3483 106.866 -3.42015
12543 2 21.8045 106.866 -3.42014
5438 1 20.88 108.422 -2.34626
11946 2 19.0758 108.432 -3.41001
12512 2 2.70635 111.564 -3.39281
6141 1 1.78272 109.989 -2.3371
12524 2 5.43481 109.998 -3.4009
6101 1 4.51046 111.556 -2.32897
12421 2 8.1626 111.564 -3.39281
6100 1 7.23894 109.989 -2.33709
12420 2 10.891 109.998 -3.40089
5967 1 9.9667 111.556 -2.32898
5749 1 15.4229 111.556 -2.32897
5980 1 12.6952 109.989 -2.33708
12223 2 13.6189 111.564 -3.39283
5748 1 18.1514 109.989 -2.33709
12236 2 16.3473 109.998 -3.40095
12540 2 21.8035 109.998 -3.40096
5431 1 20.8792 111.556 -2.32897
11945 2 19.0751 111.564 -3.39283
12511 2 2.70594 114.695 -3.37964
6136 1 1.78205 113.123 -2.32189
12510 2 5.43424 113.129 -3.38573
6087 1 4.50993 114.689 -2.31582
6103 1 7.23828 113.123 -2.32189
12406 2 8.16219 114.695 -3.37966
12423 2 10.8905 113.129 -3.38571
5966 1 9.96617 114.689 -2.31582
5734 1 15.4224 114.689 -2.31584
5965 1 12.6945 113.123 -2.32188
12222 2 13.6184 114.695 -3.37968
5751 1 18.1508 113.123 -2.32188
12221 2 16.3467 113.129 -3.38572
12541 2 21.803 113.129 -3.38573
5430 1 20.8787 114.689 -2.31584
11932 2 19.0747 114.695 -3.37966
12500 2 2.70581 117.827 -3.37071
6137 1 1.78169 116.256 -2.31082
12513 2 5.43397 116.261 -3.37466
6086 1 4.50978 117.822 -2.30687
6085 1 7.23793 116.256 -2.31082
12405 2 8.16205 117.827 -3.37071
5947 1 9.96602 117.822 -2.30687
12404 2 10.8902 116.261 -3.37468
5733 1 15.4223 117.822 -2.30687
5968 1 12.6942 116.256 -2.31082
12203 2 13.6183 117.826 -3.37072
5732 1 18.1504 116.256 -2.31082
12224 2 16.3464 116.261 -3.37464
12538 2 21.8027 116.261 -3.37462
5415 1 20.8785 117.822 -2.30688
11931 2 19.0745 117.826 -3.37071
12499 2 2.70593 120.958 -3.36603
6132 1 1.7817 119.389 -2.30398
12498 2 5.43395 119.392 -3.36783
6071 1 4.50994 120.955 -2.30216
6088 1 7.23795 119.389 -2.30399
12383 2 8.16215 120.958 -3.366
5946 1 9.96618 120.955 -2.30216
12407 2 10.8902 119.392 -3.36782
5710 1 15.4224 120.955 -2.30215
5945 1 12.6942 119.389 -2.30398
12202 2 13.6184 120.957 -3.36597
5735 1 18.1504 119.389 -2.30398
12201 2 16.3464 119.392 -3.36783
12539 2 21.8027 119.392 -3.36784
5414 1 20.8786 120.955 -2.30214
11910 2 19.0746 120.957 -3.366
6133 1 1.78196 122.521 -2.30139
12488 2 2.70631 124.088 -3.3655
12501 2 5.43419 122.523 -3.36522
6070 1 4.51027 124.088 -2.30168
6069 1 7.2382 122.521 -2.30139
12382 2 8.16256 124.088 -3.3655
12381 2 10.8904 122.523 -3.3652
5920 1 9.9665 124.088 -2.30168
5948 1 12.6944 122.521 -2.30139
5709 1 15.4227 124.088 -2.30168
12175 2 13.6188 124.088 -3.3655
5708 1 18.1507 122.521 -2.30139
12204 2 16.3467 122.523 -3.36522
12536 2 21.8029 122.523 -3.36524
5391 1 20.879 124.088 -2.30168
11909 2 19.075 124.088 -3.36549
6128 1 1.7824 125.654 -2.30304
12487 2 2.70694 127.22 -3.36929
12486 2 5.43474 125.654 -3.36685
6055 1 4.51084 127.22 -2.30545
6072 1 7.23862 125.654 -2.30303
12359 2 8.1632 127.22 -3.36931
12384 2 10.891 125.654 -3.36689
5919 1 9.96707 127.22 -2.30545
5918 1 12.6949 125.654 -2.30304
5678 1 15.4233 127.22 -2.30545
12174 2 13.6195 127.22 -3.36936
5711 1 18.1511 125.654 -2.30304
12173 2 16.3472 125.654 -3.36687
12537 2 21.8034 125.654 -3.36683
5390 1 20.8796 127.22 -2.30546
11880 2 19.0757 127.22 -3.36934
6129 1 1.78315 128.787 -2.30895
12476 2 2.70772 130.351 -3.3775
12489 2 5.43543 128.785 -3.37288
6054 1 4.51176 130.353 -2.31352
6053 1 7.2394 128.787 -2.30895
12358 2 8.16392 130.351 -3.37748
12357 2 10.8917 128.785 -3.37287
5892 1 9.96801 130.353 -2.31352
5921 1 12.6956 128.787 -2.30895
5677 1 15.4242 130.353 -2.31352
12140 2 13.6202 130.351 -3.37745
5676 1 18.1519 128.787 -2.30894
12176 2 16.3479 128.785 -3.37288
12534 2 21.8042 128.785 -3.37289
5359 1 20.8805 130.353 -2.31351
11879 2 19.0764 130.351 -3.37747
6124 1 1.78415 131.92 -2.31916
12474 2 5.43626 131.916 -3.38309
6056 1 7.2404 131.92 -2.31916
12360 2 10.8925 131.916 -3.38305
5890 1 12.6966 131.92 -2.31916
5679 1 18.1529 131.92 -2.31916
12138 2 16.3487 131.916 -3.38304
12535 2 21.805 131.916 -3.38308
12475 2 2.70865 133.482 -3.38967
6125 1 1.78529 135.053 -2.33359
12477 2 5.43737 135.048 -3.39734
6039 1 4.51281 133.486 -2.32585
6037 1 7.24151 135.053 -2.33358
12335 2 8.16489 133.482 -3.3897
5891 1 9.96905 133.486 -2.32585
12333 2 10.8936 135.048 -3.3974
5639 1 15.4253 133.486 -2.32585
5893 1 12.6978 135.053 -2.33358
12139 2 13.6211 133.482 -3.38967
5637 1 18.154 135.053 -2.33359
12141 2 16.3498 135.048 -3.3974
12532 2 21.8061 135.048 -3.39733
5358 1 20.8815 133.486 -2.32585
11842 2 19.0773 133.482 -3.38964
12464 2 2.70995 136.613 -3.40617
6120 1 1.78673 138.186 -2.3522
12462 2 5.43891 138.179 -3.41612
6038 1 4.51408 136.619 -2.34237
6040 1 7.24299 138.186 -2.35222
12334 2 8.16621 136.613 -3.40617
5864 1 9.97029 136.62 -2.34236
12336 2 10.8952 138.179 -3.41612
5638 1 15.4265 136.62 -2.34236
5862 1 12.6992 138.186 -2.35221
12104 2 13.6225 136.613 -3.40623
5640 1 18.1554 138.186 -2.35221
12102 2 16.3514 138.179 -3.41616
12533 2 21.8076 138.179 -3.41616
5319 1 20.8828 136.619 -2.34237
11841 2 19.0787 136.613 -3.40623
12463 2 2.71173 139.745 -3.4271
6121 1 1.78895 141.32 -2.37507
12465 2 5.4408 141.311 -3.43901
6023 1 4.51583 139.753 -2.36311
6021 1 7.24522 141.32 -2.37509
12311 2 8.16792 139.745 -3.42704
5863 1 9.97207 139.753 -2.3631
12309 2 10.897 141.311 -3.43895
5599 1 15.4283 139.753 -2.36309
5865 1 12.7015 141.32 -2.3751
12103 2 13.6242 139.745 -3.42703
5597 1 18.1577 141.32 -2.37508
12105 2 16.3532 141.311 -3.43891
12530 2 21.8095 141.311 -3.43897
5318 1 20.8845 139.753 -2.3631
11797 2 19.0804 139.745 -3.4271
12452 2 2.71363 142.878 -3.45187
6116 1 1.79212 144.455 -2.40231
12450 2 5.44296 144.444 -3.46581
6022 1 4.51853 142.888 -2.38825
6024 1 7.24836 144.455 -2.40231
12310 2 8.16987 142.878 -3.45187
5836 1 9.97479 142.888 -2.38825
12312 2 10.8992 144.444 -3.46581
5598 1 15.431 142.888 -2.38826
5834 1 12.7046 144.455 -2.40229
12068 2 13.6261 142.878 -3.45186
5600 1 18.1608 144.455 -2.4023
12066 2 16.3554 144.444 -3.46582
12531 2 21.8117 144.444 -3.46581
5272 1 20.8872 142.888 -2.38826
11796 2 19.0823 142.878 -3.45185
12451 2 2.71614 146.011 -3.48076
6117 1 1.79587 147.591 -2.4333
12453 2 5.44569 147.578 -3.49665
6008 1 4.52206 146.023 -2.41732
6006 1 7.25211 147.591 -2.43332
12288 2 8.17237 146.011 -3.48076
5835 1 9.9783 146.023 -2.41732
12286 2 10.9019 147.578 -3.49664
5560 1 15.4345 146.023 -2.41732
5837 1 12.7084 147.591 -2.43331
12067 2 13.6286 146.011 -3.48075
5558 1 18.1646 147.591 -2.4333
12069 2 16.3581 147.578 -3.49662
12529 2 21.8144 147.578 -3.49663
5271 1 20.8908 146.023 -2.41731
11751 2 19.0848 146.011 -3.48074
12441 2 2.7191 149.145 -3.51336
2047 1 1.80025 150.728 -2.46796
6007 1 4.52608 149.159 -2.45018
8174 2 5.44884 150.713 -3.53103
12287 2 8.17536 149.145 -3.5134
2016 1 7.25648 150.728 -2.46796
5809 1 9.98232 149.159 -2.45019
8080 2 10.9051 150.713 -3.53108
5559 1 15.4386 149.159 -2.45018
12033 2 13.6316 149.145 -3.51337
1886 1 12.7127 150.728 -2.46798
1664 1 18.169 150.728 -2.46798
7886 2 16.3614 150.713 -3.53107
5224 1 20.8948 149.159 -2.45017
11750 2 19.0878 149.145 -3.51334
8192 2 21.8175 150.713 -3.53101
12519 2 0.898538 102.149 -0.949999
6106 1 2.71382 102.138 0.272867
12516 2 1.80536 103.7 1.61829
12414 2 4.53427 102.13 1.60479
12517 2 3.62594 103.717 -0.936547
6107 1 5.44112 103.706 0.286354
12426 2 6.35477 102.149 -0.949939
5975 1 8.17005 102.138 0.272867
12427 2 9.08218 103.717 -0.93655
12412 2 7.2616 103.7 1.61829
12231 2 11.811 102.149 -0.949945
12227 2 9.99052 102.13 1.6048
5973 1 10.8974 103.706 0.286357
5754 1 13.6263 102.138 0.27288
11939 2 15.4467 102.13 1.60482
12229 2 14.5385 103.717 -0.936555
12228 2 12.7179 103.699 1.6183
11949 2 17.2672 102.149 -0.950003
5755 1 16.3536 103.706 0.286354
11937 2 18.1741 103.7 1.6183
5437 1 19.0825 102.138 0.27288
11584 2 20.903 102.13 1.60481
11950 2 19.9947 103.717 -0.936553
6138 1 21.8098 103.706 0.286351
12518 2 0.897216 105.285 -0.924144
6098 1 2.71228 105.275 0.298766
12413 2 4.5328 105.269 1.63073
12418 2 6.35347 105.285 -0.924164
5974 1 8.16852 105.275 0.298764
12230 2 11.8097 105.285 -0.924153
12215 2 9.98905 105.269 1.63071
5746 1 13.6248 105.275 0.298768
11938 2 15.4453 105.269 1.6307
11943 2 17.2659 105.285 -0.924133
5436 1 19.081 105.275 0.29877
11583 2 20.9015 105.269 1.63072
12508 2 0.896155 108.42 -0.902525
6097 1 2.71113 108.412 0.32038
12520 2 3.62479 106.853 -0.912806
6096 1 5.43978 106.844 0.310102
12417 2 6.35241 108.42 -0.902585
12416 2 9.08101 106.853 -0.912821
5963 1 8.16737 108.412 0.320381
12219 2 11.8087 108.42 -0.902617
5976 1 10.896 106.844 0.310108
12232 2 14.5372 106.853 -0.912829
5745 1 13.6236 108.412 0.320375
11942 2 17.2649 108.42 -0.902558
5744 1 16.3523 106.844 0.310106
11941 2 19.9935 106.853 -0.912815
6139 1 21.8085 106.844 0.310101
5429 1 19.0799 108.412 0.320374
12507 2 0.89544 111.555 -0.885226
6083 1 2.71035 111.548 0.337768
12506 2 3.62392 109.988 -0.893386
6099 1 5.43882 109.98 0.329586
12419 2 9.08015 109.988 -0.893413
12402 2 6.35167 111.555 -0.885223
5962 1 8.16658 111.548 0.337771
12218 2 11.8079 111.555 -0.88525
5961 1 10.8951 109.98 0.329589
12217 2 14.5363 109.988 -0.893383
5730 1 13.6228 111.548 0.337764
11929 2 17.2642 111.555 -0.885253
5747 1 16.3513 109.98 0.329593
6134 1 21.8075 109.98 0.329589
11944 2 19.9926 109.988 -0.893356
5428 1 19.0791 111.548 0.337761
12496 2 0.895036 114.69 -0.872079
6082 1 2.70988 114.685 0.350991
12509 2 3.62329 113.122 -0.878131
6081 1 5.43819 113.117 0.34491
12400 2 9.07955 113.122 -0.878135
12401 2 6.35124 114.69 -0.872049
5943 1 8.16613 114.685 0.35099
12199 2 11.8075 114.689 -0.871994
5964 1 10.8944 113.117 0.344902
12220 2 14.5358 113.122 -0.878119
5729 1 13.6224 114.685 0.350995
11928 2 17.2637 114.69 -0.872024
5728 1 16.3507 113.117 0.3449
6135 1 21.8069 113.117 0.344908
11927 2 19.992 113.122 -0.878114
5413 1 19.0786 114.685 0.350996
12495 2 0.894869 117.824 -0.863063
6067 1 2.70973 117.821 0.359988
12494 2 3.62301 116.257 -0.867015
6084 1 5.43789 116.253 0.356025
12379 2 6.35113 117.824 -0.86306
12403 2 9.07925 116.257 -0.866983
5942 1 8.16596 117.821 0.359983
12198 2 11.8073 117.824 -0.86304
5941 1 10.8941 116.253 0.356022
12197 2 14.5355 116.257 -0.867
5706 1 13.6222 117.821 0.359989
11907 2 17.2636 117.824 -0.863044
5731 1 16.3504 116.253 0.356023
11930 2 19.9918 116.257 -0.867033
6130 1 21.8066 116.253 0.356026
5412 1 19.0784 117.821 0.359994
12484 2 0.894975 120.958 -0.858251
6066 1 2.70983 120.957 0.364715
12497 2 3.62303 119.391 -0.860139
6065 1 5.43787 119.389 0.362883
12377 2 9.07928 119.391 -0.860164
12378 2 6.35124 120.958 -0.858294
5916 1 8.16607 120.957 0.364719
12171 2 11.8075 120.958 -0.858362
5944 1 10.8941 119.389 0.362886
12200 2 14.5355 119.391 -0.86017
5705 1 13.6223 120.957 0.36471
11906 2 17.2637 120.958 -0.858319
5704 1 16.3503 119.389 0.362886
11905 2 19.9917 119.391 -0.860144
6131 1 21.8066 119.389 0.362883
5389 1 19.0786 120.957 0.364706
12483 2 0.895395 124.092 -0.857794
6051 1 2.71019 124.092 0.365185
12482 2 3.62329 122.525 -0.857502
6068 1 5.4381 122.525 0.365476
12380 2 9.07953 122.525 -0.857521
12355 2 6.35161 124.092 -0.857787
5915 1 8.16643 124.092 0.365186
5914 1 10.8943 122.525 0.365479
12170 2 11.8079 124.092 -0.85778
12169 2 14.5358 122.525 -0.857515
5674 1 13.6227 124.092 0.365187
5707 1 16.3506 122.525 0.365478
11877 2 17.2641 124.092 -0.857787
11908 2 19.992 122.525 -0.857496
6126 1 21.8068 122.525 0.365474
5388 1 19.0789 124.092 0.365185
12472 2 0.895978 127.226 -0.861726
6050 1 2.7108 127.228 0.361416
12485 2 3.62377 125.659 -0.859192
6049 1 5.43858 125.66 0.363839
12353 2 9.07998 125.659 -0.859154
12354 2 6.3522 127.226 -0.861695
5888 1 8.16704 127.228 0.361414
5917 1 10.8948 125.66 0.363842
12136 2 11.8084 127.226 -0.861635
12172 2 14.5362 125.659 -0.859163
5673 1 13.6233 127.228 0.361428
5672 1 16.3511 125.66 0.363842
11876 2 17.2646 127.226 -0.861665
11875 2 19.9925 125.659 -0.859201
6127 1 21.8073 125.66 0.363839
5357 1 19.0795 127.228 0.36143
12471 2 0.896701 130.361 -0.869797
6035 1 2.71165 130.364 0.35331
12470 2 3.62442 128.793 -0.865254
6052 1 5.43932 128.796 0.357913
12356 2 9.08067 128.793 -0.865266
12331 2 6.35297 130.361 -0.869808
5887 1 8.16787 130.364 0.353305
5886 1 10.8956 128.796 0.357907
12135 2 11.8092 130.361 -0.869844
12134 2 14.5369 128.793 -0.865245
5635 1 13.6241 130.364 0.353296
5675 1 16.3518 128.796 0.357914
11839 2 17.2654 130.361 -0.869833
11878 2 19.9931 128.793 -0.865231
6122 1 21.808 128.796 0.357919
5356 1 19.0804 130.364 0.353301
12473 2 3.62533 131.928 -0.875388
6033 1 5.44025 131.932 0.347607
12329 2 9.08159 131.928 -0.875403
5889 1 10.8965 131.932 0.347604
12137 2 14.5378 131.928 -0.875404
5633 1 16.3527 131.932 0.347604
11837 2 19.994 131.928 -0.875389
6123 1 21.809 131.932 0.347607
12460 2 0.89773 133.495 -0.882033
6034 1 2.71266 133.5 0.340866
12458 2 3.62643 135.062 -0.889835
6036 1 5.44136 135.069 0.333083
12330 2 6.35397 133.495 -0.882039
12332 2 9.08266 135.062 -0.889812
5860 1 8.1689 133.5 0.340863
12100 2 11.8103 133.495 -0.88206
5858 1 10.8976 135.069 0.333076
12098 2 14.5389 135.062 -0.889848
5634 1 13.6251 133.5 0.340856
11838 2 17.2665 133.495 -0.882055
5636 1 16.3538 135.069 0.333073
11840 2 19.9952 135.062 -0.889871
6118 1 21.8101 135.069 0.333081
5317 1 19.0814 133.5 0.34086
12459 2 0.89899 136.629 -0.898791
6019 1 2.7139 136.637 0.324232
12461 2 3.6278 138.197 -0.908707
6017 1 5.44275 138.205 0.314333
12305 2 9.08406 138.197 -0.908727
12307 2 6.3552 136.629 -0.898781
5859 1 8.17015 136.637 0.324236
12099 2 11.8114 136.629 -0.898738
5861 1 10.899 138.205 0.314327
12101 2 14.5403 138.197 -0.90869
5595 1 13.6264 136.637 0.324233
11794 2 17.2677 136.629 -0.898746
5593 1 16.3552 138.205 0.31431
11792 2 19.9965 138.197 -0.908671
6119 1 21.8115 138.205 0.314318
5316 1 19.0826 136.637 0.324227
12448 2 0.900465 139.765 -0.919607
6018 1 2.71547 139.773 0.30332
12446 2 3.62947 141.332 -0.931668
6020 1 5.44453 141.342 0.291249
12306 2 6.35673 139.765 -0.919634
12308 2 9.08573 141.332 -0.931676
5832 1 8.1717 139.773 0.303343
12064 2 11.813 139.765 -0.919679
5830 1 10.9008 141.342 0.291277
12062 2 14.542 141.332 -0.931674
5594 1 13.628 139.773 0.303338
11793 2 17.2692 139.765 -0.919651
5596 1 16.357 141.342 0.291273
11795 2 19.9982 141.332 -0.931667
6114 1 21.8132 141.342 0.291243
5270 1 19.0842 139.773 0.303314
12447 2 0.902263 142.9 -0.944769
6004 1 2.71747 142.911 0.278155
12436 2 1.81075 144.493 1.59595
12449 2 3.63139 144.468 -0.958899
6002 1 5.44672 144.479 0.264021
12279 2 4.53782 142.923 1.61012
12282 2 9.08761 144.468 -0.958899
12284 2 6.35848 142.9 -0.944762
5831 1 8.17371 142.911 0.27815
12281 2 7.267 144.493 1.59592
12063 2 11.8147 142.9 -0.944715
5833 1 10.903 144.479 0.264021
12028 2 9.99412 142.923 1.61009
12065 2 14.5438 144.468 -0.958854
5556 1 13.6299 142.911 0.278153
11743 2 15.4503 142.923 1.61012
12026 2 12.7232 144.493 1.59586
11748 2 17.271 142.9 -0.944721
5554 1 16.3592 144.479 0.264026
11745 2 18.1795 144.493 1.59589
11746 2 20.0001 144.468 -0.958857
6115 1 21.8154 144.479 0.264027
5269 1 19.0862 142.911 0.27816
11416 2 20.9065 142.923 1.61015
12440 2 0.904314 146.036 -0.973945
6003 1 2.71981 146.048 0.248926
12437 2 1.81316 147.632 1.56461
12438 2 3.63356 147.604 -0.989934
6005 1 5.44921 147.617 0.232863
12264 2 4.54005 146.062 1.58076
12283 2 6.36055 146.036 -0.973985
12285 2 9.08984 147.604 -0.989943
5808 1 8.17607 146.048 0.248925
12262 2 7.2694 147.632 1.56467
12032 2 11.8168 146.036 -0.97397
5806 1 10.9055 147.617 0.23285
12027 2 9.9963 146.062 1.58073
12030 2 14.5461 147.604 -0.989965
5555 1 13.6323 146.048 0.248922
11704 2 15.4525 146.062 1.58073
12029 2 12.7257 147.632 1.56463
11747 2 17.273 146.036 -0.973928
5557 1 16.3617 147.617 0.23284
11702 2 18.1819 147.632 1.56457
11749 2 20.0023 147.604 -0.989956
6113 1 21.8179 147.617 0.232853
5223 1 19.0885 146.048 0.248921
11415 2 20.9088 146.062 1.58076
12439 2 0.906665 149.173 -1.00693
5993 1 2.72246 149.187 0.215809
8163 2 1.81574 150.772 1.52951
8173 2 3.63607 150.742 -1.02489
2009 1 5.452 150.756 0.197866
12263 2 4.5426 149.202 1.54753
12265 2 6.3629 149.173 -1.00691
5807 1 8.17869 149.187 0.215812
8073 2 9.09228 150.742 -1.02483
8072 2 7.27196 150.772 1.52954
12031 2 11.8192 149.173 -1.00698
1885 1 10.9082 150.756 0.197862
12001 2 9.9988 149.202 1.54755
5521 1 13.6349 149.187 0.215809
7885 2 14.5486 150.742 -1.02487
11703 2 15.455 149.202 1.54752
7874 2 12.7282 150.772 1.52958
11705 2 17.2754 149.173 -1.007
1657 1 16.3645 150.756 0.197849
7595 2 18.1845 150.772 1.52955
5222 1 19.0912 149.187 0.215807
7596 2 20.0049 150.742 -1.02493
2046 1 21.8207 150.756 0.197852
11368 2 20.9113 149.202 1.5475
6094 1 0.895294 102.12 2.87126
12410 2 2.71381 102.112 4.17232
6092 1 3.6226 103.69 2.88478
12411 2 5.4411 103.683 4.18583
5971 1 6.35153 102.12 2.87126
12211 2 8.17003 102.112 4.17231
5972 1 9.07884 103.69 2.88478
5742 1 11.8078 102.12 2.87125
12209 2 10.8973 103.683 4.18582
11935 2 13.6263 102.112 4.1723
5740 1 14.5351 103.69 2.88478
5434 1 17.264 102.12 2.87125
11936 2 16.3536 103.683 4.18581
11581 2 19.0825 102.112 4.1723
12502 2 21.8098 103.683 4.18581
5435 1 19.9913 103.69 2.88477
6093 1 0.893769 105.26 2.89725
12394 2 2.71226 105.254 4.19827
5959 1 6.35 105.26 2.89726
12210 2 8.16851 105.254 4.19828
5741 1 11.8062 105.26 2.89726
11921 2 13.6247 105.254 4.1983
5426 1 17.2625 105.26 2.89726
11580 2 19.0809 105.254 4.19829
12504 2 1.80409 106.838 1.64209
6079 1 0.892579 108.4 2.91905
12393 2 2.71104 108.395 4.2201
12398 2 4.53167 108.407 1.65241
6095 1 3.62125 106.83 2.90868
12392 2 5.43973 106.824 4.2097
12415 2 7.26032 106.838 1.64208
5957 1 9.07749 106.83 2.90869
5958 1 6.34882 108.4 2.91906
12191 2 8.16728 108.395 4.22011
12214 2 9.9879 108.407 1.65241
5726 1 11.8051 108.4 2.91905
12212 2 10.896 106.824 4.20974
11925 2 15.4442 108.407 1.6524
12213 2 12.7166 106.838 1.64208
5743 1 14.5337 106.83 2.90869
11920 2 13.6235 108.395 4.2201
11940 2 18.1728 106.838 1.64209
5425 1 17.2613 108.4 2.91905
11919 2 16.3522 106.824 4.20974
11582 2 20.9004 108.407 1.6524
12503 2 21.8085 106.825 4.2097
5424 1 19.99 106.83 2.90868
11573 2 19.0798 108.395 4.22009
12505 2 1.80311 109.976 1.66168
6078 1 0.891735 111.54 2.9366
12371 2 2.71018 111.537 4.23769
12397 2 4.53088 111.545 1.66988
6077 1 3.62023 109.97 2.92836
12395 2 5.4387 109.966 4.22943
12396 2 7.25935 109.976 1.66168
5939 1 6.34798 111.54 2.93659
5960 1 9.07648 109.97 2.92836
12190 2 8.16643 111.537 4.23767
12195 2 9.98711 111.545 1.66993
5725 1 11.8042 111.54 2.9366
12189 2 10.8949 109.966 4.22941
11924 2 15.4433 111.545 1.66993
12216 2 12.7156 109.976 1.66168
5724 1 14.5327 109.97 2.92836
11899 2 13.6227 111.537 4.23764
11923 2 18.1718 109.976 1.66168
5410 1 17.2604 111.54 2.9366
11922 2 16.3512 109.966 4.2294
11575 2 20.8996 111.545 1.66988
12490 2 21.8074 109.966 4.22942
5427 1 19.9889 109.97 2.92837
11572 2 19.0789 111.537 4.23765
12492 2 1.80247 113.114 1.67706
6063 1 0.891231 114.679 2.94987
12370 2 2.7097 114.678 4.25096
12375 2 4.5304 114.683 1.68318
6080 1 3.61956 113.11 2.94376
12369 2 5.43803 113.107 4.24485
12399 2 7.2587 113.114 1.67708
5937 1 9.0758 113.11 2.94376
5938 1 6.34747 114.679 2.94987
12163 2 8.16594 114.678 4.25094
12194 2 9.98665 114.683 1.68318
5702 1 11.8037 114.679 2.94987
12192 2 10.8943 113.107 4.24481
12193 2 12.7149 113.114 1.67708
11903 2 15.4429 114.683 1.68318
5727 1 14.532 113.11 2.94377
11898 2 13.6221 114.678 4.25097
11926 2 18.1712 113.114 1.67706
5409 1 17.2599 114.679 2.94987
11897 2 16.3505 113.107 4.24483
11574 2 20.8991 114.683 1.68318
12491 2 21.8067 113.107 4.24487
5408 1 19.9883 113.11 2.94377
11557 2 19.0784 114.678 4.25099
12493 2 1.80215 116.252 1.68822
6062 1 0.891029 117.819 2.9589
12347 2 2.70948 117.819 4.25997
12374 2 4.53021 117.821 1.69219
6061 1 3.61921 116.249 2.95492
12372 2 5.43767 116.248 4.25599
12373 2 7.25839 116.252 1.68822
5912 1 6.34727 117.819 2.9589
5940 1 9.07545 116.249 2.95492
12162 2 8.1657 117.819 4.25999
12167 2 9.98647 117.821 1.69215
5701 1 11.8035 117.819 2.95889
12161 2 10.8939 116.248 4.25602
11902 2 15.4427 117.821 1.69216
12196 2 12.7146 116.252 1.68821
5700 1 14.5317 116.249 2.95491
11869 2 13.6219 117.819 4.26001
11901 2 18.1709 116.252 1.68821
5386 1 17.2597 117.819 2.95889
11900 2 16.3501 116.248 4.25604
11559 2 20.8989 117.821 1.6922
12478 2 21.8064 116.248 4.25601
5411 1 19.9879 116.249 2.95491
11556 2 19.0782 117.819 4.25999
12480 2 1.80212 119.389 1.69507
6047 1 0.891118 120.958 2.96365
12346 2 2.70954 120.959 4.26471
12351 2 4.53033 120.958 1.69689
6064 1 3.61916 119.388 2.96181
12345 2 5.43758 119.389 4.2629
12376 2 7.25836 119.389 1.69506
5910 1 9.0754 119.388 2.96181
5911 1 6.34736 120.958 2.96364
12128 2 8.16578 120.959 4.26473
12166 2 9.98655 120.958 1.69692
5670 1 11.8036 120.958 2.96365
12164 2 10.8938 119.389 4.26291
11873 2 15.4428 120.958 1.69691
12165 2 12.7146 119.389 1.69506
5703 1 14.5316 119.388 2.9618
11868 2 13.622 120.959 4.26471
11904 2 18.1708 119.389 1.69507
5385 1 17.2598 120.958 2.96365
11867 2 16.3501 119.389 4.26288
11558 2 20.8991 120.958 1.69688
12479 2 21.8063 119.389 4.26287
5384 1 19.9879 119.388 2.96181
11533 2 19.0783 120.959 4.26469
12481 2 1.80236 122.527 1.69767
12323 2 2.7099 124.1 4.26517
6046 1 0.891465 124.097 2.96409
12350 2 4.53069 124.096 1.69742
6045 1 3.61938 122.527 2.96441
12348 2 5.4378 122.53 4.26547
12349 2 7.25861 122.527 1.69768
5913 1 9.07562 122.527 2.9644
12127 2 8.16613 124.1 4.26515
5884 1 6.3477 124.097 2.96409
12132 2 9.98694 124.096 1.69741
12126 2 10.894 122.53 4.26547
5669 1 11.8039 124.097 2.9641
12168 2 12.7148 122.527 1.69769
11872 2 15.4432 124.096 1.69741
5668 1 14.5319 122.527 2.96441
11831 2 13.6224 124.1 4.26516
11871 2 18.1711 122.527 1.69769
11870 2 16.3503 122.53 4.26546
5354 1 17.2602 124.097 2.9641
11535 2 20.8994 124.096 1.69741
12466 2 21.8065 122.53 4.26546
5387 1 19.9881 122.527 2.96441
11532 2 19.0786 124.1 4.26517
12468 2 1.80283 125.665 1.69606
6031 1 0.89206 127.236 2.96027
12322 2 2.71045 127.241 4.26138
6048 1 3.61985 125.666 2.96271
12321 2 5.43828 125.671 4.26379
12327 2 4.53126 127.233 1.69359
12352 2 7.25907 125.665 1.69606
5882 1 9.07609 125.666 2.96272
5883 1 6.3483 127.236 2.96027
12092 2 8.16669 127.241 4.26136
12129 2 10.8945 125.671 4.26378
12131 2 9.98751 127.233 1.69357
5631 1 11.8045 127.236 2.96027
12130 2 12.7153 125.665 1.69605
5671 1 14.5323 125.666 2.96272
11835 2 15.4437 127.233 1.69358
11830 2 13.6229 127.241 4.26135
11874 2 18.1716 125.665 1.69605
11829 2 16.3507 125.671 4.26382
5353 1 17.2608 127.236 2.96027
12467 2 21.807 125.671 4.26382
5352 1 19.9886 125.666 2.96271
11534 2 20.9 127.233 1.6936
11501 2 19.0792 127.241 4.26137
12469 2 1.80349 128.802 1.69001
6030 1 0.892906 130.375 2.95217
12299 2 2.71124 130.382 4.25318
6029 1 3.62057 128.806 2.95676
12324 2 5.43893 128.811 4.25785
12326 2 4.53203 130.371 1.68536
12325 2 7.25972 128.802 1.69001
5885 1 9.07681 128.806 2.95677
5856 1 6.34914 130.375 2.95217
12091 2 8.1675 130.382 4.25321
12090 2 10.8952 128.811 4.25783
12096 2 9.98827 130.371 1.68538
5630 1 11.8054 130.375 2.95217
12133 2 12.716 128.802 1.69001
5629 1 14.5331 128.806 2.95677
11834 2 15.4445 130.371 1.68538
11786 2 13.6237 130.382 4.25322
11833 2 18.1722 128.802 1.69
11832 2 16.3514 128.811 4.25782
5314 1 17.2616 130.375 2.95217
12454 2 21.8076 128.811 4.25784
5355 1 19.9893 128.806 2.95676
11503 2 20.9008 130.371 1.68535
11500 2 19.08 130.382 4.25319
12456 2 1.80441 131.94 1.67969
6032 1 3.62152 131.945 2.94649
12297 2 5.43988 131.952 4.24746
12328 2 7.26064 131.94 1.67968
5854 1 9.07776 131.945 2.94648
12093 2 10.8961 131.952 4.24747
12094 2 12.7169 131.94 1.67969
5632 1 14.534 131.945 2.94648
11836 2 18.1731 131.94 1.6797
11784 2 16.3524 131.952 4.24746
12455 2 21.8086 131.952 4.24746
5312 1 19.9902 131.945 2.94649
12457 2 1.80559 135.077 1.66518
6015 1 0.893959 133.515 2.9397
12298 2 2.71233 133.523 4.24067
12303 2 4.53307 133.509 1.67297
6013 1 3.62269 135.085 2.93184
12300 2 5.44108 135.094 4.23283
12301 2 7.26184 135.078 1.6652
5855 1 6.35019 133.515 2.93971
5857 1 9.07892 135.085 2.93184
12056 2 8.16857 133.523 4.24067
12095 2 9.98929 133.509 1.67296
5591 1 11.8064 133.515 2.93971
12054 2 10.8973 135.094 4.23286
11790 2 15.4455 133.509 1.67296
12097 2 12.7181 135.078 1.66518
5589 1 14.5352 135.085 2.93185
11785 2 13.6248 133.523 4.24066
11788 2 18.1743 135.077 1.66517
5313 1 17.2627 133.515 2.9397
11787 2 16.3536 135.094 4.23284
11502 2 20.9018 133.509 1.67296
12442 2 21.8098 135.094 4.23281
5315 1 19.9914 135.085 2.93185
11461 2 19.0811 133.523 4.24066
12444 2 1.80709 138.215 1.64641
6014 1 0.895246 136.654 2.92293
12276 2 2.71364 136.664 4.22397
12302 2 4.53444 136.646 1.65632
6016 1 3.62411 138.224 2.91296
12274 2 5.44252 138.235 4.21404
12304 2 7.26331 138.215 1.64641
5826 1 9.08035 138.224 2.91296
5828 1 6.35149 136.654 2.92292
12055 2 8.16988 136.664 4.22397
12060 2 9.99067 136.646 1.65632
5590 1 11.8077 136.654 2.92292
12057 2 10.8988 138.235 4.21405
11789 2 15.4469 136.646 1.65633
12058 2 12.7196 138.215 1.64641
5592 1 14.5366 138.224 2.91296
11740 2 13.6261 136.664 4.22396
11791 2 18.1758 138.215 1.64641
5267 1 17.264 136.654 2.92294
11738 2 16.355 138.235 4.21406
11463 2 20.9031 136.646 1.65633
12443 2 21.8113 138.235 4.21405
5265 1 19.9928 138.224 2.91296
11460 2 19.0823 136.664 4.22397
12445 2 1.8088 141.354 1.62329
6000 1 0.896826 139.794 2.90192
12275 2 2.71527 139.805 4.20301
12280 2 4.53605 139.785 1.63543
5998 1 3.62589 141.364 2.88981
12277 2 5.44433 141.376 4.19092
12278 2 7.26504 141.354 1.62327
5827 1 6.35307 139.794 2.90191
5829 1 9.08214 141.364 2.88981
12024 2 8.1715 139.805 4.20302
12059 2 9.99226 139.785 1.63544
5552 1 11.8093 139.794 2.90192
12022 2 10.9006 141.376 4.19088
11744 2 15.4485 139.785 1.63541
12061 2 12.7212 141.354 1.6233
5550 1 14.5384 141.364 2.88981
11739 2 13.6277 139.805 4.20304
11742 2 18.1775 141.354 1.62332
5266 1 17.2655 139.794 2.90192
11741 2 16.3568 141.376 4.1909
11462 2 20.9048 139.785 1.6354
12434 2 21.813 141.376 4.19094
5268 1 19.9946 141.364 2.88981
11414 2 19.084 139.805 4.20303
5999 1 0.898839 142.934 2.87665
12260 2 2.71721 142.947 4.17776
6001 1 3.62807 144.505 2.86247
12258 2 5.44642 144.518 4.16362
5802 1 9.08432 144.505 2.86247
5804 1 6.35507 142.934 2.87665
12023 2 8.17345 142.947 4.17777
5551 1 11.8113 142.934 2.87665
12025 2 10.9027 144.517 4.16361
5553 1 14.5406 144.505 2.86247
11700 2 13.6297 142.947 4.17777
5220 1 17.2675 142.934 2.87664
11698 2 16.3589 144.518 4.16361
12435 2 21.8151 144.518 4.16361
5218 1 19.9968 144.505 2.86247
11413 2 19.0859 142.947 4.17776
5992 1 0.901145 146.075 2.84729
12259 2 2.71952 146.088 4.14848
5990 1 3.63054 147.645 2.83112
12261 2 5.44891 147.659 4.13227
5803 1 6.35739 146.075 2.84728
5805 1 9.08677 147.645 2.83112
12000 2 8.17575 146.089 4.14844
5520 1 11.8136 146.075 2.84728
11998 2 10.9051 147.66 4.13227
5518 1 14.543 147.645 2.83111
11699 2 13.632 146.088 4.14843
5219 1 17.2699 146.075 2.84728
11701 2 16.3614 147.659 4.13223
12433 2 21.8177 147.659 4.13223
5221 1 19.9993 147.645 2.83111
11367 2 19.0883 146.088 4.14847
5991 1 0.903775 149.216 2.81396
12249 2 2.72214 149.23 4.11506
2008 1 3.63332 150.786 2.79586
8057 2 5.45161 150.802 4.09695
5785 1 6.36001 149.216 2.81396
11999 2 8.17835 149.231 4.1151
1874 1 9.08954 150.786 2.79587
5519 1 11.8162 149.216 2.81397
7873 2 10.9078 150.802 4.09703
11665 2 13.6346 149.231 4.11509
1656 1 14.5458 150.786 2.79588
5177 1 17.2725 149.216 2.81396
7582 2 16.364 150.802 4.09705
11366 2 19.0909 149.231 4.11504
8162 2 21.8203 150.802 4.09697
1337 1 20.002 150.786 2.79587
12390 2 0.893562 102.095 6.74419
6091 1 1.8026 103.675 5.46703
5955 1 4.53158 102.103 5.45347
12388 2 3.62085 103.668 6.75766
12207 2 6.34979 102.095 6.74415
5953 1 7.25884 103.675 5.46703
12208 2 9.07707 103.668 6.75766
5738 1 9.98782 102.103 5.45347
11917 2 11.806 102.095 6.74414
5422 1 15.444 102.103 5.45347
5739 1 12.7151 103.675 5.46703
11915 2 14.5333 103.668 6.75765
11578 2 17.2623 102.095 6.74418
5420 1 18.1713 103.675 5.46703
5056 1 20.9003 102.103 5.45347
11579 2 19.9896 103.668 6.75765
12389 2 0.891939 105.24 6.77016
5954 1 4.52995 105.246 5.47956
12187 2 6.34818 105.24 6.77016
5722 1 9.9862 105.246 5.47955
11916 2 11.8044 105.24 6.77013
5421 1 15.4424 105.246 5.47956
11570 2 17.2607 105.24 6.77012
5055 1 20.8987 105.246 5.47957
6075 1 1.80116 106.818 5.49104
12367 2 0.890725 108.384 6.792
5935 1 4.5287 108.39 5.50145
12391 2 3.61941 106.812 6.7816
5956 1 7.2574 106.818 5.49104
12185 2 9.07567 106.812 6.7816
12186 2 6.34696 108.384 6.792
5721 1 9.98494 108.39 5.50146
11895 2 11.8032 108.384 6.79203
5406 1 15.4412 108.39 5.50145
5720 1 12.7136 106.818 5.49104
11918 2 14.5319 106.812 6.78162
5423 1 18.1699 106.818 5.49105
11569 2 17.2594 108.384 6.79202
5054 1 20.8974 108.39 5.50145
11568 2 19.9881 106.812 6.78162
6076 1 1.80011 109.961 5.51078
12366 2 0.889869 111.529 6.80953
5934 1 4.52783 111.532 5.51905
12365 2 3.61835 109.957 6.80131
5933 1 7.25634 109.961 5.51079
12159 2 6.3461 111.529 6.80952
12188 2 9.07461 109.957 6.8013
5698 1 9.98406 111.532 5.51906
11894 2 11.8023 111.529 6.80956
5405 1 15.4403 111.532 5.51904
5723 1 12.7126 109.961 5.51079
11893 2 14.5308 109.957 6.80133
5404 1 18.1688 109.961 5.51078
11554 2 17.2585 111.529 6.80957
5047 1 20.8966 111.532 5.51904
11571 2 19.9871 109.957 6.80134
6059 1 1.79939 113.104 5.52624
12343 2 0.889309 114.673 6.82283
5908 1 4.52729 114.675 5.53237
12368 2 3.61767 113.101 6.81672
5936 1 7.25563 113.104 5.52625
12157 2 9.07387 113.101 6.81674
12158 2 6.34554 114.673 6.82286
5697 1 9.98353 114.675 5.53236
11865 2 11.8018 114.673 6.82283
5382 1 15.4398 114.675 5.53236
5696 1 12.7119 113.104 5.52624
11896 2 14.5301 113.101 6.81671
5407 1 18.1681 113.104 5.52623
11553 2 17.258 114.673 6.8228
5046 1 20.896 114.675 5.53237
11552 2 19.9864 113.101 6.81668
6060 1 1.79902 116.246 5.53743
12342 2 0.889062 117.817 6.83189
5907 1 4.52707 117.818 5.5414
12341 2 3.61726 116.245 6.82789
5906 1 7.25526 116.246 5.53742
12124 2 6.3453 117.817 6.83189
12160 2 9.0735 116.245 6.82791
5666 1 9.98331 117.818 5.5414
11864 2 11.8016 117.817 6.83185
5381 1 15.4395 117.818 5.54141
5699 1 12.7115 116.246 5.53741
11863 2 14.5298 116.245 6.82788
5380 1 18.1677 116.246 5.53742
11530 2 17.2578 117.817 6.83186
5031 1 20.8958 117.818 5.54141
11555 2 19.986 116.245 6.82786
6043 1 1.79894 119.389 5.54431
12319 2 0.889132 120.961 6.83661
5880 1 4.52713 120.96 5.54615
12344 2 3.61719 119.389 6.83478
5909 1 7.25518 119.389 5.54431
12122 2 9.07344 119.389 6.83475
12123 2 6.34539 120.961 6.83659
5665 1 9.98336 120.96 5.54616
11827 2 11.8016 120.961 6.8366
5350 1 15.4396 120.96 5.54616
5664 1 12.7114 119.389 5.54432
11866 2 14.5297 119.389 6.83477
5383 1 18.1677 119.389 5.54432
11529 2 17.2578 120.961 6.83662
5030 1 20.8958 120.96 5.54615
11528 2 19.9859 119.389 6.83481
6044 1 1.79914 122.531 5.54691
12318 2 0.889457 124.106 6.83701
5879 1 4.52745 124.103 5.5466
12317 2 3.61739 122.534 6.83735
5878 1 7.25538 122.531 5.54691
12088 2 6.34569 124.106 6.83703
12125 2 9.07364 122.534 6.83734
5627 1 9.98369 124.103 5.5466
11826 2 11.8019 124.106 6.83704
5349 1 15.4399 124.103 5.54659
5667 1 12.7116 122.531 5.54692
11825 2 14.5298 122.534 6.83736
5348 1 18.1679 122.531 5.54691
11498 2 17.2582 124.106 6.83703
5007 1 20.8962 124.103 5.54659
11531 2 19.9861 122.534 6.83737
6027 1 1.7996 125.674 5.54521
12295 2 0.890012 127.25 6.83317
12320 2 3.61781 125.678 6.83562
5852 1 4.52804 127.245 5.54274
5881 1 7.25584 125.674 5.5452
12086 2 9.07405 125.678 6.83564
12087 2 6.34622 127.25 6.83317
5626 1 9.98428 127.245 5.54273
11782 2 11.8025 127.25 6.83316
5625 1 12.7121 125.674 5.54519
11828 2 14.5303 125.678 6.83563
5310 1 15.4405 127.245 5.54273
5351 1 18.1683 125.674 5.5452
11497 2 17.2587 127.25 6.83315
11496 2 19.9866 125.678 6.83562
5006 1 20.8968 127.245 5.54274
6028 1 1.80031 128.816 5.5392
12294 2 0.890786 130.394 6.82504
12293 2 3.61849 128.822 6.82964
5851 1 4.52887 130.388 5.53458
5850 1 7.25654 128.816 5.5392
12089 2 9.0747 128.822 6.82965
12052 2 6.34704 130.394 6.82503
5587 1 9.9851 130.388 5.53459
11781 2 11.8032 130.394 6.82505
5628 1 12.7128 128.816 5.53919
11780 2 14.5309 128.822 6.82963
5309 1 15.4413 130.388 5.53459
5308 1 18.169 128.816 5.53919
11458 2 17.2595 130.394 6.82506
11499 2 19.9872 128.822 6.82962
4975 1 20.8976 130.388 5.53458
6011 1 1.80123 131.959 5.5289
12296 2 3.61941 131.966 6.81938
5853 1 7.25747 131.959 5.5289
12050 2 9.07566 131.966 6.81937
5585 1 12.7137 131.959 5.5289
11783 2 14.5319 131.966 6.81939
5311 1 18.1699 131.959 5.5289
11456 2 19.9881 131.966 6.81939
6012 1 1.80241 135.102 5.51429
12272 2 0.891874 133.538 6.81263
5824 1 4.5299 133.53 5.52214
12270 2 3.62063 135.11 6.80477
5822 1 7.25865 135.102 5.51429
12051 2 6.34811 133.538 6.81261
12053 2 9.07687 135.11 6.80474
5586 1 9.98614 133.53 5.52214
11736 2 11.8043 133.538 6.81261
5263 1 15.4424 133.53 5.52213
5588 1 12.7149 135.102 5.51429
11734 2 14.5331 135.11 6.80475
5261 1 18.1711 135.102 5.51429
11457 2 17.2606 133.538 6.81263
4974 1 20.8986 133.53 5.52213
11459 2 19.9893 135.11 6.80478
5996 1 1.80391 138.244 5.49534
12271 2 0.893182 136.682 6.79582
5823 1 4.53123 136.673 5.50536
12273 2 3.62207 138.254 6.78584
5825 1 7.26015 138.245 5.49534
12018 2 9.0783 138.254 6.78587
12020 2 6.34942 136.682 6.79586
5548 1 9.98747 136.673 5.50536
11735 2 11.8057 136.682 6.79582
5262 1 15.4437 136.673 5.50535
5546 1 12.7164 138.245 5.49535
11737 2 14.5345 138.254 6.78587
5264 1 18.1726 138.244 5.49534
11411 2 17.2619 136.682 6.79579
4935 1 20.9 136.673 5.50535
11409 2 19.9908 138.254 6.78584
5997 1 1.80574 141.387 5.47216
12256 2 0.894765 139.827 6.77485
5800 1 4.53291 139.816 5.48426
12254 2 3.62381 141.399 6.76285
5798 1 7.26199 141.387 5.47215
12019 2 6.35101 139.827 6.77483
12021 2 9.08008 141.399 6.76283
5547 1 9.98915 139.816 5.48427
11696 2 11.8073 139.827 6.77488
5216 1 15.4454 139.816 5.48428
5549 1 12.7182 141.387 5.47215
11694 2 14.5363 141.399 6.76284
5214 1 18.1745 141.387 5.47216
11410 2 17.2635 139.827 6.7749
4934 1 20.9016 139.816 5.48427
11412 2 19.9925 141.399 6.76286
5988 1 1.80792 144.53 5.44485
12255 2 0.896717 142.971 6.74979
5799 1 4.53491 142.959 5.45902
12257 2 3.62596 144.543 6.73569
5801 1 7.26415 144.53 5.44487
11994 2 9.08219 144.543 6.73573
11996 2 6.35296 142.971 6.74979
5516 1 9.99116 142.959 5.45901
11695 2 11.8092 142.971 6.74977
5215 1 15.4474 142.959 5.45901
5514 1 12.7204 144.53 5.44485
11697 2 14.5385 144.543 6.73569
5217 1 18.1766 144.53 5.44484
11364 2 17.2654 142.971 6.74977
4889 1 20.9036 142.959 5.45901
11362 2 19.9947 144.543 6.73565
5989 1 1.81042 147.674 5.41349
12248 2 0.899102 146.115 6.72054
5784 1 4.53723 146.102 5.42968
12246 2 3.62851 147.687 6.70437
5782 1 7.26665 147.674 5.4135
11995 2 6.35534 146.115 6.72058
11997 2 9.08472 147.687 6.70439
5515 1 9.99347 146.102 5.42968
11664 2 11.8116 146.115 6.72058
5176 1 15.4497 146.102 5.42967
5517 1 12.7229 147.674 5.41351
11662 2 14.5409 147.687 6.70443
5174 1 18.1791 147.674 5.4135
11363 2 17.2678 146.115 6.72055
4888 1 20.906 146.102 5.42967
11365 2 19.9972 147.687 6.70441
12247 2 0.901708 149.26 6.68728
1994 1 1.8132 150.817 5.37819
5783 1 4.53991 149.245 5.39633
8056 2 3.63121 150.832 6.6692
11977 2 6.35796 149.26 6.68721
1873 1 7.26944 150.817 5.37818
7854 2 9.08752 150.832 6.66912
5489 1 9.99613 149.245 5.39634
11663 2 11.8142 149.26 6.68725
5175 1 15.4524 149.245 5.39634
1641 1 12.7257 150.817 5.37819
7581 2 14.5437 150.832 6.66917
11321 2 17.2704 149.26 6.68732
1336 1 18.1819 150.817 5.37821
4843 1 20.9086 149.245 5.39633
7225 2 19.9999 150.832 6.66924
5951 1 2.71145 102.087 8.03025
12387 2 1.80073 103.653 9.3308
12183 2 4.52969 102.079 9.31737
5952 1 5.43871 103.66 8.04378
5718 1 8.1677 102.087 8.03025
12181 2 7.25696 103.653 9.33083
11913 2 9.98591 102.079 9.31739
5716 1 10.8949 103.66 8.04379
5418 1 13.6239 102.087 8.03025
11566 2 15.4422 102.079 9.31738
11914 2 12.7132 103.653 9.33084
11564 2 18.1694 103.653 9.33081
5419 1 16.3512 103.66 8.04379
5053 1 19.0802 102.087 8.03025
11200 2 20.8984 102.079 9.31736
6073 1 21.8074 103.66 8.04378
5931 1 2.70981 105.233 8.05628
12182 2 4.52809 105.227 9.34324
5717 1 8.16605 105.233 8.05629
11891 2 9.98432 105.227 9.34323
5402 1 13.6223 105.233 8.05628
11565 2 15.4406 105.227 9.34321
5052 1 19.0785 105.233 8.05628
11199 2 20.8968 105.227 9.34322
5930 1 2.70856 108.379 8.07811
12363 2 1.79932 106.8 9.35463
5929 1 5.43726 106.806 8.06772
12155 2 4.5269 108.374 9.36493
5694 1 8.16479 108.379 8.07811
12184 2 7.25558 106.8 9.3546
5719 1 10.8935 106.806 8.06772
11890 2 9.98313 108.374 9.36495
5401 1 13.621 108.379 8.07811
11550 2 15.4393 108.374 9.36497
11889 2 12.7118 106.8 9.3546
5400 1 16.3497 106.806 8.06773
11567 2 18.168 106.8 9.35462
6074 1 21.806 106.806 8.06773
5045 1 19.0773 108.379 8.07811
11198 2 20.8956 108.374 9.36496
5904 1 2.70768 111.525 8.0957
12364 2 1.79828 109.948 9.37421
5932 1 5.43619 109.952 8.08744
12154 2 4.526 111.521 9.38245
5693 1 8.16393 111.525 8.09568
12153 2 7.25449 109.948 9.37423
5692 1 10.8924 109.952 8.08742
11861 2 9.98225 111.521 9.38241
5378 1 13.6202 111.525 8.09569
11549 2 15.4385 111.521 9.3824
11892 2 12.7108 109.948 9.37423
5403 1 16.3487 109.952 8.08742
11548 2 18.167 109.948 9.3742
6057 1 21.8049 109.952 8.08744
5044 1 19.0764 111.525 8.0957
11191 2 20.8947 111.521 9.38244
5903 1 2.70714 114.671 8.10901
12339 2 1.7976 113.095 9.38959
5902 1 5.43549 113.098 8.10288
12120 2 4.52549 114.669 9.39567
5662 1 8.16338 114.671 8.10901
12156 2 7.25383 113.095 9.38958
5695 1 10.8917 113.098 8.10289
11860 2 9.98174 114.669 9.39565
5377 1 13.6196 114.671 8.10901
11526 2 15.438 114.669 9.39566
11859 2 12.7101 113.095 9.38956
5376 1 16.348 113.098 8.10289
11551 2 18.1663 113.095 9.38956
6058 1 21.8042 113.098 8.10288
5029 1 19.0759 114.671 8.10901
11190 2 20.8942 114.669 9.39568
5876 1 2.70691 117.817 8.11803
12340 2 1.79722 116.243 9.40068
5905 1 5.43511 116.244 8.11405
12119 2 4.52528 117.816 9.40464
5661 1 8.16314 117.817 8.11805
12118 2 7.2535 116.243 9.40066
5660 1 10.8913 116.244 8.11407
11823 2 9.98152 117.816 9.40467
5346 1 13.6194 117.817 8.11804
11525 2 15.4377 117.816 9.40469
11862 2 12.7097 116.243 9.40071
5379 1 16.3476 116.244 8.11407
11524 2 18.1659 116.243 9.40074
6041 1 21.8038 116.244 8.11405
5028 1 19.0756 117.817 8.11803
11175 2 20.894 117.816 9.40465
5875 1 2.70696 120.963 8.12277
12315 2 1.79715 119.39 9.40756
5874 1 5.43502 119.39 8.12094
12084 2 4.52532 120.964 9.40941
5623 1 8.16321 120.963 8.12276
12121 2 7.25338 119.39 9.40757
5663 1 10.8913 119.39 8.12094
11822 2 9.98154 120.964 9.40939
5345 1 13.6194 120.963 8.12276
11494 2 15.4378 120.964 9.40937
11821 2 12.7096 119.39 9.40757
5344 1 16.3475 119.39 8.12094
11527 2 18.1659 119.39 9.40755
6042 1 21.8037 119.39 8.12094
5005 1 19.0757 120.963 8.12277
11174 2 20.894 120.964 9.40939
5848 1 2.70727 124.108 8.12319
12316 2 1.79732 122.537 9.41016
5877 1 5.4352 122.535 8.12352
12083 2 4.52563 124.111 9.40982
5622 1 8.16351 124.108 8.1232
12082 2 7.25354 122.537 9.41019
5621 1 10.8915 122.535 8.12351
11778 2 9.98186 124.111 9.40983
5306 1 13.6197 124.108 8.1232
11493 2 15.4381 124.111 9.40982
11824 2 12.7098 122.537 9.41012
5347 1 16.3477 122.535 8.12351
11492 2 18.166 122.537 9.4101
6025 1 21.8039 122.535 8.12353
5004 1 19.076 124.108 8.12319
11151 2 20.8943 124.111 9.4098
12291 2 1.79774 125.685 9.40839
5847 1 2.70783 127.254 8.11932
5846 1 5.43564 125.681 8.1218
12048 2 4.52615 127.258 9.40589
12085 2 7.25399 125.685 9.40838
5583 1 8.16406 127.254 8.11933
5624 1 10.8919 125.681 8.12181
11777 2 9.9824 127.258 9.40591
11776 2 12.7102 125.685 9.40842
5305 1 13.6203 127.254 8.11933
11454 2 15.4386 127.258 9.40595
5304 1 16.3481 125.681 8.1218
11495 2 18.1664 125.685 9.40843
6026 1 21.8044 125.681 8.12179
4973 1 19.0765 127.254 8.11933
11150 2 20.8949 127.258 9.40593
12292 2 1.79837 128.832 9.40238
5820 1 2.70861 130.4 8.11117
5849 1 5.43631 128.827 8.11578
12047 2 4.52687 130.406 9.39783
12046 2 7.25463 128.832 9.40235
5582 1 8.16485 130.4 8.11116
5581 1 10.8925 128.827 8.11579
11732 2 9.98315 130.406 9.39778
11779 2 12.7109 128.832 9.40237
5259 1 13.6211 130.4 8.11116
11453 2 15.4394 130.406 9.39777
5307 1 16.3488 128.827 8.11579
11452 2 18.1671 128.832 9.4024
6009 1 21.805 128.827 8.11578
4972 1 19.0773 130.4 8.11118
11119 2 20.8956 130.406 9.39782
12268 2 1.79924 131.979 9.39219
5818 1 5.4372 131.973 8.10548
12049 2 7.25546 131.979 9.39223
5584 1 10.8934 131.973 8.10547
11730 2 12.7117 131.979 9.39219
5257 1 16.3497 131.973 8.10548
11455 2 18.168 131.979 9.39215
6010 1 21.8059 131.973 8.10549
5819 1 2.70961 133.546 8.09873
12269 2 1.8004 135.127 9.3777
5821 1 5.43834 135.118 8.09091
12016 2 4.52791 133.553 9.3855
5544 1 8.16585 133.546 8.09872
12014 2 7.25662 135.127 9.3777
5542 1 10.8946 135.118 8.0909
11731 2 9.98413 133.553 9.38553
5258 1 13.6221 133.546 8.09873
11407 2 15.4404 133.553 9.3855
11733 2 12.7129 135.127 9.37772
5260 1 16.3508 135.118 8.09091
11405 2 18.1691 135.127 9.37772
5994 1 21.8071 135.118 8.09091
4933 1 19.0783 133.546 8.09873
11118 2 20.8966 133.553 9.38548
5796 1 2.71093 136.691 8.08203
12252 2 1.80181 138.274 9.35891
5794 1 5.43984 138.264 8.07207
12015 2 4.52918 136.7 9.3688
5543 1 8.16716 136.691 8.08203
12017 2 7.25806 138.274 9.35888
5545 1 10.8961 138.264 8.07207
11692 2 9.98541 136.7 9.36883
5212 1 13.6234 136.691 8.08202
11406 2 15.4416 136.7 9.36884
11690 2 12.7143 138.274 9.35888
5210 1 16.3523 138.264 8.07207
11408 2 18.1705 138.274 9.3589
5995 1 21.8086 138.264 8.07207
4932 1 19.0796 136.691 8.08202
11080 2 20.8979 136.7 9.36881
5795 1 2.71259 139.837 8.06107
12253 2 1.80353 141.421 9.33602
5797 1 5.44167 141.41 8.04902
11992 2 4.53075 139.848 9.34798
5512 1 8.16884 139.837 8.06106
11990 2 7.25977 141.421 9.33606
5510 1 10.8979 141.41 8.049
11691 2 9.98701 139.847 9.34794
5211 1 13.6251 139.837 8.06106
11360 2 15.4432 139.848 9.34795
11693 2 12.716 141.421 9.33604
5213 1 16.3542 141.41 8.049
11358 2 18.1723 141.421 9.336
5986 1 21.8104 141.41 8.04901
4887 1 19.0813 139.837 8.06107
11079 2 20.8995 139.848 9.34798
5780 1 2.71459 142.983 8.03593
12244 2 1.80565 144.568 9.30904
5778 1 5.44383 144.556 8.02183
11991 2 4.53267 142.995 9.32304
5511 1 8.17082 142.983 8.03593
11993 2 7.26188 144.568 9.30902
5513 1 10.9001 144.556 8.02184
11660 2 9.9889 142.995 9.32308
5172 1 13.6271 142.983 8.03593
11359 2 15.4451 142.995 9.32309
11658 2 12.7181 144.568 9.30907
5170 1 16.3563 144.556 8.02183
11361 2 18.1743 144.568 9.30909
5987 1 21.8125 144.556 8.02182
4886 1 19.0833 142.983 8.03593
11040 2 20.9014 142.995 9.32305
5779 1 2.7169 146.129 8.00671
12245 2 1.8081 147.715 9.27796
5781 1 5.4463 147.701 7.99059
11976 2 4.53495 146.142 9.29404
5488 1 8.17312 146.129 8.00672
11974 2 7.26432 147.715 9.27796
5486 1 10.9025 147.701 7.9906
11659 2 9.99119 146.142 9.29405
5171 1 13.6294 146.129 8.00671
11320 2 15.4474 146.142 9.29403
11661 2 12.7205 147.715 9.27798
5173 1 16.3588 147.701 7.9906
11318 2 18.1768 147.715 9.27798
5985 1 21.815 147.701 7.99059
4842 1 19.0856 146.129 8.0067
11039 2 20.9037 146.142 9.29402
5769 1 2.71952 149.274 7.97347
8034 2 1.81077 150.862 9.24299
11975 2 4.53748 149.288 9.26096
1854 1 5.44905 150.847 7.95534
5487 1 8.17577 149.274 7.97345
7853 2 7.267 150.862 9.24299
11633 2 9.99376 149.288 9.26093
1640 1 10.9053 150.847 7.9553
5137 1 13.632 149.274 7.97346
11319 2 15.45 149.288 9.26093
7560 2 12.7233 150.862 9.24293
1321 1 16.3615 150.847 7.95531
7224 2 18.1795 150.862 9.24294
4841 1 19.0882 149.274 7.97348
11000 2 20.9062 149.288 9.26095
1993 1 21.8178 150.847 7.95535
5927 1 0.891389 102.071 10.605
12179 2 2.70967 102.064 11.8908
5925 1 3.61867 103.646 10.6184
12180 2 5.437 103.639 11.9041
5714 1 6.34763 102.071 10.605
11887 2 8.16595 102.064 11.8908
5715 1 9.0749 103.646 10.6184
5398 1 11.8039 102.071 10.605
11885 2 10.8932 103.639 11.9041
11562 2 13.6222 102.064 11.8908
5396 1 14.5311 103.646 10.6184
5050 1 17.2601 102.071 10.605
11563 2 16.3494 103.638 11.9041
11197 2 19.0784 102.064 11.8908
12361 2 21.8057 103.639 11.9041
5051 1 19.9874 103.646 10.6184
5926 1 0.889807 105.22 10.6308
12151 2 2.70816 105.214 11.9164
5690 1 6.34604 105.22 10.6308
11886 2 8.16437 105.214 11.9164
5397 1 11.8023 105.22 10.6308
11546 2 13.6206 105.214 11.9164
5042 1 17.2585 105.22 10.6308
11196 2 19.0769 105.214 11.9164
5900 1 0.888596 108.369 10.6525
12150 2 2.70702 108.364 11.9379
5928 1 3.61727 106.794 10.6421
12149 2 5.43567 106.789 11.9277
5688 1 9.07352 106.794 10.6421
5689 1 6.34484 108.369 10.6525
11857 2 8.16327 108.364 11.9379
5374 1 11.8011 108.369 10.6524
11888 2 10.8919 106.789 11.9277
5399 1 14.5298 106.794 10.6421
11545 2 13.6195 108.364 11.9379
5041 1 17.2573 108.369 10.6525
11544 2 16.3482 106.789 11.9276
12362 2 21.8044 106.789 11.9276
5040 1 19.986 106.794 10.6421
11189 2 19.0758 108.364 11.9378
5899 1 0.887761 111.518 10.6699
12116 2 2.70623 111.514 11.9552
5898 1 3.61626 109.943 10.6617
12152 2 5.4347 109.939 11.9471
5658 1 6.344 111.518 10.6699
5691 1 9.07249 109.943 10.6617
11856 2 8.16249 111.514 11.9552
5373 1 11.8002 111.518 10.6699
11855 2 10.891 109.939 11.9471
5372 1 14.5287 109.943 10.6617
11522 2 13.6187 111.514 11.9552
5026 1 17.2565 111.518 10.6699
11547 2 16.3472 109.939 11.9471
12337 2 21.8034 109.939 11.9471
5043 1 19.985 109.943 10.6617
11188 2 19.0749 111.514 11.9552
5872 1 0.887252 114.667 10.6832
12115 2 2.70577 114.665 11.9683
5901 1 3.61559 113.092 10.6771
12114 2 5.4341 113.09 11.9623
5656 1 9.07182 113.092 10.6771
5657 1 6.34349 114.667 10.6832
11819 2 8.16199 114.665 11.9684
5342 1 11.7997 114.667 10.6832
11858 2 10.8903 113.09 11.9623
5375 1 14.5281 113.092 10.6771
11521 2 13.6182 114.665 11.9684
5025 1 17.256 114.667 10.6832
11520 2 16.3465 113.089 11.9623
5024 1 19.9843 113.092 10.6771
12338 2 21.8028 113.089 11.9623
11173 2 19.0745 114.665 11.9684
5871 1 0.88704 117.816 10.6922
12080 2 2.70555 117.815 11.9773
5870 1 3.61523 116.241 10.6882
12117 2 5.43374 116.24 11.9734
5619 1 6.34328 117.816 10.6922
5659 1 9.07147 116.241 10.6882
11818 2 8.1618 117.815 11.9773
5341 1 11.7995 117.816 10.6922
11817 2 10.89 116.24 11.9733
5340 1 14.5277 116.241 10.6882
11490 2 13.6181 117.815 11.9773
5002 1 17.2558 117.816 10.6922
11523 2 16.3462 116.24 11.9733
5027 1 19.9839 116.241 10.6882
12313 2 21.8025 116.24 11.9733
11172 2 19.0743 117.815 11.9772
5844 1 0.887102 120.965 10.6969
12079 2 2.70562 120.966 11.9819
5873 1 3.61516 119.39 10.695
12078 2 5.43368 119.391 11.9801
5617 1 9.0714 119.39 10.695
5618 1 6.34334 120.965 10.6969
11774 2 8.16185 120.966 11.9819
5302 1 11.7996 120.965 10.6969
11820 2 10.8899 119.391 11.9801
5343 1 14.5276 119.39 10.695
11489 2 13.6181 120.966 11.9819
5001 1 17.2558 120.965 10.6969
11488 2 16.3462 119.391 11.9801
5000 1 19.9839 119.39 10.695
12314 2 21.8024 119.391 11.9801
11149 2 19.0743 120.966 11.982
5843 1 0.887399 124.114 10.6973
12044 2 2.7059 124.116 11.9824
5842 1 3.61534 122.539 10.6976
12081 2 5.43386 122.541 11.9827
5579 1 6.34364 124.114 10.6973
5620 1 9.07158 122.539 10.6976
11773 2 8.16214 124.116 11.9824
5301 1 11.7999 124.114 10.6973
11772 2 10.8901 122.541 11.9827
5300 1 14.5278 122.539 10.6976
11450 2 13.6184 124.116 11.9824
4970 1 17.2561 124.114 10.6973
11491 2 16.3463 122.541 11.9827
5003 1 19.9841 122.539 10.6976
12289 2 21.8026 122.541 11.9827
11148 2 19.0746 124.116 11.9824
5816 1 0.887906 127.263 10.6934
12043 2 2.70639 127.267 11.9785
5845 1 3.61574 125.688 10.6959
12042 2 5.43422 125.692 11.981
5577 1 9.07199 125.688 10.6959
5578 1 6.34415 127.263 10.6934
11728 2 8.16262 127.267 11.9786
11775 2 10.8905 125.692 11.981
5255 1 11.8004 127.263 10.6934
5303 1 14.5282 125.688 10.6959
11449 2 13.6189 127.267 11.9785
11448 2 16.3467 125.692 11.981
4969 1 17.2566 127.263 10.6934
4968 1 19.9845 125.688 10.6959
12290 2 21.803 125.692 11.981
11117 2 19.0751 127.267 11.9785
5815 1 0.888629 130.412 10.6853
12012 2 2.7071 130.417 11.9704
5814 1 3.61636 128.837 10.6899
12045 2 5.43483 128.842 11.975
5580 1 9.0726 128.837 10.6899
5540 1 6.34486 130.412 10.6853
11727 2 8.16332 130.418 11.9704
11726 2 10.8911 128.842 11.975
5254 1 11.8011 130.412 10.6853
5253 1 14.5288 128.837 10.6899
11403 2 13.6195 130.418 11.9704
11451 2 16.3473 128.842 11.975
4930 1 17.2574 130.412 10.6853
4971 1 19.9851 128.837 10.6899
12266 2 21.8035 128.842 11.975
11116 2 19.0758 130.417 11.9704
5817 1 3.61719 131.986 10.6796
12010 2 5.43567 131.993 11.9648
5538 1 9.07342 131.986 10.6797
11729 2 10.8919 131.993 11.9648
5256 1 14.5297 131.986 10.6797
11401 2 16.3481 131.993 11.9649
4928 1 19.9859 131.986 10.6796
12267 2 21.8044 131.993 11.9648
5792 1 0.889572 133.561 10.6729
12011 2 2.70802 133.568 11.9582
5790 1 3.61827 135.135 10.6652
12013 2 5.43667 135.143 11.9505
5539 1 6.34581 133.561 10.6729
5541 1 9.07452 135.135 10.6652
11688 2 8.16428 133.568 11.9582
5208 1 11.802 133.561 10.6729
11686 2 10.8929 135.143 11.9505
5206 1 14.5308 135.135 10.6652
11402 2 13.6205 133.568 11.9582
4929 1 17.2583 133.561 10.6729
11404 2 16.3492 135.143 11.9505
4931 1 19.987 135.135 10.6652
12250 2 21.8054 135.143 11.9505
11078 2 19.0767 133.568 11.9582
5791 1 0.890824 136.709 10.6564
11988 2 2.70916 136.718 11.9417
5793 1 3.61968 138.284 10.6465
11986 2 5.43799 138.293 11.932
5506 1 9.07592 138.284 10.6465
5508 1 6.34706 136.709 10.6564
11687 2 8.16539 136.718 11.9418
5207 1 11.8033 136.709 10.6564
11689 2 10.8942 138.293 11.932
5209 1 14.5322 138.284 10.6465
11356 2 13.6216 136.718 11.9418
4884 1 17.2595 136.709 10.6564
11354 2 16.3505 138.293 11.932
4882 1 19.9884 138.284 10.6465
12251 2 21.8067 138.293 11.932
11077 2 19.0779 136.718 11.9418
5776 1 0.892384 139.858 10.6356
11987 2 2.71066 139.868 11.9212
5774 1 3.62142 141.432 10.6237
11989 2 5.43967 141.443 11.9094
5507 1 6.34863 139.858 10.6356
5509 1 9.07765 141.432 10.6237
11656 2 8.1669 139.868 11.9212
5168 1 11.8049 139.858 10.6356
11654 2 10.8959 141.443 11.9094
5166 1 14.5339 141.432 10.6237
11355 2 13.6231 139.868 11.9212
4883 1 17.2611 139.858 10.6356
11357 2 16.3521 141.443 11.9094
4885 1 19.9901 141.432 10.6237
12242 2 21.8084 141.443 11.9093
11038 2 19.0794 139.868 11.9212
5775 1 0.894305 143.007 10.6107
11972 2 2.71247 143.018 11.8965
5777 1 3.62351 144.581 10.5967
11970 2 5.44159 144.593 11.8827
5482 1 9.07976 144.581 10.5967
5484 1 6.35054 143.007 10.6107
11655 2 8.16873 143.018 11.8965
5167 1 11.8068 143.007 10.6107
11657 2 10.8978 144.593 11.8826
5169 1 14.536 144.581 10.5967
11316 2 13.625 143.018 11.8965
4839 1 17.263 143.007 10.6107
11314 2 16.3541 144.593 11.8826
4837 1 19.9922 144.581 10.5967
12243 2 21.8103 144.593 11.8827
11037 2 19.0812 143.018 11.8965
5768 1 0.896544 146.155 10.5817
11971 2 2.71463 146.168 11.8678
5766 1 3.6259 147.729 10.5657
11973 2 5.44393 147.742 11.8519
5483 1 6.35278 146.155 10.5817
5485 1 9.08214 147.729 10.5657
11632 2 8.17084 146.168 11.8678
5136 1 11.809 146.155 10.5817
11630 2 10.9002 147.742 11.8519
5134 1 14.5384 147.729 10.5658
11315 2 13.6271 146.168 11.8678
4838 1 17.2653 146.155 10.5817
11317 2 16.3564 147.742 11.8519
4840 1 19.9946 147.729 10.5658
12241 2 21.8126 147.742 11.8519
10999 2 19.0833 146.168 11.8678
5767 1 0.89908 149.303 10.5487
11961 2 2.71706 149.317 11.835
1853 1 3.62855 150.876 10.5307
7826 2 5.44652 150.891 11.8172
5465 1 6.35532 149.303 10.5487
11631 2 8.1733 149.317 11.835
1617 1 9.08479 150.876 10.5307
5135 1 11.8116 149.303 10.5487
7559 2 10.9028 150.891 11.8172
11281 2 13.6295 149.317 11.835
1320 1 14.541 150.876 10.5307
4798 1 17.2678 149.303 10.5487
7209 2 16.359 150.891 11.8172
10998 2 19.0858 149.317 11.835
953 1 19.9973 150.876 10.5307
8033 2 21.8152 150.891 11.8172
5924 1 1.79876 103.631 13.192
12147 2 0.889797 102.048 14.464
5682 1 2.7078 102.04 15.7519
5686 1 4.52764 102.056 13.1788
12145 2 3.61715 103.624 14.4771
5683 1 5.43525 103.617 15.765
5684 1 7.25501 103.631 13.192
11883 2 6.34602 102.048 14.464
5366 1 8.16403 102.04 15.7519
11884 2 9.07339 103.624 14.4771
5394 1 9.98389 102.056 13.1787
11542 2 11.8023 102.048 14.464
5364 1 10.8915 103.617 15.765
5038 1 15.4401 102.056 13.1787
5395 1 12.7112 103.631 13.192
5034 1 13.6203 102.04 15.752
11540 2 14.5296 103.624 14.4771
5036 1 18.1675 103.631 13.192
11194 2 17.2585 102.048 14.464
5035 1 16.3477 103.617 15.765
4688 1 20.8964 102.056 13.1788
4685 1 19.0765 102.04 15.7519
5894 1 21.804 103.617 15.765
11195 2 19.9859 103.624 14.4771
12146 2 0.888417 105.201 14.4892
5650 1 2.70654 105.194 15.777
5685 1 4.5262 105.207 13.2042
11853 2 6.34464 105.201 14.4892
5365 1 8.16278 105.194 15.777
5370 1 9.98244 105.207 13.2042
11541 2 11.8009 105.201 14.4892
5037 1 15.4387 105.207 13.2042
5018 1 13.619 105.194 15.777
11186 2 17.2571 105.201 14.4892
4687 1 20.8949 105.207 13.2042
4684 1 19.0753 105.194 15.777
5896 1 1.79749 106.783 13.2155
12112 2 0.8874 108.354 14.5104
5649 1 2.70559 108.349 15.7981
5654 1 4.52511 108.359 13.2256
12148 2 3.61599 106.777 14.5003
5648 1 5.43414 106.771 15.788
5687 1 7.25373 106.783 13.2155
11851 2 9.07226 106.777 14.5003
11852 2 6.34368 108.354 14.5104
5334 1 8.16184 108.349 15.7981
5369 1 9.98133 108.359 13.2257
11518 2 11.7999 108.354 14.5104
5367 1 10.8904 106.771 15.788
5022 1 15.4376 108.359 13.2257
5368 1 12.71 106.783 13.2155
11543 2 14.5285 106.777 14.5003
5017 1 13.6181 108.349 15.7981
5039 1 18.1662 106.783 13.2155
11185 2 17.2561 108.354 14.5104
5016 1 16.3466 106.771 15.788
4686 1 20.8938 108.359 13.2256
5895 1 21.8029 106.771 15.788
11184 2 19.9847 106.777 14.5003
4677 1 19.0743 108.349 15.7981
5897 1 1.79656 109.935 13.2348
12111 2 0.886732 111.507 14.5275
5611 1 2.70496 111.504 15.8151
5653 1 4.52433 111.511 13.2429
12110 2 3.61516 109.931 14.5195
5651 1 5.43336 109.926 15.8071
5652 1 7.25279 109.935 13.2348
11815 2 6.34296 111.507 14.5276
11854 2 9.07139 109.93 14.5195
5333 1 8.16119 111.504 15.8151
5338 1 9.98058 111.511 13.2429
11517 2 11.7992 111.507 14.5275
5332 1 10.8896 109.926 15.8071
5371 1 12.709 109.935 13.2348
5021 1 15.4368 111.511 13.2429
11516 2 14.5276 109.93 14.5195
4994 1 13.6174 111.504 15.8151
5020 1 18.1653 109.935 13.2348
11170 2 17.2555 111.507 14.5275
5019 1 16.3458 109.926 15.8071
4679 1 20.8931 111.511 13.2429
5866 1 21.8021 109.926 15.8071
11187 2 19.9839 109.93 14.5195
4676 1 19.0737 111.504 15.8151
5868 1 1.79595 113.087 13.25
12076 2 0.886317 114.661 14.5405
5610 1 2.7046 114.659 15.828
5615 1 4.5239 114.663 13.256
12113 2 3.6146 113.084 14.5345
5609 1 5.43287 113.081 15.8221
5655 1 7.2522 113.087 13.25
11813 2 9.07082 113.084 14.5346
11814 2 6.34254 114.661 14.5405
5294 1 8.16084 114.659 15.828
5337 1 9.98014 114.663 13.256
11486 2 11.7988 114.661 14.5405
5335 1 10.8891 113.081 15.8221
4998 1 15.4364 114.663 13.2561
5336 1 12.7084 113.087 13.25
11519 2 14.5271 113.084 14.5345
4993 1 13.6171 114.659 15.828
5023 1 18.1647 113.087 13.25
11169 2 17.255 114.661 14.5405
4992 1 16.3453 113.081 15.8221
4678 1 20.8926 114.663 13.2561
11168 2 19.9833 113.084 14.5345
5867 1 21.8016 113.081 15.8221
4661 1 19.0733 114.659 15.828
5869 1 1.79566 116.239 13.261
12075 2 0.886164 117.814 14.5493
5571 1 2.70448 117.814 15.8368
5614 1 4.52373 117.815 13.2649
12074 2 3.61434 116.238 14.5454
5612 1 5.43263 116.236 15.8329
5613 1 7.2519 116.239 13.261
11770 2 6.34243 117.814 14.5493
11816 2 9.07057 116.238 14.5454
5293 1 8.16073 117.814 15.8368
5298 1 9.97996 117.815 13.2649
11485 2 11.7986 117.814 14.5493
5292 1 10.8889 116.236 15.8329
4997 1 15.4362 117.815 13.2649
5339 1 12.7081 116.239 13.261
11484 2 14.5268 116.238 14.5454
4962 1 13.617 117.814 15.8368
4996 1 18.1644 116.239 13.261
11146 2 17.2549 117.814 14.5493
4995 1 16.3451 116.236 15.8329
4663 1 20.8925 117.815 13.2649
11171 2 19.983 116.238 14.5455
5838 1 21.8014 116.236 15.8329
4660 1 19.0732 117.814 15.8368
5840 1 1.79562 119.391 13.2678
12040 2 0.886251 120.968 14.5539
5570 1 2.70459 120.969 15.8414
5575 1 4.5238 120.967 13.2696
12077 2 3.6143 119.391 14.5522
5569 1 5.43263 119.392 15.8396
5616 1 7.25186 119.391 13.2678
11768 2 9.07055 119.391 14.5521
11769 2 6.34248 120.968 14.5539
5247 1 8.16083 120.969 15.8414
5297 1 9.98004 120.967 13.2696
11446 2 11.7987 120.968 14.5539
5295 1 10.8889 119.392 15.8396
5296 1 12.7081 119.391 13.2678
4966 1 15.4363 120.967 13.2696
11487 2 14.5268 119.391 14.5522
4961 1 13.6171 120.969 15.8414
4999 1 18.1643 119.391 13.2678
11145 2 17.255 120.968 14.5539
4960 1 16.3451 119.392 15.8396
4662 1 20.8925 120.967 13.2696
11144 2 19.983 119.391 14.5522
5839 1 21.8013 119.392 15.8396
4637 1 19.0733 120.969 15.8414
5841 1 1.7958 122.543 13.2703
12039 2 0.886506 124.122 14.5543
5532 1 2.70487 124.125 15.8418
5574 1 4.52409 124.119 13.27
12038 2 3.61446 122.545 14.5547
5572 1 5.43283 122.547 15.8421
5573 1 7.25204 122.543 13.2703
11724 2 6.34274 124.122 14.5544
11771 2 9.07071 122.545 14.5547
5246 1 8.1611 124.125 15.8418
5251 1 9.98033 124.119 13.27
11445 2 11.799 124.122 14.5544
5245 1 10.8891 122.547 15.8421
4965 1 15.4366 124.119 13.27
5299 1 12.7083 122.543 13.2703
11444 2 14.527 122.545 14.5547
4922 1 13.6173 124.125 15.8418
4964 1 18.1645 122.543 13.2703
11114 2 17.2552 124.122 14.5543
4963 1 16.3453 122.547 15.8421
4639 1 20.8928 124.119 13.27
11147 2 19.9832 122.545 14.5546
5810 1 21.8015 122.547 15.8421
4636 1 19.0736 124.125 15.8418
5812 1 1.79619 125.695 13.2686
12008 2 0.88695 127.276 14.5506
5531 1 2.70529 127.28 15.838
12041 2 3.61484 125.699 14.553
5530 1 5.43318 125.702 15.8404
5536 1 4.52456 127.271 13.2662
5576 1 7.25242 125.695 13.2686
11722 2 9.07107 125.699 14.553
11723 2 6.34319 127.276 14.5506
5200 1 8.16153 127.28 15.838
5248 1 10.8894 125.702 15.8404
5250 1 9.9808 127.271 13.2662
11399 2 11.7994 127.276 14.5505
5249 1 12.7087 125.695 13.2686
11447 2 14.5273 125.699 14.553
4926 1 15.437 127.271 13.2662
4921 1 13.6178 127.28 15.838
4967 1 18.1649 125.695 13.2686
4920 1 16.3457 125.702 15.8404
11113 2 17.2557 127.276 14.5506
11112 2 19.9836 125.699 14.553
5811 1 21.8019 125.702 15.8404
4638 1 20.8933 127.271 13.2662
4605 1 19.074 127.28 15.838
5813 1 1.79674 128.847 13.2627
12007 2 0.887592 130.429 14.5426
5500 1 2.70586 130.435 15.83
12006 2 3.61536 128.852 14.5471
5533 1 5.43368 128.858 15.8345
5535 1 4.5252 130.423 13.2581
5534 1 7.25298 128.847 13.2627
11725 2 9.0716 128.852 14.5471
11684 2 6.34381 130.429 14.5426
5199 1 8.1621 130.435 15.83
5198 1 10.8899 128.858 15.8345
5204 1 9.98144 130.423 13.2581
11398 2 11.8 130.429 14.5426
5252 1 12.7092 128.847 13.2627
11397 2 14.5278 128.852 14.5471
4925 1 15.4377 130.424 13.2581
4876 1 13.6183 130.435 15.8301
4924 1 18.1655 128.847 13.2627
4923 1 16.3462 128.858 15.8345
11075 2 17.2563 130.429 14.5426
11115 2 19.9841 128.852 14.5471
5786 1 21.8024 128.858 15.8345
4607 1 20.8939 130.424 13.2581
4604 1 19.0746 130.435 15.83
5788 1 1.79747 132 13.2525
12009 2 3.6161 132.006 14.537
5498 1 5.43432 132.013 15.8245
5537 1 7.25372 132 13.2525
11682 2 9.07232 132.006 14.537
5201 1 10.8906 132.013 15.8245
5202 1 12.71 132 13.2525
11400 2 14.5286 132.006 14.537
4927 1 18.1662 132 13.2525
4874 1 16.3468 132.013 15.8245
11073 2 19.9848 132.006 14.537
5787 1 21.803 132.013 15.8245
5789 1 1.79846 135.151 13.2382
11984 2 0.888437 133.583 14.5304
5499 1 2.7066 133.59 15.818
5504 1 4.52605 133.575 13.2459
11982 2 3.61702 135.159 14.5229
5501 1 5.43517 135.168 15.8105
5502 1 7.2547 135.151 13.2382
11683 2 6.34467 133.583 14.5304
11685 2 9.07325 135.159 14.5229
5160 1 8.16284 133.59 15.818
5203 1 9.98229 133.575 13.2459
11352 2 11.8009 133.583 14.5305
5158 1 10.8914 135.168 15.8105
4880 1 15.4385 133.575 13.2459
5205 1 12.7109 135.151 13.2382
11350 2 14.5295 135.159 14.5228
4875 1 13.6191 133.59 15.818
4878 1 18.1672 135.151 13.2382
11074 2 17.2571 133.583 14.5305
4877 1 16.3477 135.168 15.8105
4606 1 20.8948 133.575 13.2459
11076 2 19.9857 135.159 14.5229
5770 1 21.8039 135.168 15.8105
4569 1 19.0753 133.59 15.818
5772 1 1.79976 138.303 13.2198
11983 2 0.889423 136.736 14.5143
5476 1 2.70758 136.745 15.8019
5503 1 4.5272 136.727 13.2295
11985 2 3.61817 138.313 14.5046
5474 1 5.43629 138.322 15.7924
5505 1 7.25599 138.303 13.2198
11650 2 9.07444 138.312 14.5046
11652 2 6.34568 136.736 14.5142
5159 1 8.16382 136.745 15.8019
5164 1 9.98343 136.727 13.2295
11351 2 11.8019 136.736 14.5142
5161 1 10.8925 138.322 15.7923
4879 1 15.4397 136.727 13.2295
5162 1 12.7122 138.303 13.2198
11353 2 14.5307 138.312 14.5046
4831 1 13.6201 136.745 15.8019
4881 1 18.1685 138.303 13.2198
11035 2 17.2581 136.736 14.5143
4829 1 16.3488 138.322 15.7923
4571 1 20.8959 136.727 13.2295
11033 2 19.9869 138.313 14.5046
5771 1 21.805 138.322 15.7923
4568 1 19.0763 136.745 15.8019
5773 1 1.80135 141.455 13.1973
11968 2 0.890794 139.889 14.494
5475 1 2.70884 139.899 15.7818
5480 1 4.52863 139.879 13.209
11966 2 3.6197 141.465 14.4823
5477 1 5.43771 141.476 15.7702
5478 1 7.25759 141.455 13.1973
11651 2 6.34701 139.889 14.494
11653 2 9.07592 141.465 14.4824
5128 1 8.16507 139.899 15.7818
5163 1 9.98487 139.879 13.209
11312 2 11.8033 139.889 14.494
5126 1 10.8939 141.476 15.7702
4835 1 15.4411 139.879 13.209
5165 1 12.7138 141.454 13.1973
11310 2 14.5321 141.465 14.4824
4830 1 13.6213 139.899 15.7818
4833 1 18.1701 141.454 13.1973
11034 2 17.2595 139.889 14.494
4832 1 16.3502 141.477 15.7702
4570 1 20.8973 139.879 13.209
11036 2 19.9884 141.465 14.4824
5762 1 21.8064 141.477 15.7702
4533 1 19.0776 139.899 15.7818
5764 1 1.80327 144.605 13.1708
11967 2 0.892405 143.042 14.4697
5460 1 2.71039 143.053 15.7577
5479 1 4.53038 143.03 13.1845
11969 2 3.62145 144.618 14.4561
5458 1 5.43938 144.63 15.7442
5481 1 7.2595 144.605 13.1708
11626 2 9.0777 144.618 14.456
11628 2 6.34866 143.041 14.4697
5127 1 8.16663 143.053 15.7577
5132 1 9.98662 143.03 13.1845
11311 2 11.8049 143.041 14.4697
5129 1 10.8956 144.63 15.7441
4834 1 15.4429 143.03 13.1845
5130 1 12.7157 144.605 13.1708
11313 2 14.534 144.618 14.456
4793 1 13.6229 143.053 15.7577
4836 1 18.172 144.605 13.1708
10996 2 17.2611 143.042 14.4697
4791 1 16.3519 144.63 15.7441
4535 1 20.8991 143.03 13.1845
10994 2 19.9902 144.618 14.4561
5763 1 21.8081 144.63 15.7441
4532 1 19.0791 143.053 15.7577
5765 1 1.80546 147.756 13.1402
11960 2 0.894369 146.194 14.4414
5459 1 2.7122 146.207 15.7296
5464 1 4.53245 146.181 13.156
11958 2 3.62359 147.769 14.4257
5461 1 5.44134 147.783 15.714
5462 1 7.26171 147.756 13.1402
11627 2 6.35061 146.194 14.4414
11629 2 9.07983 147.769 14.4257
5104 1 8.16844 146.207 15.7296
5131 1 9.98869 146.181 13.156
11280 2 11.8068 146.194 14.4414
5102 1 10.8976 147.783 15.714
4797 1 15.4449 146.181 13.156
5133 1 12.7179 147.756 13.1402
11278 2 14.5361 147.769 14.4257
4792 1 13.6247 146.207 15.7296
4795 1 18.1742 147.756 13.1402
10995 2 17.2631 146.194 14.4414
4794 1 16.3538 147.783 15.714
4534 1 20.9012 146.181 13.156
10997 2 19.9923 147.769 14.4257
5761 1 21.8101 147.783 15.714
4498 1 19.0809 146.207 15.7296
11959 2 0.896608 149.345 14.4091
5449 1 2.71432 149.359 15.6975
1827 1 1.808 150.906 13.1055
5463 1 4.5348 149.331 13.1234
7825 2 3.62595 150.921 14.3915
1585 1 5.44363 150.935 15.6799
11609 2 6.35285 149.345 14.4091
5103 1 8.17056 149.359 15.6975
1616 1 7.26422 150.906 13.1055
7530 2 9.08215 150.921 14.3915
5105 1 9.99105 149.331 13.1233
11279 2 11.8091 149.345 14.4091
1296 1 10.8999 150.935 15.6799
4796 1 15.4473 149.331 13.1233
4760 1 13.6268 149.359 15.6975
1297 1 12.7205 150.906 13.1055
7208 2 14.5384 150.921 14.3915
10961 2 17.2653 149.345 14.4091
952 1 18.1767 150.906 13.1055
937 1 16.3561 150.935 15.6799
4499 1 20.9035 149.331 13.1233
4497 1 19.083 149.359 15.6975
6841 2 19.9947 150.921 14.3915
1826 1 21.8123 150.935 15.6799
5646 1 0.888089 102.025 18.3246
12144 2 1.7975 103.61 17.0497
11849 2 4.52626 102.032 17.0369
5644 1 3.61565 103.603 18.3374
5362 1 6.34432 102.025 18.3246
11847 2 7.25376 103.61 17.0497
5363 1 9.0719 103.603 18.3374
11538 2 9.98251 102.032 17.0369
5014 1 11.8006 102.025 18.3246
11182 2 15.4387 102.033 17.0369
11539 2 12.71 103.61 17.0497
5012 1 14.5281 103.603 18.3373
4682 1 17.2568 102.025 18.3246
11180 2 18.1662 103.61 17.0497
10880 2 20.895 102.033 17.0369
4683 1 19.9844 103.603 18.3374
5645 1 0.887072 105.182 18.3491
11848 2 4.52513 105.188 17.0616
5330 1 6.34331 105.182 18.3491
11514 2 9.98135 105.188 17.0616
5013 1 11.7996 105.182 18.3491
11181 2 15.4376 105.188 17.0616
4674 1 17.2558 105.182 18.3491
10879 2 20.8938 105.188 17.0616
12108 2 1.79655 106.766 17.0725
5607 1 0.886351 108.339 18.3698
11811 2 4.52426 108.344 17.0824
5647 1 3.6148 106.76 18.3599
11850 2 7.25276 106.766 17.0725
5328 1 9.07104 106.76 18.3599
5329 1 6.34259 108.339 18.3698
11513 2 9.98049 108.344 17.0824
4990 1 11.7988 108.339 18.3698
11166 2 15.4368 108.344 17.0824
11512 2 12.709 106.766 17.0725
5015 1 14.5273 106.76 18.36
11183 2 18.1653 106.766 17.0725
4673 1 17.2551 108.339 18.3698
10878 2 20.893 108.344 17.0824
4672 1 19.9835 106.76 18.36
12109 2 1.79585 109.922 17.0913
5606 1 0.885866 111.497 18.3865
11810 2 4.52372 111.5 17.0993
5605 1 3.6142 109.918 18.3786
11809 2 7.25209 109.922 17.0913
5290 1 6.34209 111.497 18.3865
5331 1 9.07043 109.918 18.3786
11482 2 9.97998 111.5 17.0992
4989 1 11.7983 111.497 18.3865
11165 2 15.4362 111.5 17.0992
11515 2 12.7083 109.922 17.0913
4988 1 14.5267 109.918 18.3786
11164 2 18.1646 109.922 17.0913
4658 1 17.2546 111.497 18.3865
10871 2 20.8924 111.5 17.0993
4675 1 19.9829 109.918 18.3786
12072 2 1.79542 113.079 17.1062
5567 1 0.885613 114.655 18.3992
11766 2 4.52342 114.657 17.112
5608 1 3.61383 113.076 18.3933
11812 2 7.25169 113.079 17.1061
5288 1 9.07007 113.076 18.3933
5289 1 6.34186 114.655 18.3992
11481 2 9.97964 114.657 17.112
4958 1 11.7981 114.655 18.3992
11142 2 15.4359 114.657 17.112
11480 2 12.7079 113.079 17.1061
4991 1 14.5263 113.076 18.3933
11167 2 18.1641 113.079 17.1062
4657 1 17.2543 114.655 18.3992
10870 2 20.8921 114.657 17.112
4656 1 19.9825 113.076 18.3933
12073 2 1.79523 116.235 17.1169
5566 1 0.88557 117.813 18.4078
11765 2 4.52332 117.814 17.1207
5565 1 3.61369 116.234 18.404
11764 2 7.25145 116.235 17.1169
5243 1 6.34181 117.813 18.4078
5291 1 9.06993 116.234 18.404
11442 2 9.97956 117.814 17.1207
4957 1 11.798 117.813 18.4078
11141 2 15.4358 117.814 17.1207
11483 2 12.7077 116.235 17.1169
4956 1 14.5262 116.234 18.404
11140 2 18.164 116.235 17.1169
4634 1 17.2543 117.813 18.4078
10855 2 20.8921 117.814 17.1207
4659 1 19.9824 116.234 18.404
12036 2 1.79525 119.392 17.1235
5528 1 0.885692 120.972 18.4123
11720 2 4.52345 120.97 17.1253
5568 1 3.61373 119.392 18.4106
11767 2 7.25147 119.392 17.1235
5241 1 9.06997 119.392 18.4106
5242 1 6.34193 120.972 18.4123
11441 2 9.97969 120.971 17.1252
4918 1 11.7982 120.972 18.4123
11110 2 15.4359 120.971 17.1252
11440 2 12.7077 119.392 17.1235
4959 1 14.5262 119.392 18.4106
11143 2 18.164 119.392 17.1235
4633 1 17.2544 120.972 18.4123
10854 2 20.8921 120.97 17.1253
4632 1 19.9824 119.393 18.4106
12037 2 1.79543 122.549 17.126
5527 1 0.885971 124.13 18.4127
11719 2 4.5237 124.127 17.1256
5526 1 3.61393 122.551 18.413
11718 2 7.25169 122.549 17.126
5196 1 6.3422 124.13 18.4127
5244 1 9.07017 122.551 18.413
11395 2 9.97996 124.127 17.1256
4917 1 11.7984 124.13 18.4127
11109 2 15.4362 124.127 17.1256
11443 2 12.7079 122.549 17.1259
4916 1 14.5264 122.551 18.413
11108 2 18.1641 122.549 17.126
4602 1 17.2547 124.13 18.4127
10831 2 20.8924 124.127 17.1256
4635 1 19.9827 122.551 18.413
12004 2 1.79576 125.706 17.1243
5496 1 0.886347 127.289 18.409
5529 1 3.61427 125.709 18.4114
11680 2 4.5241 127.284 17.1219
11721 2 7.25201 125.706 17.1243
5194 1 9.0705 125.709 18.4114
5195 1 6.34259 127.289 18.409
11394 2 9.98032 127.284 17.1219
4872 1 11.7988 127.289 18.409
11393 2 12.7082 125.706 17.1243
4919 1 14.5267 125.709 18.4114
11071 2 15.4366 127.284 17.1219
11111 2 18.1645 125.706 17.1243
4601 1 17.2551 127.289 18.409
4600 1 19.983 125.709 18.4114
10830 2 20.8928 127.284 17.1219
12005 2 1.79622 128.862 17.1185
5494 1 3.6147 128.868 18.4056
11679 2 4.52464 130.441 17.1141
11678 2 7.25246 128.863 17.1185
5197 1 9.07094 128.868 18.4056
11348 2 9.98087 130.441 17.1141
11396 2 12.7087 128.863 17.1185
4870 1 14.5272 128.868 18.4056
11070 2 15.4371 130.441 17.1141
11069 2 18.1649 128.863 17.1185
4603 1 19.9834 128.868 18.4056
10803 2 20.8933 130.441 17.1141
11980 2 1.79683 132.019 17.1086
5495 1 0.886836 130.447 18.4012
5497 1 3.61524 132.026 18.3958
11681 2 7.25308 132.019 17.1086
5154 1 9.07148 132.026 18.3958
5156 1 6.34307 130.447 18.4012
4871 1 11.7993 130.447 18.4012
11346 2 12.7093 132.019 17.1086
4873 1 14.5277 132.026 18.3958
11072 2 18.1656 132.019 17.1086
4566 1 17.2556 130.447 18.4012
4564 1 19.984 132.026 18.3958
11981 2 1.79765 135.176 17.0947
5472 1 0.887449 133.605 18.3894
11648 2 4.52531 133.598 17.1022
5470 1 3.61595 135.184 18.382
11646 2 7.25385 135.176 17.0947
5155 1 6.34368 133.605 18.3894
5157 1 9.07218 135.184 18.382
11347 2 9.98159 133.597 17.1021
4827 1 11.7999 133.605 18.3894
11031 2 15.4379 133.597 17.1021
11349 2 12.7101 135.176 17.0947
4825 1 14.5284 135.184 18.382
11029 2 18.1664 135.176 17.0947
4565 1 17.2562 133.605 18.3894
10802 2 20.8941 133.597 17.1022
4567 1 19.9847 135.184 18.382
11964 2 1.79866 138.332 17.0767
5471 1 0.888248 136.763 18.3736
11647 2 4.52622 136.754 17.0862
5473 1 3.61686 138.341 18.3642
11649 2 7.25491 138.332 17.0767
5122 1 9.0731 138.341 18.3642
5124 1 6.3445 136.763 18.3736
11308 2 9.98244 136.754 17.0862
4826 1 11.8007 136.763 18.3736
11030 2 15.4387 136.754 17.0862
11306 2 12.7111 138.332 17.0768
4828 1 14.5293 138.341 18.3642
11032 2 18.1674 138.332 17.0768
4530 1 17.257 136.763 18.3736
10775 2 20.8949 136.754 17.0862
4528 1 19.9856 138.341 18.3642
11965 2 1.7999 141.487 17.0549
5456 1 0.889297 139.92 18.3539
11624 2 4.5274 139.909 17.0663
5454 1 3.61804 141.498 18.3426
11622 2 7.25615 141.487 17.0549
5123 1 6.34553 139.92 18.3539
5125 1 9.07428 141.498 18.3426
11307 2 9.98364 139.909 17.0663
4789 1 11.8018 139.92 18.3539
10992 2 15.4399 139.91 17.0663
11309 2 12.7124 141.487 17.0549
4787 1 14.5305 141.498 18.3426
10990 2 18.1686 141.487 17.0549
4529 1 17.258 139.92 18.3539
10774 2 20.8961 139.91 17.0663
4531 1 19.9868 141.498 18.3426
11956 2 1.80147 144.642 17.029
5455 1 0.890612 143.077 18.3302
11623 2 4.52874 143.065 17.0425
5457 1 3.61946 144.655 18.3169
11625 2 7.25768 144.642 17.0291
5098 1 9.07569 144.655 18.317
5100 1 6.34685 143.077 18.3302
11276 2 9.98497 143.065 17.0425
4788 1 11.8031 143.077 18.3303
10991 2 15.4412 143.065 17.0425
11274 2 12.7139 144.642 17.0291
4790 1 14.5319 144.655 18.317
10993 2 18.1702 144.642 17.0291
4495 1 17.2593 143.077 18.3303
10747 2 20.8975 143.065 17.0424
4493 1 19.9882 144.655 18.317
11957 2 1.80327 147.797 16.9993
5448 1 0.892103 146.233 18.3027
11608 2 4.53049 146.22 17.0147
5446 1 3.62107 147.811 18.2875
11606 2 7.25956 147.797 16.9993
5099 1 6.34835 146.233 18.3027
5101 1 9.07731 147.811 18.2874
11275 2 9.98672 146.22 17.0147
4759 1 11.8046 146.233 18.3027
10960 2 15.4429 146.22 17.0147
11277 2 12.7158 147.797 16.9993
4757 1 14.5336 147.811 18.2874
10958 2 18.172 147.797 16.9993
4494 1 17.2608 146.233 18.3027
10746 2 20.8992 146.22 17.0147
4496 1 19.9898 147.811 18.2874
5447 1 0.893898 149.388 18.2712
7791 2 1.80536 150.95 16.9656
11607 2 4.53239 149.374 16.9829
1584 1 3.62303 150.965 18.254
5081 1 6.35013 149.388 18.2712
7529 2 7.2616 150.95 16.9655
1265 1 9.07928 150.965 18.254
11249 2 9.98863 149.374 16.9829
4758 1 11.8064 149.388 18.2712
10959 2 15.4449 149.374 16.9829
7185 2 12.7178 150.95 16.9656
936 1 14.5355 150.965 18.254
4464 1 17.2626 149.388 18.2712
6840 2 18.1741 150.95 16.9656
10719 2 20.9011 149.374 16.9829
585 1 19.9917 150.965 18.254
11845 2 2.70667 102.017 19.6092
5643 1 1.79631 103.589 20.9091
5326 1 4.52482 102.009 20.8967
11846 2 5.43432 103.596 19.6218
11510 2 8.16292 102.017 19.6092
5324 1 7.25255 103.589 20.9091
5010 1 9.98106 102.009 20.8967
11508 2 10.8905 103.596 19.6218
4670 1 15.4373 102.009 20.8967
11178 2 13.6191 102.017 19.6092
5011 1 12.7088 103.589 20.9091
4668 1 18.165 103.589 20.9091
11179 2 16.3468 103.596 19.6218
4400 1 20.8935 102.009 20.8967
10877 2 19.0754 102.017 19.6092
12106 2 21.803 103.596 19.6218
11807 2 2.7058 105.175 19.6334
5325 1 4.52411 105.169 20.9206
11509 2 8.16201 105.175 19.6334
4986 1 9.98034 105.169 20.9206
4669 1 15.4366 105.169 20.9206
11162 2 13.6183 105.175 19.6334
4399 1 20.8928 105.169 20.9206
10876 2 19.0745 105.175 19.6334
5603 1 1.79572 106.749 20.9312
11806 2 2.70516 108.334 19.6538
5286 1 4.52362 108.329 20.9408
11805 2 5.43356 106.755 19.6441
5327 1 7.25196 106.749 20.9312
11478 2 8.16141 108.334 19.6537
4985 1 9.97986 108.329 20.9408
11511 2 10.8898 106.755 19.6441
4654 1 15.4361 108.329 20.9408
4984 1 12.7082 106.749 20.9312
11161 2 13.6176 108.334 19.6538
4671 1 18.1644 106.749 20.9312
11160 2 16.3461 106.755 19.6441
12107 2 21.8023 106.755 19.6441
4398 1 20.8923 108.329 20.9408
10869 2 19.0739 108.334 19.6538
5604 1 1.79533 109.91 20.9495
11762 2 2.70481 111.493 19.6703
5285 1 4.52332 111.49 20.9572
11808 2 5.43308 109.914 19.6625
5284 1 7.25156 109.91 20.9495
11477 2 8.16104 111.493 19.6703
4954 1 9.97956 111.49 20.9572
11476 2 10.8893 109.914 19.6625
4653 1 15.4358 111.49 20.9572
4987 1 12.7078 109.91 20.9495
11138 2 13.6173 111.493 19.6703
4652 1 18.164 109.91 20.9495
11163 2 16.3456 109.914 19.6625
12070 2 21.8018 109.914 19.6625
4391 1 20.892 111.49 20.9572
10868 2 19.0735 111.493 19.6703
5563 1 1.79512 113.071 20.9639
11761 2 2.7046 114.653 19.6828
5239 1 4.52321 114.651 20.9696
11760 2 5.43278 113.073 19.6771
5287 1 7.25137 113.071 20.9639
11438 2 8.16083 114.653 19.6828
4953 1 9.97944 114.651 20.9696
11479 2 10.889 113.073 19.6771
4630 1 15.4357 114.651 20.9696
4952 1 12.7076 113.071 20.9639
11137 2 13.6171 114.653 19.6828
4655 1 18.1638 113.071 20.9639
11136 2 16.3453 113.073 19.677
12071 2 21.8015 113.073 19.677
4390 1 20.8919 114.651 20.9696
10853 2 19.0733 114.653 19.6828
5564 1 1.79508 116.232 20.9744
11716 2 2.70457 117.813 19.6914
5238 1 4.52323 117.813 20.9781
11763 2 5.43269 116.233 19.6876
5237 1 7.25131 116.232 20.9744
11437 2 8.16085 117.813 19.6914
4914 1 9.97946 117.813 20.9781
11436 2 10.8889 116.233 19.6876
4629 1 15.4357 117.813 20.9781
4955 1 12.7076 116.232 20.9744
11106 2 13.6171 117.813 19.6914
4628 1 18.1638 116.232 20.9744
11139 2 16.3452 116.233 19.6876
12034 2 21.8014 116.233 19.6876
4375 1 20.8919 117.813 20.9781
10852 2 19.0733 117.813 19.6914
5524 1 1.79517 119.393 20.9808
11715 2 2.70474 120.973 19.6958
5192 1 4.52339 120.974 20.9825
11714 2 5.43277 119.393 19.6941
5240 1 7.25141 119.393 20.9808
11391 2 8.16095 120.973 19.6958
4913 1 9.97963 120.974 20.9825
11439 2 10.889 119.393 19.6941
4598 1 15.4359 120.974 20.9825
4912 1 12.7077 119.393 20.9808
11105 2 13.6172 120.973 19.6958
4631 1 18.1639 119.393 20.9808
11104 2 16.3452 119.393 19.6941
12035 2 21.8015 119.393 19.6941
4374 1 20.8921 120.974 20.9825
10829 2 19.0735 120.973 19.6958
5525 1 1.79539 122.555 20.9832
11676 2 2.70499 124.133 19.6962
5191 1 4.52365 124.136 20.9829
11717 2 5.43296 122.553 19.6965
5190 1 7.25163 122.555 20.9832
11390 2 8.16121 124.133 19.6962
4868 1 9.97989 124.136 20.9829
11389 2 10.8892 122.553 19.6965
4597 1 15.4361 124.136 20.9829
4915 1 12.7079 122.555 20.9832
11067 2 13.6174 124.133 19.6962
4596 1 18.1641 122.555 20.9832
11107 2 16.3454 122.553 19.6965
12002 2 21.8017 122.553 19.6965
4352 1 20.8924 124.136 20.9829
10828 2 19.0737 124.133 19.6962
5492 1 1.79568 125.716 20.9816
11675 2 2.70533 127.293 19.6926
11674 2 5.43327 125.713 19.6949
5152 1 4.52397 127.297 20.9793
5193 1 7.25192 125.716 20.9816
11344 2 8.16159 127.293 19.6925
11392 2 10.8895 125.713 19.6949
4867 1 9.98021 127.297 20.9793
4866 1 12.7082 125.716 20.9816
4562 1 15.4365 127.297 20.9793
11066 2 13.6178 127.293 19.6925
4599 1 18.1644 125.716 20.9816
11065 2 16.3457 125.713 19.6949
12003 2 21.802 125.713 19.6949
4351 1 20.8927 127.297 20.9793
10801 2 19.074 127.293 19.6926
5493 1 1.79605 128.878 20.9759
11677 2 5.43364 128.873 19.6892
5150 1 7.25228 128.878 20.9759
11342 2 10.8899 128.873 19.6892
4869 1 12.7085 128.878 20.9759
4560 1 18.1648 128.878 20.9759
11068 2 16.3462 128.873 19.6892
11978 2 21.8024 128.873 19.6892
5468 1 1.79649 132.039 20.9663
11644 2 2.70577 130.452 19.6848
5151 1 4.52438 130.458 20.9716
11642 2 5.43417 132.032 19.6795
5153 1 7.25273 132.039 20.9663
11343 2 8.16201 130.452 19.6848
4823 1 9.98062 130.458 20.9716
11345 2 10.8904 132.032 19.6795
4561 1 15.4369 130.458 20.9716
4821 1 12.709 132.039 20.9663
11027 2 13.6182 130.452 19.6848
4563 1 18.1652 132.039 20.9663
11025 2 16.3466 132.032 19.6795
11979 2 21.8029 132.032 19.6795
4328 1 20.8931 130.458 20.9716
10800 2 19.0745 130.452 19.6848
5469 1 1.79703 135.2 20.9528
11643 2 2.70635 133.612 19.6731
5120 1 4.52486 133.619 20.96
11645 2 5.43482 135.192 19.6658
5118 1 7.25327 135.2 20.9528
11304 2 8.16259 133.612 19.6731
4822 1 9.9811 133.619 20.96
11302 2 10.8911 135.192 19.6658
4526 1 15.4373 133.619 20.96
4824 1 12.7095 135.2 20.9527
11026 2 13.6188 133.612 19.6732
4524 1 18.1657 135.2 20.9528
11028 2 16.3473 135.192 19.6659
11962 2 21.8035 135.192 19.6658
4327 1 20.8936 133.619 20.96
10773 2 19.0751 133.612 19.6732
5452 1 1.79775 138.36 20.9354
11620 2 2.70704 136.771 19.6576
5119 1 4.52548 136.78 20.9446
11618 2 5.43561 138.351 19.6483
5121 1 7.25398 138.36 20.9354
11303 2 8.16328 136.771 19.6575
4785 1 9.98172 136.78 20.9446
11305 2 10.8919 138.351 19.6483
4525 1 15.438 136.78 20.9446
4783 1 12.7102 138.36 20.9354
10988 2 13.6195 136.771 19.6575
4527 1 18.1665 138.36 20.9354
10986 2 16.3481 138.351 19.6483
11963 2 21.8043 138.351 19.6483
4304 1 20.8942 136.78 20.9445
10772 2 19.0758 136.771 19.6575
5453 1 1.79865 141.52 20.9142
11619 2 2.70802 139.93 19.6381
5096 1 4.52629 139.941 20.9253
11621 2 5.43663 141.509 19.6269
5094 1 7.25489 141.52 20.9142
11272 2 8.16424 139.93 19.6381
4784 1 9.98252 139.941 20.9253
11270 2 10.8929 141.509 19.6268
4491 1 15.4388 139.941 20.9253
4786 1 12.7111 141.52 20.9142
10987 2 13.6205 139.93 19.6381
4489 1 18.1674 141.521 20.9142
10989 2 16.3491 141.509 19.6268
11954 2 21.8053 141.509 19.6269
4303 1 20.895 139.941 20.9253
10745 2 19.0767 139.93 19.6381
5444 1 1.79973 144.68 20.8892
11604 2 2.70909 143.088 19.6147
5095 1 4.52729 143.1 20.9022
11602 2 5.4379 144.667 19.6015
5097 1 7.25596 144.68 20.8892
11271 2 8.16534 143.088 19.6147
4755 1 9.98353 143.1 20.9022
11273 2 10.8941 144.667 19.6015
4490 1 15.4398 143.1 20.9022
4753 1 12.7122 144.68 20.8892
10956 2 13.6216 143.088 19.6147
4492 1 18.1684 144.68 20.8892
10954 2 16.3504 144.667 19.6016
11955 2 21.8066 144.667 19.6016
4280 1 20.896 143.1 20.9022
10744 2 19.0778 143.088 19.6147
5445 1 1.80101 147.838 20.8603
11603 2 2.71051 146.246 19.5874
5080 1 4.52845 146.259 20.8752
11605 2 5.43939 147.824 19.5724
5078 1 7.25724 147.838 20.8603
11248 2 8.16674 146.246 19.5874
4754 1 9.98469 146.259 20.8752
11246 2 10.8956 147.824 19.5724
4463 1 15.4409 146.259 20.8752
4756 1 12.7135 147.838 20.8603
10955 2 13.623 146.246 19.5874
4461 1 18.1697 147.838 20.8603
10957 2 16.3519 147.824 19.5723
11953 2 21.8081 147.824 19.5723
4279 1 20.8972 146.259 20.8752
10718 2 19.0792 146.246 19.5874
11593 2 2.71207 149.402 19.5563
1546 1 1.80254 150.996 20.8276
5079 1 4.52987 149.417 20.8444
7492 2 5.44105 150.98 19.5394
11247 2 8.16829 149.402 19.5563
1264 1 7.25877 150.996 20.8276
4730 1 9.98611 149.417 20.8444
7184 2 10.8973 150.98 19.5394
4462 1 15.4423 149.417 20.8444
10929 2 13.6245 149.403 19.5563
913 1 12.715 150.996 20.8276
584 1 18.1713 150.996 20.8276
6825 2 16.3536 150.98 19.5394
4256 1 20.8986 149.417 20.8444
10717 2 19.0807 149.403 19.5563
7790 2 21.8098 150.98 19.5394
5322 1 2.70561 101.994 23.4681
11803 2 0.887333 102.001 22.1809
5323 1 5.43349 103.575 23.4802
11801 2 3.61512 103.582 22.1932
4982 1 8.16184 101.994 23.4681
11506 2 6.34354 102.001 22.1809
11507 2 9.07138 103.582 22.1932
11158 2 11.7998 102.001 22.1809
4980 1 10.8897 103.575 23.4802
4666 1 13.6181 101.994 23.4681
11156 2 14.5276 103.582 22.1932
10874 2 17.256 102.001 22.1809
4667 1 16.346 103.575 23.4802
4397 1 19.0743 101.994 23.4681
5601 1 21.8022 103.575 23.4802
10875 2 19.9838 103.582 22.1932
5282 1 2.70519 105.156 23.4914
11802 2 0.886735 105.163 22.2046
4981 1 8.16143 105.156 23.4914
11474 2 6.34301 105.163 22.2045
11157 2 11.7993 105.163 22.2045
4650 1 13.6177 105.156 23.4914
10866 2 17.2555 105.163 22.2046
4396 1 19.0739 105.156 23.4914
5281 1 2.70499 108.319 23.5111
11758 2 0.886371 108.324 22.2245
5280 1 5.43319 106.738 23.5017
11804 2 3.61466 106.743 22.215
4950 1 8.16123 108.319 23.5111
11472 2 9.07089 106.743 22.215
11473 2 6.34261 108.324 22.2245
4983 1 10.8894 106.738 23.5017
11134 2 11.7988 108.324 22.2245
4649 1 13.6175 108.319 23.5111
11159 2 14.5271 106.743 22.215
4648 1 16.3457 106.738 23.5017
10865 2 17.2551 108.324 22.2245
5602 1 21.8019 106.738 23.5017
4389 1 19.0737 108.319 23.5111
10864 2 19.9834 106.743 22.215
5235 1 2.70489 111.483 23.5271
11757 2 0.88619 111.487 22.2406
5283 1 5.43304 109.901 23.5196
11756 2 3.61438 109.905 22.233
4949 1 8.16113 111.483 23.5271
11434 2 6.34243 111.487 22.2406
11475 2 9.07061 109.905 22.2331
4948 1 10.8893 109.901 23.5196
11133 2 11.7987 111.487 22.2406
4626 1 13.6174 111.483 23.5271
11132 2 14.5269 109.905 22.233
4651 1 16.3455 109.901 23.5196
10850 2 17.2549 111.487 22.2406
5561 1 21.8018 109.901 23.5196
4388 1 19.0736 111.483 23.5271
10867 2 19.9831 109.905 22.233
5234 1 2.70491 114.647 23.5393
11712 2 0.886137 114.649 22.2529
5233 1 5.43301 113.065 23.5337
11759 2 3.61426 113.068 22.2473
4910 1 8.16115 114.647 23.5393
11432 2 9.0705 113.068 22.2472
11433 2 6.34238 114.649 22.2529
4951 1 10.8892 113.065 23.5337
11102 2 11.7986 114.649 22.2529
4625 1 13.6174 114.647 23.5393
11135 2 14.5267 113.068 22.2472
4624 1 16.3455 113.065 23.5337
10849 2 17.2548 114.649 22.2529
5562 1 21.8017 113.065 23.5337
4373 1 19.0736 114.647 23.5393
10848 2 19.983 113.068 22.2473
5188 1 2.70502 117.812 23.5476
11711 2 0.886221 117.812 22.2613
5236 1 5.43308 116.23 23.544
11710 2 3.6143 116.231 22.2576
4909 1 8.16126 117.812 23.5476
11387 2 6.34246 117.812 22.2613
11435 2 9.07053 116.231 22.2576
4908 1 10.8893 116.23 23.544
11101 2 11.7987 117.812 22.2613
4594 1 13.6175 117.812 23.5476
11100 2 14.5267 116.231 22.2576
4627 1 16.3456 116.23 23.544
10826 2 17.2549 117.812 22.2613
5522 1 21.8018 116.23 23.544
4372 1 19.0737 117.812 23.5476
10851 2 19.983 116.231 22.2576
5187 1 2.70521 120.976 23.552
11672 2 0.886365 120.975 22.2657
5186 1 5.43323 119.394 23.5503
11713 2 3.6144 119.394 22.264
4864 1 8.16145 120.976 23.552
11385 2 9.07064 119.394 22.264
11386 2 6.3426 120.975 22.2657
4911 1 10.8895 119.394 23.5503
11063 2 11.7989 120.975 22.2657
4593 1 13.6177 120.976 23.552
11103 2 14.5269 119.394 22.264
4592 1 16.3457 119.394 23.5503
10825 2 17.2551 120.975 22.2657
5523 1 21.8019 119.394 23.5503
4350 1 19.0739 120.976 23.552
10824 2 19.9831 119.394 22.264
5148 1 2.70546 124.141 23.5524
11671 2 0.886606 124.138 22.2661
5189 1 5.43345 122.559 23.5527
11670 2 3.61457 122.557 22.2664
4863 1 8.1617 124.141 23.5524
11340 2 6.34283 124.138 22.2661
11388 2 9.07084 122.557 22.2664
4862 1 10.8897 122.559 23.5527
11062 2 11.7991 124.138 22.2661
4558 1 13.6179 124.141 23.5524
11061 2 14.5271 122.557 22.2664
4595 1 16.3459 122.559 23.5527
10798 2 17.2553 124.138 22.2661
5490 1 21.8022 122.559 23.5527
4349 1 19.0742 124.141 23.5524
10827 2 19.9833 122.557 22.2664
5147 1 2.70572 127.306 23.5488
11640 2 0.886943 127.301 22.2625
5146 1 5.43371 125.723 23.5511
11673 2 3.61489 125.72 22.2648
11338 2 9.07111 125.72 22.2648
4819 1 8.16197 127.306 23.5488
11339 2 6.34318 127.301 22.2625
4865 1 10.8899 125.723 23.5511
11023 2 11.7994 127.301 22.2625
11064 2 14.5274 125.72 22.2648
4557 1 13.6182 127.306 23.5488
4556 1 16.3462 125.723 23.5511
10797 2 17.2556 127.301 22.2625
5491 1 21.8024 125.723 23.5511
10796 2 19.9836 125.72 22.2648
4326 1 19.0744 127.306 23.5488
5149 1 5.434 128.888 23.5455
11638 2 3.61523 128.883 22.2591
11341 2 9.07144 128.883 22.2592
4817 1 10.8902 128.888 23.5455
11021 2 14.5277 128.883 22.2592
4559 1 16.3465 128.888 23.5455
5466 1 21.8027 128.888 23.5455
10799 2 19.9839 128.883 22.2592
5116 1 2.70604 130.47 23.5413
11639 2 0.887234 130.464 22.2549
5114 1 5.43433 132.052 23.5361
11641 2 3.61558 132.045 22.2497
4818 1 8.16228 130.47 23.5413
11298 2 9.07184 132.045 22.2496
11300 2 6.34351 130.464 22.2549
4820 1 10.8906 132.052 23.5361
11022 2 11.7998 130.464 22.2549
4522 1 13.6185 130.47 23.5413
11024 2 14.5281 132.045 22.2496
4520 1 16.3468 132.052 23.5361
10770 2 17.256 130.464 22.2549
5467 1 21.803 132.052 23.5361
4325 1 19.0748 130.47 23.5413
10768 2 19.9843 132.045 22.2497
5115 1 2.70639 133.634 23.5299
11616 2 0.887716 133.627 22.2435
5117 1 5.43471 135.216 23.5228
11614 2 3.61607 135.208 22.2363
4781 1 8.16262 133.634 23.5299
11299 2 6.34392 133.627 22.2435
11301 2 9.07232 135.208 22.2363
4779 1 10.8909 135.216 23.5228
10984 2 11.8002 133.627 22.2434
4521 1 13.6189 133.634 23.5299
10982 2 14.5286 135.208 22.2363
4523 1 16.3472 135.216 23.5228
10769 2 17.2564 133.627 22.2434
5450 1 21.8034 135.216 23.5228
4302 1 19.0751 133.634 23.5299
10771 2 19.9848 135.208 22.2363
5092 1 2.70682 136.798 23.5148
11615 2 0.888252 136.789 22.2282
5090 1 5.4352 138.38 23.5058
11617 2 3.61668 138.37 22.2191
4780 1 8.16307 136.798 23.5148
11266 2 9.07293 138.37 22.2191
11268 2 6.34449 136.789 22.2282
4782 1 10.8914 138.38 23.5058
10983 2 11.8007 136.789 22.2282
4487 1 13.6193 136.798 23.5148
10985 2 14.5292 138.37 22.2191
4485 1 16.3477 138.38 23.5058
10742 2 17.2569 136.789 22.2282
5451 1 21.8039 138.38 23.5058
4301 1 19.0755 136.798 23.5148
10740 2 19.9854 138.37 22.2191
5091 1 2.70739 139.961 23.4959
11600 2 0.888902 139.951 22.2091
5093 1 5.43583 141.543 23.4851
11598 2 3.61741 141.531 22.1981
4751 1 8.16362 139.961 23.4959
11267 2 6.34516 139.951 22.2091
11269 2 9.07363 141.531 22.1982
4749 1 10.8921 141.543 23.4851
10952 2 11.8014 139.951 22.2091
4486 1 13.6199 139.961 23.4959
10950 2 14.5299 141.531 22.1981
4488 1 16.3483 141.543 23.4851
10741 2 17.2576 139.951 22.2091
5442 1 21.8046 141.543 23.4851
4278 1 19.0761 139.961 23.4959
10743 2 19.9862 141.531 22.1981
5076 1 2.70807 143.124 23.4733
11599 2 0.889738 143.112 22.1862
5074 1 5.43656 144.705 23.4606
11601 2 3.61838 144.692 22.1733
4750 1 8.16431 143.124 23.4733
11242 2 9.07462 144.692 22.1733
11244 2 6.34595 143.112 22.1862
4752 1 10.8928 144.705 23.4606
10951 2 11.8022 143.112 22.1862
4459 1 13.6205 143.124 23.4734
10953 2 14.5308 144.692 22.1734
4457 1 16.349 144.705 23.4606
10715 2 17.2585 143.112 22.1862
5443 1 21.8053 144.705 23.4606
4277 1 19.0768 143.124 23.4734
10713 2 19.9871 144.692 22.1734
5075 1 2.70884 146.286 23.447
11592 2 0.89079 146.272 22.1596
5077 1 5.43743 147.866 23.4324
11590 2 3.61942 147.852 22.1448
4729 1 8.16509 146.286 23.447
11243 2 6.34704 146.272 22.1595
11245 2 9.07568 147.852 22.1448
4727 1 10.8937 147.866 23.4324
10928 2 11.8033 146.272 22.1595
4458 1 13.6213 146.286 23.447
10926 2 14.5319 147.852 22.1448
4460 1 16.3499 147.866 23.4324
10714 2 17.2595 146.272 22.1596
5441 1 21.8062 147.866 23.4324
4255 1 19.0776 146.286 23.447
10716 2 19.9881 147.852 22.1448
5065 1 2.70982 149.447 23.4169
11591 2 0.891888 149.432 22.1292
1225 1 5.43848 151.027 23.4006
7491 2 3.62071 151.011 22.1127
4728 1 8.16606 149.447 23.4169
11225 2 6.34812 149.432 22.1292
7153 2 9.07691 151.011 22.1127
10927 2 11.8044 149.432 22.1292
912 1 10.8947 151.027 23.4006
4436 1 13.6223 149.447 23.4169
6824 2 14.5332 151.011 22.1127
10692 2 17.2606 149.432 22.1292
569 1 16.3509 151.027 23.4006
4254 1 19.0785 149.447 23.4169
1545 1 21.8072 151.027 23.4006
6521 2 19.9894 151.011 22.1127
11800 2 1.79628 103.568 24.7639
5278 1 0.886746 101.978 26.0386
11466 2 2.70593 101.97 27.322
11470 2 4.52454 101.986 24.7519
11467 2 5.43407 103.553 27.3337
5276 1 3.6148 103.56 26.0505
11468 2 7.25253 103.568 24.7639
4978 1 6.34298 101.978 26.0386
11126 2 8.16216 101.97 27.322
4979 1 9.07104 103.56 26.0505
11154 2 9.98078 101.986 24.7519
4646 1 11.7992 101.978 26.0386
11124 2 10.8903 103.553 27.3337
10862 2 15.437 101.986 24.7519
11155 2 12.7087 103.568 24.7639
10858 2 13.6184 101.97 27.322
4644 1 14.5273 103.56 26.0505
10860 2 18.165 103.568 24.7639
4394 1 17.2555 101.978 26.0386
10859 2 16.3465 103.553 27.3337
10656 2 20.8932 101.986 24.7519
10653 2 19.0746 101.97 27.322
11752 2 21.8028 103.553 27.3337
4395 1 19.9835 103.56 26.0505
5277 1 0.886666 105.143 26.0614
11426 2 2.70599 105.137 27.3445
11469 2 4.52429 105.15 24.775
5279 1 3.61481 106.726 26.0715
4946 1 6.34291 105.143 26.0614
11125 2 8.16223 105.137 27.3445
4944 1 9.07105 106.726 26.0715
11130 2 9.98053 105.15 24.775
4645 1 11.7991 105.143 26.0614
10861 2 15.4368 105.15 24.7749
10842 2 13.6185 105.137 27.3445
4647 1 14.5273 106.726 26.0715
4386 1 17.2554 105.143 26.0614
10655 2 20.893 105.15 24.7749
10652 2 19.0747 105.137 27.3445
4384 1 19.9835 106.726 26.0715
11754 2 1.7961 106.732 24.7851
5231 1 0.886729 108.31 26.0807
11430 2 4.52416 108.315 24.7944
11471 2 7.25232 106.732 24.7851
4945 1 6.34296 108.31 26.0807
4622 1 11.7992 108.31 26.0807
11129 2 9.98041 108.315 24.7944
11128 2 12.7086 106.732 24.7851
10846 2 15.4367 108.315 24.7944
10863 2 18.1648 106.732 24.7851
4385 1 17.2554 108.31 26.0807
10654 2 20.8929 108.315 24.7944
5230 1 0.886843 111.477 26.0963
11755 2 1.79605 109.897 24.8028
5229 1 3.6149 109.893 26.0889
11429 2 4.52421 111.48 24.8102
4906 1 6.34308 111.477 26.0963
4947 1 9.07113 109.893 26.0889
11428 2 7.25231 109.897 24.8028
4621 1 11.7993 111.477 26.0963
11098 2 9.98045 111.48 24.8102
4620 1 14.5274 109.893 26.0889
10845 2 15.4367 111.48 24.8102
11131 2 12.7085 109.897 24.8028
4370 1 17.2556 111.477 26.0963
10844 2 18.1648 109.897 24.8028
4387 1 19.9836 109.893 26.0889
10647 2 20.8929 111.48 24.8102
5184 1 0.887022 114.644 26.1082
11708 2 1.79612 113.063 24.8167
5232 1 3.61505 113.06 26.1027
11383 2 4.52429 114.646 24.8222
4904 1 9.07129 113.06 26.1027
4905 1 6.34326 114.644 26.1082
11431 2 7.25235 113.063 24.8167
4590 1 11.7995 114.644 26.1082
11097 2 9.98051 114.646 24.8222
4623 1 14.5275 113.06 26.1027
10822 2 15.4368 114.646 24.8222
11096 2 12.7086 113.063 24.8167
4369 1 17.2557 114.644 26.1082
10847 2 18.1648 113.063 24.8167
4368 1 19.9838 113.06 26.1027
10646 2 20.893 114.646 24.8222
5183 1 0.887224 117.811 26.1164
11709 2 1.79624 116.229 24.8268
5182 1 3.61524 116.227 26.1128
11382 2 4.52445 117.812 24.8305
4860 1 6.34346 117.811 26.1164
4907 1 9.07147 116.227 26.1128
11381 2 7.25247 116.229 24.8269
4589 1 11.7997 117.811 26.1164
11059 2 9.98069 117.812 24.8305
4588 1 14.5277 116.227 26.1128
10821 2 15.4369 117.812 24.8305
11099 2 12.7087 116.229 24.8268
4347 1 17.2559 117.811 26.1164
10820 2 18.165 116.229 24.8268
4371 1 19.984 116.227 26.1128
10632 2 20.8932 117.812 24.8305
5144 1 0.887444 120.979 26.1207
11668 2 1.79642 119.395 24.8331
5185 1 3.61545 119.395 26.119
11336 2 4.52465 120.978 24.8348
4858 1 9.07169 119.395 26.119
4859 1 6.34368 120.979 26.1207
11384 2 7.25266 119.395 24.8331
4554 1 11.7999 120.979 26.1207
11058 2 9.98088 120.978 24.8348
4591 1 14.5279 119.395 26.119
10794 2 15.4371 120.978 24.8348
11057 2 12.7089 119.395 24.8331
4346 1 17.2562 120.979 26.1207
10823 2 18.1651 119.395 24.8331
4345 1 19.9842 119.395 26.119
10631 2 20.8934 120.978 24.8348
5143 1 0.887664 124.146 26.1211
11669 2 1.79663 122.561 24.8355
5142 1 3.61568 122.563 26.1214
11335 2 4.52487 124.144 24.8352
4815 1 6.34391 124.146 26.1211
4861 1 9.07192 122.563 26.1214
11334 2 7.25287 122.561 24.8355
4553 1 11.8001 124.146 26.1211
11019 2 9.98112 124.144 24.8352
4552 1 14.5282 122.563 26.1214
10793 2 15.4373 124.144 24.8352
11060 2 12.7091 122.561 24.8355
4323 1 17.2564 124.146 26.1211
10792 2 18.1653 122.561 24.8355
4348 1 19.9844 122.563 26.1214
10616 2 20.8936 124.144 24.8352
11636 2 1.79688 125.727 24.8339
5112 1 0.887881 127.314 26.1176
5145 1 3.61589 125.73 26.1198
11296 2 4.52512 127.31 24.8317
4813 1 9.07213 125.73 26.1198
11337 2 7.25313 125.727 24.8339
4814 1 6.34411 127.314 26.1176
4518 1 11.8004 127.314 26.1176
11018 2 9.98138 127.31 24.8317
4555 1 14.5284 125.73 26.1198
11017 2 12.7094 125.727 24.8339
10766 2 15.4376 127.31 24.8317
10795 2 18.1656 125.727 24.8339
4322 1 17.2566 127.314 26.1176
4321 1 19.9846 125.73 26.1198
10615 2 20.8938 127.31 24.8317
11637 2 1.79712 128.893 24.8284
5110 1 3.61612 128.898 26.1144
4816 1 9.07236 128.898 26.1144
11294 2 7.25335 128.893 24.8284
4516 1 14.5286 128.898 26.1144
11020 2 12.7096 128.893 24.8284
10764 2 18.1658 128.893 24.8284
4324 1 19.9848 128.898 26.1144
5111 1 0.888112 130.481 26.1102
11612 2 1.79741 132.058 24.8191
5113 1 3.61632 132.065 26.1051
11295 2 4.52536 130.475 24.8242
4775 1 9.07257 132.065 26.1051
4777 1 6.34435 130.481 26.1102
11297 2 7.25366 132.058 24.8191
4517 1 11.8006 130.481 26.1102
10980 2 9.98158 130.475 24.8242
4519 1 14.5288 132.065 26.1051
10765 2 15.4378 130.475 24.8242
10978 2 12.7099 132.058 24.8191
4299 1 17.2568 130.481 26.1103
10767 2 18.1661 132.058 24.8191
4297 1 19.985 132.065 26.1051
10600 2 20.8941 130.475 24.8242
5088 1 0.888306 133.648 26.0991
11613 2 1.79773 135.224 24.806
5086 1 3.61655 135.232 26.0921
11264 2 4.5257 133.641 24.813
4776 1 6.34455 133.648 26.0991
4778 1 9.07278 135.232 26.0921
11262 2 7.25397 135.224 24.806
4483 1 11.8008 133.648 26.0991
10979 2 9.98193 133.641 24.813
4481 1 14.529 135.232 26.0921
10738 2 15.4382 133.641 24.813
10981 2 12.7102 135.224 24.806
4298 1 17.257 133.648 26.0991
10736 2 18.1665 135.224 24.806
4300 1 19.9853 135.232 26.0921
10599 2 20.8944 133.641 24.813
5087 1 0.88857 136.815 26.0843
11596 2 1.79811 138.389 24.7891
5089 1 3.61684 138.399 26.0755
11263 2 4.52602 136.806 24.7981
4745 1 9.07308 138.399 26.0755
4747 1 6.3448 136.815 26.0843
11265 2 7.25433 138.389 24.7892
4482 1 11.801 136.815 26.0843
10948 2 9.98227 136.806 24.798
4484 1 14.5293 138.399 26.0755
10737 2 15.4385 136.806 24.798
10946 2 12.7106 138.389 24.7892
4275 1 17.2573 136.815 26.0843
10739 2 18.1668 138.389 24.7891
4273 1 19.9856 138.399 26.0755
10584 2 20.8947 136.806 24.798
5072 1 0.888874 139.982 26.0658
11597 2 1.79856 141.553 24.7686
5070 1 3.61716 141.565 26.0552
11240 2 4.52645 139.971 24.7794
11237 2 5.43638 141.576 27.3383
4746 1 6.34511 139.982 26.0658
4748 1 9.07341 141.565 26.0552
11238 2 7.25481 141.553 24.7686
4455 1 11.8014 139.982 26.0658
10947 2 9.9827 139.971 24.7794
10918 2 10.8926 141.576 27.3383
4453 1 14.5296 141.565 26.0552
10711 2 15.4389 139.971 24.7794
10949 2 12.711 141.553 24.7686
4274 1 17.2576 139.982 26.0658
10709 2 18.1673 141.553 24.7686
10708 2 16.3489 141.576 27.3382
4276 1 19.9859 141.565 26.0552
10583 2 20.8952 139.971 24.7794
11586 2 21.8051 141.576 27.3382
5071 1 0.889222 143.148 26.0437
11588 2 1.79915 144.717 24.7444
11220 2 2.70839 143.159 27.3268
5073 1 3.61753 144.73 26.0312
11239 2 4.52696 143.136 24.757
11218 2 5.43662 144.743 27.3145
4723 1 9.07376 144.73 26.0312
4725 1 6.34546 143.148 26.0437
11241 2 7.25538 144.717 24.7444
10919 2 8.16462 143.159 27.3268
4454 1 11.8017 143.148 26.0437
10924 2 9.9832 143.135 24.757
10921 2 10.8929 144.743 27.3145
4456 1 14.53 144.73 26.0312
10710 2 15.4394 143.135 24.757
10922 2 12.7116 144.717 24.7444
10687 2 13.6208 143.159 27.3268
4252 1 17.2579 143.148 26.0437
10712 2 18.1679 144.717 24.7444
10685 2 16.3491 144.743 27.3145
4250 1 19.9862 144.73 26.0312
10568 2 20.8957 143.136 24.757
11587 2 21.8053 144.743 27.3145
10565 2 19.0771 143.159 27.3268
5064 1 0.889615 146.313 26.0179
11589 2 1.79983 147.88 24.7165
11219 2 2.70861 146.326 27.3013
5062 1 3.61797 147.895 26.0037
11224 2 4.52762 146.299 24.7309
11221 2 5.43686 147.909 27.2873
4724 1 6.34586 146.313 26.0179
4726 1 9.07421 147.895 26.0037
11222 2 7.25608 147.88 24.7165
10904 2 8.16485 146.326 27.3013
4435 1 11.8021 146.313 26.0179
10923 2 9.98383 146.299 24.7309
10902 2 10.8931 147.909 27.2873
4433 1 14.5304 147.895 26.0037
10691 2 15.4401 146.299 24.7309
10925 2 12.7123 147.88 24.7166
10686 2 13.6211 146.326 27.3013
4251 1 17.2583 146.313 26.0179
10689 2 18.1685 147.88 24.7165
10688 2 16.3493 147.909 27.2873
4253 1 19.9867 147.895 26.0037
10567 2 20.8963 146.299 24.7309
11585 2 21.8056 147.909 27.2873
10551 2 19.0773 146.326 27.3013
5063 1 0.890108 149.477 25.9886
7447 2 1.80061 151.042 24.6852
11209 2 2.70888 149.492 27.2724
11223 2 4.52828 149.462 24.7013
1224 1 3.61851 151.058 25.9727
7113 2 5.43716 151.074 27.2567
4708 1 6.34635 149.477 25.9886
881 1 9.07475 151.058 25.9727
7152 2 7.25685 151.042 24.6852
10903 2 8.16511 149.492 27.2725
4434 1 11.8026 149.477 25.9886
10905 2 9.98456 149.462 24.7013
6800 2 10.8934 151.074 27.2568
10690 2 15.4408 149.462 24.7013
568 1 14.531 151.058 25.9727
6801 2 12.7131 151.042 24.6851
10672 2 13.6214 149.492 27.2725
4233 1 17.2588 149.477 25.9886
6520 2 18.1694 151.042 24.6852
6505 2 16.3496 151.074 27.2568
10552 2 20.897 149.462 24.7013
297 1 19.9872 151.058 25.9727
7446 2 21.8059 151.074 27.2567
10550 2 19.0776 149.492 27.2724
11422 2 0.887812 101.954 29.8912
5275 1 1.79656 103.546 28.6198
4942 1 4.52457 101.962 28.6083
11420 2 3.6161 103.539 29.9026
11122 2 6.34406 101.954 29.8911
4940 1 7.2528 103.546 28.6198
11123 2 9.07235 103.539 29.9026
4642 1 9.98081 101.962 28.6083
10838 2 11.8003 101.954 29.8911
4382 1 15.4371 101.962 28.6083
4643 1 12.709 103.546 28.6198
10836 2 14.5286 103.539 29.9026
10650 2 17.2565 101.954 29.8912
4380 1 18.1653 103.546 28.6198
4208 1 20.8933 101.962 28.6083
10651 2 19.9848 103.539 29.9026
11421 2 0.8882 105.124 29.9132
5227 1 1.79685 106.715 28.6404
11424 2 5.43419 106.721 27.3545
4941 1 4.52482 105.13 28.6305
11423 2 3.6165 106.709 29.9229
11090 2 6.34443 105.124 29.9132
4943 1 7.25309 106.715 28.6404
11088 2 9.07272 106.709 29.9229
11127 2 10.8904 106.721 27.3544
4618 1 9.98106 105.13 28.6305
10837 2 11.8007 105.124 29.9132
4381 1 15.4373 105.13 28.6305
4616 1 12.7093 106.715 28.6404
10839 2 14.529 106.709 29.9229
10840 2 16.3466 106.721 27.3545
10642 2 17.2569 105.124 29.9132
4383 1 18.1656 106.715 28.6404
11753 2 21.8029 106.721 27.3545
4207 1 20.8935 105.13 28.6305
10640 2 19.9852 106.709 29.9229
11425 2 2.70616 108.305 27.3635
11375 2 0.888597 108.295 29.9318
4902 1 4.52515 108.3 28.6494
11094 2 8.16238 108.305 27.3635
11089 2 6.34483 108.295 29.9318
4617 1 9.98139 108.3 28.6494
10814 2 11.8011 108.295 29.9318
10841 2 13.6186 108.305 27.3635
4366 1 15.4376 108.3 28.6494
10641 2 17.2573 108.295 29.9318
10645 2 19.0749 108.305 27.3635
4206 1 20.8939 108.3 28.6494
11379 2 2.70638 111.473 27.379
5228 1 1.79719 109.885 28.6574
11374 2 0.889006 111.466 29.947
11427 2 5.43439 109.889 27.3717
4901 1 4.52548 111.47 28.6646
11373 2 3.61693 109.881 29.9398
11093 2 8.16261 111.473 27.379
4900 1 7.25343 109.885 28.6574
11051 2 6.34526 111.466 29.947
11091 2 9.07318 109.881 29.9398
11092 2 10.8906 109.889 27.3717
4586 1 9.98171 111.47 28.6646
10813 2 11.8015 111.466 29.9469
10818 2 13.6189 111.473 27.379
4365 1 15.4379 111.47 28.6647
4619 1 12.7097 109.885 28.6574
10812 2 14.5294 109.881 29.9398
10843 2 16.3469 109.889 27.3717
4364 1 18.1659 109.885 28.6574
10627 2 17.2577 111.466 29.947
11706 2 21.8031 109.889 27.3717
10644 2 19.0751 111.473 27.379
4199 1 20.8942 111.47 28.6647
10643 2 19.9856 109.881 29.9398
11378 2 2.70661 114.642 27.3908
5180 1 1.79753 113.055 28.671
11328 2 0.889397 114.638 29.9585
11377 2 5.4346 113.057 27.3854
4856 1 4.5258 114.64 28.6764
11376 2 3.61733 113.052 29.9532
11055 2 8.16285 114.642 27.3908
4903 1 7.25377 113.055 28.671
11049 2 9.07357 113.052 29.9532
11050 2 6.34563 114.638 29.9585
11095 2 10.8908 113.057 27.3854
4585 1 9.98204 114.64 28.6764
10786 2 11.8019 114.638 29.9585
10817 2 13.6191 114.642 27.3908
4343 1 15.4383 114.64 28.6764
4584 1 12.71 113.055 28.671
10815 2 14.5298 113.052 29.9532
10816 2 16.3471 113.058 27.3854
4367 1 18.1662 113.055 28.671
10626 2 17.2581 114.638 29.9585
11707 2 21.8033 113.057 27.3854
10630 2 19.0753 114.642 27.3908
4198 1 20.8945 114.64 28.6764
10625 2 19.986 113.052 29.9532
11332 2 2.70687 117.811 27.3989
5181 1 1.79783 116.225 28.6808
11327 2 0.889746 117.81 29.9665
11380 2 5.43487 116.226 27.3953
4855 1 4.52609 117.811 28.6844
11326 2 3.6177 116.224 29.963
11054 2 8.16312 117.811 27.3989
4854 1 7.25407 116.225 28.6808
11011 2 6.34598 117.81 29.9665
11052 2 9.07393 116.224 29.963
11053 2 10.8911 116.226 27.3953
4550 1 9.98233 117.811 28.6844
10785 2 11.8022 117.81 29.9665
10790 2 13.6194 117.811 27.3989
4342 1 15.4386 117.811 28.6844
4587 1 12.7103 116.225 28.6808
10784 2 14.5302 116.224 29.963
10819 2 16.3473 116.226 27.3953
4341 1 18.1665 116.225 28.6808
10611 2 17.2585 117.81 29.9665
11666 2 21.8036 116.226 27.3953
10629 2 19.0756 117.811 27.3989
4187 1 20.8948 117.811 28.6844
10628 2 19.9864 116.224 29.963
11331 2 2.70709 120.98 27.4031
5140 1 1.7981 119.396 28.687
11288 2 0.889988 120.982 29.9707
11330 2 5.43511 119.395 27.4015
4811 1 4.52635 120.981 28.6886
11329 2 3.618 119.396 29.9691
11015 2 8.16333 120.98 27.4031
4857 1 7.25434 119.396 28.687
11009 2 9.07424 119.396 29.9691
11010 2 6.34623 120.982 29.9707
11056 2 10.8913 119.395 27.4015
4549 1 9.98259 120.981 28.6886
10758 2 11.8025 120.982 29.9707
10789 2 13.6196 120.98 27.4031
4319 1 15.4388 120.981 28.6886
4548 1 12.7106 119.396 28.687
10787 2 14.5305 119.396 29.9691
10788 2 16.3476 119.395 27.4015
4344 1 18.1668 119.396 28.687
10610 2 17.2587 120.982 29.9707
11667 2 21.8038 119.395 27.4015
10614 2 19.0758 120.98 27.4031
4186 1 20.8951 120.981 28.6886
10609 2 19.9867 119.396 29.969
11292 2 2.70732 124.149 27.4036
5141 1 1.79834 122.567 28.6893
11287 2 0.890205 124.155 29.9711
11333 2 5.43531 122.565 27.4038
4810 1 4.52655 124.152 28.6891
11286 2 3.61821 122.568 29.9714
11014 2 8.16353 124.149 27.4036
4809 1 7.25458 122.567 28.6893
10972 2 6.34643 124.155 29.9711
11012 2 9.07445 122.568 29.9714
11013 2 10.8915 122.565 27.4038
4514 1 9.98279 124.152 28.6891
10757 2 11.8027 124.155 29.9711
10762 2 13.6198 124.149 27.4036
4318 1 15.439 124.152 28.6891
4551 1 12.7108 122.567 28.6893
10756 2 14.5307 122.568 29.9714
10791 2 16.3478 122.565 27.4038
4317 1 18.1671 122.567 28.6893
10595 2 17.2589 124.155 29.9711
11634 2 21.804 122.565 27.4038
10613 2 19.076 124.149 27.4035
4175 1 20.8953 124.152 28.6891
10612 2 19.9869 122.568 29.9714
11291 2 2.70752 127.318 27.4001
5108 1 1.79851 125.737 28.6878
11256 2 0.890361 127.327 29.9678
11290 2 5.43556 125.734 27.4023
11289 2 3.61841 125.741 29.9699
4773 1 4.5267 127.322 28.6856
10976 2 8.16377 127.318 27.4001
4812 1 7.25475 125.737 28.6878
10970 2 9.07466 125.741 29.9699
10971 2 6.3466 127.327 29.9678
11016 2 10.8918 125.734 27.4023
4513 1 9.98294 127.322 28.6856
10730 2 11.8028 127.327 29.9678
10761 2 13.62 127.318 27.4001
4512 1 12.711 125.737 28.6878
10759 2 14.5309 125.741 29.9699
4295 1 15.4392 127.322 28.6856
10760 2 16.348 125.734 27.4023
4320 1 18.1672 125.737 28.6878
10594 2 17.2591 127.327 29.9678
11635 2 21.8043 125.734 27.4023
10598 2 19.0762 127.318 27.4001
10593 2 19.9871 125.741 29.9699
4174 1 20.8954 127.322 28.6856
5109 1 1.79866 128.908 28.6825
11293 2 5.43569 128.903 27.3969
11254 2 3.61849 128.913 29.9646
4771 1 7.2549 128.908 28.6825
10973 2 9.07472 128.913 29.9647
10974 2 10.8919 128.903 27.3969
4515 1 12.7111 128.908 28.6825
10728 2 14.531 128.913 29.9647
10763 2 16.3482 128.903 27.3969
4293 1 18.1674 128.908 28.6825
11610 2 21.8044 128.903 27.397
10596 2 19.9872 128.913 29.9646
11260 2 2.70764 130.487 27.3928
5084 1 1.79877 132.078 28.6734
11255 2 0.890397 130.498 29.9606
11258 2 5.43586 132.071 27.3878
4772 1 4.52685 130.493 28.6784
11257 2 3.61858 132.084 29.9556
10975 2 8.16388 130.487 27.3928
4774 1 7.25501 132.078 28.6734
10938 2 9.07482 132.084 29.9556
10940 2 6.34664 130.498 29.9606
10977 2 10.8921 132.071 27.3878
4479 1 9.98308 130.493 28.6784
10729 2 11.8029 130.499 29.9606
10734 2 13.6201 130.487 27.3928
4294 1 15.4393 130.493 28.6784
4477 1 12.7112 132.078 28.6734
10731 2 14.531 132.084 29.9556
10732 2 16.3484 132.071 27.3877
4296 1 18.1675 132.078 28.6734
10579 2 17.2591 130.499 29.9606
11611 2 21.8046 132.071 27.3878
10597 2 19.0764 130.487 27.3928
4163 1 20.8956 130.493 28.6784
10577 2 19.9873 132.084 29.9556
11259 2 2.70788 133.656 27.3818
5085 1 1.79884 135.248 28.6606
11232 2 0.890493 133.67 29.9498
4743 1 4.52692 133.663 28.6675
11230 2 3.61861 135.256 29.943
11261 2 5.43606 135.24 27.3749
10944 2 8.1641 133.656 27.3818
4741 1 7.25509 135.248 28.6606
10939 2 6.34674 133.67 29.9498
10941 2 9.07485 135.256 29.943
4478 1 9.98316 133.663 28.6675
10703 2 11.803 133.67 29.9497
10942 2 10.8923 135.24 27.3749
10733 2 13.6203 133.656 27.3818
4271 1 15.4394 133.663 28.6675
4480 1 12.7113 135.248 28.6606
10701 2 14.5311 135.256 29.943
4269 1 18.1676 135.248 28.6606
10578 2 17.2592 133.67 29.9498
10735 2 16.3485 135.24 27.3749
10582 2 19.0766 133.656 27.3818
11594 2 21.8048 135.24 27.3749
4162 1 20.8956 133.663 28.6675
10580 2 19.9873 135.256 29.943
5068 1 1.79892 138.418 28.6443
11231 2 0.890477 136.842 29.9353
11236 2 2.70801 136.824 27.3671
4742 1 4.527 136.833 28.6529
11233 2 3.61855 138.427 29.9267
11234 2 5.4362 138.408 27.3584
4744 1 7.25515 138.418 28.6443
10914 2 9.07479 138.427 29.9267
10916 2 6.34669 136.842 29.9353
10943 2 8.16426 136.824 27.3671
4451 1 9.98324 136.833 28.6529
10702 2 11.8029 136.842 29.9353
10945 2 10.8924 138.408 27.3584
4270 1 15.4395 136.833 28.6529
4449 1 12.7114 138.418 28.6443
10704 2 14.531 138.427 29.9267
10707 2 13.6205 136.824 27.3671
4272 1 18.1676 138.418 28.6443
10563 2 17.2592 136.842 29.9353
10705 2 16.3487 138.408 27.3584
11595 2 21.8049 138.408 27.3584
4151 1 20.8957 136.833 28.6529
10561 2 19.9872 138.427 29.9267
10581 2 19.0767 136.824 27.3671
5069 1 1.79895 141.587 28.6243
11216 2 0.890375 140.013 29.9172
11235 2 2.70815 139.992 27.3488
4721 1 4.52707 140.002 28.6347
11214 2 3.61845 141.598 29.9069
4719 1 7.25518 141.587 28.6243
10915 2 6.34663 140.013 29.9172
10917 2 9.07469 141.598 29.9069
10920 2 8.16439 139.992 27.3488
4450 1 9.9833 140.002 28.6348
10683 2 11.8029 140.013 29.9172
4248 1 15.4395 140.002 28.6348
4452 1 12.7114 141.587 28.6244
10681 2 14.5309 141.598 29.9069
10706 2 13.6207 139.992 27.3488
4246 1 18.1677 141.587 28.6244
10562 2 17.2591 140.013 29.9173
4150 1 20.8958 140.002 28.6347
10564 2 19.9872 141.598 29.9069
10566 2 19.0769 139.992 27.3487
5060 1 1.79895 144.756 28.6009
11215 2 0.89027 143.183 29.8957
4720 1 4.52707 143.171 28.613
11217 2 3.61833 144.768 29.8836
4722 1 7.25519 144.756 28.6009
10898 2 9.07456 144.768 29.8836
10900 2 6.34651 143.183 29.8957
4431 1 9.98331 143.171 28.613
10682 2 11.8028 143.183 29.8957
4247 1 15.4395 143.171 28.6131
4429 1 12.7114 144.756 28.6009
10684 2 14.5308 144.768 29.8836
4249 1 18.1677 144.756 28.6009
10548 2 17.259 143.183 29.8957
4139 1 20.8958 143.171 28.6131
10546 2 19.9871 144.768 29.8836
5061 1 1.79899 147.924 28.5739
11208 2 0.890162 146.353 29.8707
4707 1 4.52708 146.34 28.5878
11206 2 3.61819 147.938 29.857
4705 1 7.25523 147.924 28.5739
10899 2 6.34638 146.353 29.8707
10901 2 9.07444 147.938 29.857
4430 1 9.98332 146.34 28.5878
10671 2 11.8026 146.353 29.8707
4232 1 15.4396 146.34 28.5878
4432 1 12.7115 147.924 28.5739
10669 2 14.5307 147.938 29.857
4230 1 18.1677 147.924 28.5739
10547 2 17.2588 146.353 29.8707
4138 1 20.8958 146.34 28.5878
10549 2 19.9869 147.938 29.857
11207 2 0.889961 149.522 29.8425
1178 1 1.79902 151.09 28.5437
4706 1 4.52712 149.507 28.5592
7112 2 3.61796 151.107 29.8272
10889 2 6.3462 149.522 29.8425
880 1 7.25526 151.09 28.5437
6769 2 9.0742 151.107 29.8272
4416 1 9.98334 149.507 28.5592
10670 2 11.8025 149.522 29.8425
4231 1 15.4396 149.507 28.5592
545 1 12.7115 151.09 28.5437
6504 2 14.5305 151.107 29.8272
10537 2 17.2587 149.522 29.8425
296 1 18.1677 151.09 28.5437
4127 1 20.8958 149.507 28.5592
6297 2 19.9867 151.107 29.8272
4938 1 2.7067 101.945 31.1769
11419 2 1.79872 103.524 32.4704
11086 2 4.52653 101.937 32.4592
4939 1 5.43509 103.531 31.1883
4614 1 8.16294 101.945 31.1769
11084 2 7.25495 103.524 32.4705
10834 2 9.98277 101.937 32.4592
4612 1 10.8913 103.531 31.1883
4378 1 13.6192 101.945 31.1769
10638 2 15.439 101.937 32.4592
10835 2 12.7112 103.524 32.4705
4379 1 16.3476 103.531 31.1882
10636 2 18.1674 103.524 32.4705
4205 1 19.0754 101.945 31.1769
10528 2 20.8952 101.937 32.4592
5225 1 21.8038 103.531 31.1882
4898 1 2.70725 105.117 31.1987
11371 2 1.79936 106.698 32.4904
11085 2 4.52716 105.111 32.4809
4896 1 5.43566 106.704 31.2084
4613 1 8.16349 105.117 31.1987
11087 2 7.2556 106.698 32.4904
10810 2 9.98339 105.111 32.4809
4615 1 10.8919 106.704 31.2084
4362 1 13.6197 105.117 31.1987
10637 2 15.4396 105.111 32.4809
10808 2 12.7118 106.698 32.4904
10639 2 18.1681 106.698 32.4904
4360 1 16.3481 106.704 31.2084
4204 1 19.076 105.117 31.1987
10527 2 20.8959 105.111 32.4809
5226 1 21.8044 106.704 31.2084
4897 1 2.70782 108.29 31.2172
11047 2 4.52779 108.285 32.4991
4582 1 8.16406 108.29 31.2172
10809 2 9.98404 108.285 32.4991
4361 1 13.6203 108.29 31.2172
10623 2 15.4403 108.285 32.4991
4197 1 19.0765 108.29 31.2172
10526 2 20.8965 108.285 32.4992
4852 1 2.70834 111.463 31.2322
11372 2 1.79999 109.872 32.507
4899 1 5.43621 109.876 31.2251
11046 2 4.5284 111.46 32.514
4581 1 8.16458 111.463 31.2322
11045 2 7.25623 109.872 32.507
4580 1 10.8924 109.876 31.2251
10782 2 9.98464 111.46 32.514
4339 1 13.6208 111.463 31.2322
10622 2 15.4409 111.46 32.514
10811 2 12.7125 109.872 32.507
4363 1 16.3487 109.876 31.2251
10621 2 18.1687 109.872 32.507
5178 1 21.8049 109.876 31.2251
4196 1 19.0771 111.463 31.2322
10523 2 20.8971 111.46 32.514
4851 1 2.70882 114.636 31.2437
11324 2 1.80054 113.047 32.5202
4850 1 5.43671 113.05 31.2384
11007 2 4.52891 114.634 32.5254
4546 1 8.16505 114.636 31.2437
11048 2 7.25677 113.047 32.5202
4583 1 10.893 113.05 31.2384
10781 2 9.98513 114.634 32.5254
4338 1 13.6213 114.636 31.2437
10607 2 15.4414 114.634 32.5254
10780 2 12.713 113.047 32.5202
4337 1 16.3492 113.05 31.2383
10624 2 18.1693 113.047 32.5201
5179 1 21.8054 113.05 31.2384
4185 1 19.0775 114.636 31.2437
10522 2 20.8976 114.634 32.5254
4807 1 2.70919 117.81 31.2516
11325 2 1.80101 116.222 32.5298
4853 1 5.43713 116.223 31.2481
11006 2 4.52933 117.81 32.5333
4545 1 8.16543 117.81 31.2516
11005 2 7.25725 116.222 32.5298
4544 1 10.8934 116.223 31.2481
10754 2 9.98557 117.81 32.5332
4315 1 13.6217 117.81 31.2516
10606 2 15.4418 117.81 32.5332
10783 2 12.7135 116.222 32.5298
4340 1 16.3496 116.223 31.2481
10605 2 18.1697 116.222 32.5298
5138 1 21.8058 116.223 31.2481
4184 1 19.0779 117.81 31.2516
10519 2 20.898 117.81 32.5332
4806 1 2.70948 120.984 31.2558
11284 2 1.80137 119.397 32.5358
4805 1 5.43746 119.397 31.2541
10968 2 4.52961 120.985 32.5374
4510 1 8.16572 120.984 31.2558
11008 2 7.25762 119.397 32.5358
4547 1 10.8937 119.397 31.2541
10753 2 9.98586 120.985 32.5374
4314 1 13.622 120.984 31.2558
10591 2 15.4421 120.985 32.5374
10752 2 12.7139 119.397 32.5358
4313 1 16.3499 119.397 31.2541
10608 2 18.1701 119.397 32.5358
5139 1 21.8062 119.397 31.2541
4173 1 19.0782 120.984 31.2558
10518 2 20.8983 120.985 32.5374
4769 1 2.70967 124.157 31.2562
11285 2 1.8016 122.572 32.5381
4808 1 5.43771 122.57 31.2565
10967 2 4.52982 124.16 32.5379
4509 1 8.1659 124.157 31.2562
10966 2 7.25783 122.572 32.5381
4508 1 10.8939 122.57 31.2565
10726 2 9.98604 124.16 32.5379
4291 1 13.6221 124.157 31.2562
10590 2 15.4423 124.16 32.5379
10755 2 12.7141 122.572 32.5381
4316 1 16.3502 122.57 31.2565
10589 2 18.1703 122.572 32.5381
5106 1 21.8064 122.57 31.2565
4172 1 19.0784 124.157 31.2562
10515 2 20.8985 124.16 32.5379
11252 2 1.80177 125.748 32.5367
4768 1 2.70977 127.331 31.2529
4767 1 5.43784 125.744 31.255
10936 2 4.52992 127.335 32.5346
10969 2 7.25801 125.748 32.5367
4475 1 8.166 127.331 31.2529
4511 1 10.8941 125.744 31.255
10725 2 9.98619 127.335 32.5346
10724 2 12.7143 125.748 32.5367
4290 1 13.6222 127.331 31.2529
10575 2 15.4424 127.335 32.5346
4289 1 16.3503 125.744 31.255
10592 2 18.1705 125.748 32.5367
5107 1 21.8066 125.744 31.255
4161 1 19.0785 127.331 31.2529
10514 2 20.8986 127.335 32.5346
11253 2 1.80178 128.923 32.5315
4770 1 5.43793 128.918 31.2498
10934 2 7.25801 128.923 32.5316
4473 1 10.8942 128.918 31.2498
10727 2 12.7143 128.923 32.5315
4292 1 16.3504 128.918 31.2498
10573 2 18.1705 128.923 32.5315
5082 1 21.8066 128.918 31.2498
4739 1 2.70983 130.504 31.2458
11228 2 1.80178 132.098 32.5226
4737 1 5.43793 132.091 31.2409
10935 2 4.52987 130.51 32.5276
4474 1 8.16607 130.504 31.2458
10937 2 7.25802 132.098 32.5227
4476 1 10.8942 132.091 31.2409
10699 2 9.9861 130.51 32.5275
4267 1 13.6223 130.504 31.2458
10574 2 15.4424 130.51 32.5275
10697 2 12.7142 132.098 32.5227
4265 1 16.3504 132.091 31.2409
10576 2 18.1705 132.098 32.5227
5083 1 21.8067 132.091 31.2409
4160 1 19.0785 130.504 31.2458
10511 2 20.8986 130.51 32.5275
4738 1 2.70979 133.678 31.235
11229 2 1.80169 135.272 32.5102
4740 1 5.43788 135.264 31.2282
10912 2 4.5299 133.685 32.5169
4447 1 8.16602 133.678 31.235
10910 2 7.25793 135.272 32.5101
4445 1 10.8941 135.264 31.2282
10698 2 9.98612 133.685 32.5169
4266 1 13.6223 133.678 31.235
10559 2 15.4423 133.685 32.5169
10700 2 12.7142 135.272 32.5102
4268 1 16.3504 135.264 31.2282
10557 2 18.1704 135.272 32.5102
5066 1 21.8066 135.264 31.2282
4149 1 19.0785 133.678 31.235
10510 2 20.8986 133.685 32.5168
4717 1 2.70972 136.851 31.2206
11212 2 1.80143 138.447 32.4941
4715 1 5.43776 138.437 31.2121
10911 2 4.5297 136.859 32.5025
4446 1 8.16595 136.851 31.2206
10913 2 7.25766 138.447 32.4941
4448 1 10.894 138.437 31.2121
10679 2 9.98594 136.859 32.5025
4244 1 13.6222 136.851 31.2206
10558 2 15.4422 136.859 32.5026
10677 2 12.7139 138.447 32.4941
4242 1 16.3502 138.437 31.2121
10560 2 18.1701 138.447 32.4941
5067 1 21.8065 138.437 31.2121
4148 1 19.0784 136.851 31.2206
10507 2 20.8984 136.859 32.5026
4716 1 2.70952 140.023 31.2027
11213 2 1.80109 141.621 32.4746
4718 1 5.43751 141.61 31.1925
10896 2 4.52937 140.034 32.4848
4427 1 8.16576 140.023 31.2027
10894 2 7.25732 141.621 32.4746
4425 1 10.8938 141.61 31.1925
10678 2 9.98563 140.034 32.4848
4243 1 13.622 140.023 31.2027
10544 2 15.4419 140.034 32.4847
10680 2 12.7136 141.621 32.4746
4245 1 16.35 141.61 31.1925
10542 2 18.1698 141.621 32.4746
5058 1 21.8062 141.61 31.1925
4137 1 19.0782 140.023 31.2027
10506 2 20.8981 140.034 32.4847
4703 1 2.70921 143.196 31.1814
11204 2 1.80063 144.794 32.4516
4701 1 5.43717 144.781 31.1694
10895 2 4.52898 143.208 32.4635
4426 1 8.16545 143.196 31.1814
10897 2 7.25688 144.794 32.4516
4428 1 10.8934 144.781 31.1694
10667 2 9.98521 143.208 32.4635
4228 1 13.6217 143.196 31.1814
10543 2 15.4414 143.208 32.4635
10665 2 12.7131 144.794 32.4516
4226 1 16.3496 144.781 31.1695
10545 2 18.1694 144.794 32.4517
5059 1 21.8059 144.781 31.1694
4136 1 19.0779 143.196 31.1814
10503 2 20.8977 143.208 32.4635
4702 1 2.70886 146.367 31.1566
11205 2 1.80013 147.967 32.4255
4704 1 5.43678 147.953 31.143
10888 2 4.52853 146.381 32.4389
4415 1 8.1651 146.367 31.1566
10886 2 7.25636 147.967 32.4255
4413 1 10.893 147.953 31.143
10666 2 9.98477 146.381 32.4389
4227 1 13.6213 146.367 31.1567
10536 2 15.441 146.381 32.439
10668 2 12.7126 147.967 32.4255
4229 1 16.3493 147.953 31.143
10534 2 18.1688 147.967 32.4255
5057 1 21.8055 147.953 31.143
4126 1 19.0776 146.367 31.1567
10502 2 20.8972 146.381 32.439
4694 1 2.70848 149.538 31.1286
7066 2 1.79942 151.139 32.3963
10887 2 4.52791 149.553 32.4112
841 1 5.43634 151.123 31.1135
4414 1 8.16472 149.538 31.1286
6768 2 7.25566 151.139 32.3963
10660 2 9.98417 149.553 32.4112
544 1 10.8926 151.123 31.1135
4217 1 13.6209 149.538 31.1286
10535 2 15.4404 149.553 32.4113
6481 2 12.7119 151.139 32.3963
281 1 16.3488 151.123 31.1135
6296 2 18.1681 151.139 32.3963
4125 1 19.0772 149.538 31.1286
10499 2 20.8966 149.553 32.4113
1177 1 21.8051 151.123 31.1135
4894 1 0.889454 101.929 33.7445
11082 2 2.70965 101.921 35.0262
4892 1 3.61798 103.517 33.7556
11083 2 5.43819 103.509 35.0372
4610 1 6.34569 101.929 33.7445
10806 2 8.16589 101.921 35.0262
4611 1 9.07421 103.517 33.7556
4358 1 11.8019 101.929 33.7445
10804 2 10.8944 103.509 35.0372
10634 2 13.6221 101.921 35.0262
4356 1 14.5304 103.517 33.7556
4202 1 17.2582 101.929 33.7445
10635 2 16.3507 103.509 35.0373
10525 2 19.0784 101.921 35.0261
11369 2 21.8069 103.509 35.0372
4203 1 19.9867 103.517 33.7556
4893 1 0.890253 105.104 33.7659
11043 2 2.7105 105.098 35.0475
11041 2 5.43904 106.686 35.0569
4895 1 3.61877 106.692 33.7754
4578 1 6.3465 105.104 33.7659
10805 2 8.16674 105.098 35.0475
4576 1 9.07501 106.692 33.7754
4357 1 11.8027 105.104 33.7659
10807 2 10.8953 106.686 35.0569
10619 2 13.623 105.098 35.0475
4359 1 14.5313 106.692 33.7754
4194 1 17.259 105.104 33.7659
10617 2 16.3515 106.686 35.0569
10524 2 19.0792 105.098 35.0475
11370 2 21.8077 106.686 35.0569
4192 1 19.9875 106.692 33.7754
4848 1 0.891035 108.28 33.784
11042 2 2.71133 108.275 35.0655
4577 1 6.34728 108.28 33.784
10778 2 8.16756 108.275 35.0655
4335 1 11.8035 108.28 33.784
10618 2 13.6238 108.275 35.0655
4193 1 17.2598 108.28 33.784
10521 2 19.0801 108.275 35.0655
4847 1 0.891738 111.456 33.7988
11003 2 2.71209 111.453 35.0802
4846 1 3.61951 109.868 33.7918
11044 2 5.43984 109.864 35.0733
4542 1 6.34797 111.456 33.7988
4579 1 9.07575 109.868 33.7918
10777 2 8.16833 111.453 35.0802
4334 1 11.8042 111.456 33.7988
10776 2 10.8961 109.864 35.0733
4333 1 14.532 109.868 33.7918
10603 2 13.6246 111.453 35.0802
4182 1 17.2605 111.456 33.7988
10620 2 16.3523 109.864 35.0733
11322 2 21.8086 109.864 35.0733
4195 1 19.9882 109.868 33.7918
10520 2 19.0808 111.453 35.0802
4803 1 0.892337 114.633 33.8101
11002 2 2.7127 114.631 35.0914
4849 1 3.62017 113.044 33.8049
11001 2 5.44053 113.042 35.0862
4540 1 9.07641 113.044 33.8049
4541 1 6.34858 114.633 33.8101
10750 2 8.16894 114.631 35.0914
4311 1 11.8048 114.633 33.8101
10779 2 10.8968 113.042 35.0862
4336 1 14.5327 113.044 33.8049
10602 2 13.6252 114.631 35.0914
4181 1 17.261 114.633 33.8101
10601 2 16.353 113.042 35.0862
11323 2 21.8092 113.042 35.0862
4180 1 19.9889 113.044 33.8049
10517 2 19.0814 114.631 35.0914
4802 1 0.892787 117.809 33.8179
10964 2 2.7132 117.809 35.0991
4801 1 3.6207 116.221 33.8144
11004 2 5.44109 116.22 35.0957
4506 1 6.34902 117.809 33.8179
4543 1 9.07694 116.221 33.8144
10749 2 8.16944 117.809 35.0992
4310 1 11.8053 117.809 33.8179
10748 2 10.8973 116.22 35.0957
4309 1 14.5332 116.221 33.8144
10587 2 13.6257 117.809 35.0991
4170 1 17.2615 117.809 33.8179
10604 2 16.3536 116.22 35.0957
11282 2 21.8098 116.22 35.0957
4183 1 19.9894 116.221 33.8144
10516 2 19.0819 117.809 35.0991
4765 1 0.893105 120.986 33.8221
10963 2 2.71352 120.987 35.1033
4804 1 3.62108 119.398 33.8204
10962 2 5.4415 119.398 35.1017
4504 1 9.07732 119.398 33.8204
4505 1 6.34934 120.986 33.8221
10722 2 8.16975 120.987 35.1033
4287 1 11.8056 120.986 33.8221
10751 2 10.8978 119.398 35.1017
4312 1 14.5336 119.398 33.8204
10586 2 13.626 120.987 35.1033
4169 1 17.2618 120.986 33.8221
10585 2 16.354 119.398 35.1017
11283 2 21.8102 119.398 35.1017
4168 1 19.9898 119.398 33.8204
10513 2 19.0822 120.987 35.1033
4764 1 0.893271 124.163 33.8226
10932 2 2.71369 124.165 35.1038
4763 1 3.62133 122.574 33.8228
10965 2 5.44172 122.576 35.104
4471 1 6.34952 124.163 33.8226
4507 1 9.07757 122.574 33.8228
10721 2 8.16992 124.165 35.1038
4286 1 11.8058 124.163 33.8226
10720 2 10.898 122.576 35.104
4285 1 14.5338 122.574 33.8228
10571 2 13.6262 124.165 35.1038
4158 1 17.262 124.163 33.8226
10588 2 16.3542 122.576 35.104
11250 2 21.8104 122.576 35.104
4171 1 19.99 122.574 33.8228
10512 2 19.0824 124.165 35.1038
4735 1 0.893328 127.339 33.8193
10931 2 2.71376 127.344 35.1006
4766 1 3.62142 125.751 33.8214
10930 2 5.44188 125.755 35.1027
4469 1 9.07766 125.751 33.8214
4470 1 6.34956 127.34 33.8193
10695 2 8.17002 127.344 35.1006
10723 2 10.8981 125.755 35.1027
4263 1 11.8058 127.34 33.8193
4288 1 14.5339 125.751 33.8214
10570 2 13.6263 127.344 35.1006
10569 2 16.3543 125.755 35.1027
4157 1 17.262 127.339 33.8193
11251 2 21.8106 125.755 35.1027
4156 1 19.9901 125.751 33.8214
10509 2 19.0825 127.344 35.1006
4733 1 3.62146 128.928 33.8163
10933 2 5.44185 128.933 35.0976
4472 1 9.07769 128.928 33.8163
10693 2 10.8981 128.933 35.0976
4261 1 14.5339 128.928 33.8163
10572 2 16.3543 128.933 35.0976
11226 2 21.8105 128.933 35.0976
4159 1 19.9902 128.928 33.8163
4734 1 0.893321 130.516 33.8123
10908 2 2.71367 130.522 35.0936
4736 1 3.62139 132.104 33.8075
10906 2 5.44173 132.111 35.0888
4441 1 9.07763 132.104 33.8074
4443 1 6.34956 130.516 33.8123
10694 2 8.16989 130.522 35.0936
4262 1 11.8058 130.516 33.8124
10696 2 10.898 132.111 35.0888
4264 1 14.5339 132.104 33.8075
10555 2 13.6261 130.522 35.0936
4146 1 17.262 130.516 33.8123
10553 2 16.3542 132.111 35.0888
11227 2 21.8104 132.111 35.0888
4144 1 19.9901 132.104 33.8075
10508 2 19.0824 130.522 35.0936
4713 1 0.893189 133.692 33.8016
10907 2 2.71357 133.7 35.0831
4711 1 3.62122 135.28 33.795
10909 2 5.44156 135.289 35.0764
4442 1 6.34942 133.692 33.8016
4444 1 9.07746 135.28 33.795
10675 2 8.16982 133.7 35.0831
4240 1 11.8057 133.692 33.8016
10673 2 10.8978 135.289 35.0764
4238 1 14.5337 135.28 33.795
10554 2 13.626 133.7 35.083
4145 1 17.2619 133.692 33.8017
10556 2 16.3541 135.289 35.0764
11210 2 21.8103 135.289 35.0764
4147 1 19.9899 135.28 33.795
10505 2 19.0823 133.7 35.083
4712 1 0.892972 136.868 33.7874
10892 2 2.71326 136.877 35.0689
4714 1 3.62093 138.456 33.779
10890 2 5.44116 138.466 35.0604
4421 1 9.07716 138.456 33.779
4423 1 6.34921 136.868 33.7874
10674 2 8.16949 136.877 35.0689
10676 2 10.8974 138.466 35.0605
4239 1 11.8055 136.868 33.7874
10540 2 13.6257 136.877 35.0689
4241 1 14.5334 138.456 33.779
10538 2 16.3536 138.466 35.0605
4134 1 17.2617 136.868 33.7874
10504 2 19.082 136.877 35.0689
4132 1 19.9896 138.456 33.779
11211 2 21.8099 138.466 35.0605
10891 2 2.71275 140.055 35.0512
4699 1 0.892584 140.044 33.7697
10893 2 5.44057 141.644 35.0411
4697 1 3.62042 141.632 33.7596
10663 2 8.169 140.055 35.0512
4424 1 9.07666 141.632 33.7596
4422 1 6.34882 140.044 33.7697
10661 2 10.8968 141.644 35.0411
4224 1 11.8051 140.044 33.7697
10539 2 13.6252 140.055 35.0512
4222 1 14.5329 141.632 33.7596
10541 2 16.3531 141.644 35.0411
4133 1 17.2613 140.044 33.7697
10501 2 19.0815 140.055 35.0512
4135 1 19.9891 141.632 33.7596
11202 2 21.8093 141.644 35.0412
4698 1 0.89199 143.22 33.7487
10884 2 2.71212 143.232 35.0302
4700 1 3.61975 144.807 33.7369
10882 2 5.43982 144.82 35.0185
4409 1 9.076 144.807 33.7369
4411 1 6.34823 143.22 33.7487
10662 2 8.16834 143.232 35.0302
4223 1 11.8045 143.22 33.7487
10664 2 10.8961 144.82 35.0185
4225 1 14.5322 144.807 33.7369
10532 2 13.6246 143.232 35.0302
4123 1 17.2607 143.22 33.7487
10530 2 16.3523 144.82 35.0185
11203 2 21.8086 144.82 35.0185
4121 1 19.9885 144.807 33.7369
10500 2 19.0808 143.232 35.0302
4693 1 0.891276 146.395 33.7243
10883 2 2.71135 146.409 35.006
4691 1 3.61903 147.982 33.7109
10885 2 5.43904 147.997 34.9927
4410 1 6.34752 146.395 33.7243
4412 1 9.07527 147.982 33.7109
10659 2 8.16761 146.409 35.006
4216 1 11.8038 146.395 33.7243
10657 2 10.8953 147.997 34.9927
4214 1 14.5315 147.982 33.7109
10531 2 13.6238 146.409 35.006
10533 2 16.3515 147.997 34.9927
4122 1 17.26 146.395 33.7243
10498 2 19.0801 146.409 35.006
4124 1 19.9877 147.982 33.7109
11201 2 21.8077 147.997 34.9927
10881 2 2.71031 149.585 34.9787
4692 1 0.890518 149.569 33.6968
6729 2 5.43788 151.173 34.9639
840 1 3.61818 151.156 33.6819
513 1 9.07442 151.156 33.6819
10658 2 8.16656 149.585 34.9787
4404 1 6.34676 149.569 33.6968
6480 2 10.8941 151.173 34.9639
4215 1 11.803 149.569 33.6968
280 1 14.5307 151.156 33.6819
10529 2 13.6228 149.585 34.9786
6281 2 16.3504 151.173 34.9639
4116 1 17.2592 149.569 33.6968
105 1 19.9869 151.156 33.6819
7065 2 21.8066 151.173 34.9639
10497 2 19.0791 149.585 34.9786
12670 2 0.893475 101.904 37.5919
4891 1 1.80152 103.502 36.3218
4574 1 4.52913 101.912 36.3108
12668 2 3.6221 103.494 37.6029
12639 2 6.34972 101.904 37.5919
12640 2 9.07834 103.494 37.6029
4572 1 7.25776 103.502 36.3218
12606 2 11.806 101.904 37.5919
4354 1 9.98536 101.912 36.3108
4190 1 15.4416 101.912 36.3108
12604 2 14.5346 103.494 37.6029
4355 1 12.714 103.502 36.3218
12575 2 17.2622 101.904 37.5919
4188 1 18.1702 103.502 36.3218
4112 1 20.8978 101.912 36.3108
12576 2 19.9908 103.494 37.6029
12669 2 0.89451 105.084 37.613
4844 1 1.80251 106.68 36.3414
4573 1 4.53013 105.091 36.332
12671 2 3.62311 106.674 37.6223
12636 2 6.35073 105.084 37.613
12634 2 9.07935 106.674 37.6224
4575 1 7.25874 106.68 36.3414
12605 2 11.807 105.084 37.613
4331 1 9.98637 105.091 36.332
4189 1 15.4426 105.091 36.332
12607 2 14.5356 106.674 37.6224
4329 1 12.715 106.68 36.3414
12572 2 17.2632 105.084 37.613
4191 1 18.1712 106.68 36.3414
4111 1 20.8989 105.091 36.332
12570 2 19.9918 106.674 37.6223
12666 2 0.895479 108.265 37.6309
4538 1 4.53109 108.27 36.3499
12635 2 6.35172 108.265 37.6309
12602 2 11.808 108.265 37.6309
4330 1 9.98733 108.27 36.3499
4178 1 15.4436 108.27 36.3499
12571 2 17.2642 108.265 37.6309
4110 1 20.8998 108.27 36.3499
12665 2 0.896339 111.446 37.6454
4845 1 1.8034 109.86 36.3576
12664 2 3.62406 109.855 37.6386
4537 1 4.53193 111.449 36.3644
12632 2 6.35259 111.446 37.6454
12637 2 9.0803 109.855 37.6385
4536 1 7.25964 109.86 36.3576
12601 2 11.8088 111.446 37.6454
4307 1 9.98817 111.449 36.3644
12600 2 14.5365 109.855 37.6385
4177 1 15.4444 111.449 36.3644
4332 1 12.7159 109.86 36.3576
12568 2 17.2651 111.446 37.6454
4176 1 18.1721 109.86 36.3576
12573 2 19.9928 109.855 37.6386
4109 1 20.9006 111.449 36.3644
12662 2 0.897064 114.627 37.6565
4799 1 1.80419 113.039 36.3705
12667 2 3.62484 113.036 37.6514
4502 1 4.53264 114.629 36.3756
12630 2 9.08108 113.036 37.6514
12631 2 6.35328 114.627 37.6565
4539 1 7.26043 113.039 36.3705
12598 2 11.8095 114.627 37.6565
4306 1 9.98888 114.629 36.3756
12603 2 14.5373 113.036 37.6513
4166 1 15.4451 114.629 36.3756
4305 1 12.7167 113.039 36.3705
12567 2 17.2658 114.627 37.6565
4179 1 18.1729 113.039 36.3705
12566 2 19.9936 113.036 37.6514
4108 1 20.9014 114.629 36.3756
12661 2 0.89761 117.808 37.6642
4800 1 1.8048 116.219 36.3799
12660 2 3.62548 116.218 37.6607
4501 1 4.53315 117.809 36.3833
12628 2 6.35386 117.808 37.6642
12633 2 9.08171 116.218 37.6608
4500 1 7.26104 116.219 36.3799
12597 2 11.8101 117.808 37.6642
4283 1 9.98939 117.809 36.3833
12596 2 14.5379 116.218 37.6608
4165 1 15.4456 117.809 36.3833
4308 1 12.7173 116.219 36.3799
12564 2 17.2663 117.808 37.6642
4164 1 18.1735 116.219 36.3799
12569 2 19.9942 116.218 37.6607
4107 1 20.9019 117.809 36.3833
12658 2 0.897944 120.99 37.6683
4761 1 1.80522 119.399 36.3859
12663 2 3.62593 119.399 37.6667
4467 1 4.53349 120.988 36.3875
12626 2 9.08218 119.399 37.6667
12627 2 6.35419 120.99 37.6683
4503 1 7.26146 119.399 36.3859
12594 2 11.8104 120.99 37.6683
4282 1 9.98972 120.988 36.3875
12599 2 14.5384 119.399 37.6667
4154 1 15.446 120.988 36.3875
4281 1 12.7177 119.399 36.3859
12563 2 17.2667 120.99 37.6683
4167 1 18.1739 119.399 36.3859
12562 2 19.9946 119.399 37.6667
4106 1 20.9022 120.988 36.3875
12657 2 0.898103 124.171 37.6688
4762 1 1.80547 122.578 36.3882
12656 2 3.62615 122.58 37.669
4466 1 4.53365 124.168 36.388
12624 2 6.35433 124.171 37.6688
12629 2 9.08238 122.58 37.669
4465 1 7.26171 122.578 36.3882
12593 2 11.8106 124.171 37.6688
4259 1 9.98989 124.168 36.388
12592 2 14.5386 122.58 37.669
4153 1 15.4461 124.168 36.388
4284 1 12.718 122.578 36.3882
12560 2 17.2668 124.171 37.6688
4152 1 18.1742 122.578 36.3882
12565 2 19.9949 122.58 37.669
4105 1 20.9024 124.168 36.388
4731 1 1.80554 125.758 36.3869
12654 2 0.898157 127.352 37.6657
12659 2 3.62627 125.762 37.6677
4439 1 4.53365 127.348 36.3849
12622 2 9.08252 125.762 37.6677
4468 1 7.26178 125.758 36.3869
12623 2 6.35439 127.352 37.6657
12590 2 11.8106 127.352 37.6657
4258 1 9.98989 127.348 36.3849
12595 2 14.5387 125.762 37.6677
4257 1 12.718 125.758 36.3869
4142 1 15.4461 127.348 36.3849
4155 1 18.1743 125.758 36.3869
12559 2 17.2669 127.352 37.6657
12558 2 19.995 125.762 37.6677
4104 1 20.9024 127.348 36.3849
4732 1 1.80552 128.938 36.3819
12652 2 3.6262 128.943 37.6627
12625 2 9.08245 128.943 37.6627
4437 1 7.26176 128.938 36.3819
12588 2 14.5387 128.943 37.6627
4260 1 12.718 128.938 36.3819
4140 1 18.1742 128.938 36.3819
12561 2 19.9949 128.943 37.6627
12653 2 0.898002 130.533 37.6588
4709 1 1.80539 132.117 36.3731
12655 2 3.62603 132.124 37.654
4438 1 4.5336 130.528 36.378
12618 2 9.08226 132.124 37.654
12620 2 6.35423 130.534 37.6588
4440 1 7.26163 132.117 36.3732
12589 2 11.8105 130.534 37.6588
4236 1 9.98984 130.528 36.378
12591 2 14.5385 132.124 37.654
4141 1 15.4461 130.528 36.378
4234 1 12.7179 132.117 36.3731
12556 2 17.2667 130.533 37.6588
4143 1 18.1741 132.117 36.3731
12554 2 19.9948 132.124 37.654
4103 1 20.9023 130.528 36.378
12650 2 0.897811 133.715 37.6483
4710 1 1.80513 135.297 36.3607
12648 2 3.6258 135.305 37.6417
4419 1 4.53339 133.707 36.3674
12619 2 6.35408 133.715 37.6483
12621 2 9.08204 135.305 37.6417
4417 1 7.26136 135.297 36.3607
12586 2 11.8103 133.715 37.6483
4235 1 9.98963 133.707 36.3674
12584 2 14.5383 135.305 37.6417
4130 1 15.4459 133.707 36.3674
4237 1 12.7176 135.297 36.3607
12555 2 17.2665 133.715 37.6483
4128 1 18.1738 135.297 36.3607
12557 2 19.9945 135.305 37.6417
4102 1 20.9021 133.707 36.3674
12649 2 0.897445 136.895 37.6342
4695 1 1.8047 138.476 36.3449
12651 2 3.62523 138.486 37.6258
4418 1 4.53306 136.886 36.3532
12614 2 9.08147 138.486 37.6258
12616 2 6.35366 136.895 37.6342
4420 1 7.26094 138.476 36.3449
12585 2 11.8099 136.895 37.6342
4220 1 9.9893 136.886 36.3532
12587 2 14.5377 138.486 37.6258
4129 1 15.4455 136.886 36.3532
4218 1 12.7172 138.476 36.3449
12552 2 17.2662 136.895 37.6342
4131 1 18.1734 138.476 36.3449
12550 2 19.9939 138.486 37.6258
4101 1 20.9018 136.886 36.3532
12646 2 0.896768 140.076 37.6166
4696 1 1.80399 141.655 36.3256
12644 2 3.62451 141.666 37.6066
4407 1 4.5325 140.066 36.3357
12615 2 6.353 140.076 37.6166
12617 2 9.08074 141.666 37.6066
4405 1 7.26023 141.655 36.3256
12582 2 11.8092 140.076 37.6166
4219 1 9.98873 140.066 36.3357
12580 2 14.537 141.666 37.6066
4119 1 15.445 140.066 36.3357
4221 1 12.7165 141.655 36.3256
12551 2 17.2655 140.076 37.6166
4117 1 18.1727 141.655 36.3256
12553 2 19.9932 141.666 37.6066
4100 1 20.9012 140.066 36.3357
12645 2 0.89592 143.257 37.5957
4689 1 1.80307 144.834 36.3031
12647 2 3.62353 144.847 37.5841
4406 1 4.53167 143.244 36.3148
12610 2 9.07976 144.847 37.5841
12612 2 6.35218 143.257 37.5957
4408 1 7.25931 144.834 36.3031
12581 2 11.8084 143.257 37.5957
4212 1 9.98791 143.244 36.3148
12583 2 14.536 144.847 37.5841
4118 1 15.4441 143.244 36.3148
4210 1 12.7155 144.834 36.3031
12548 2 17.2646 143.257 37.5957
4120 1 18.1718 144.834 36.3031
12546 2 19.9922 144.847 37.5841
4099 1 20.9004 143.244 36.3148
12643 2 0.894904 146.437 37.5717
4690 1 1.80202 148.012 36.2774
12641 2 3.62247 148.027 37.5585
4403 1 4.53067 146.423 36.2906
12611 2 6.35113 146.437 37.5717
12613 2 9.07872 148.027 37.5585
4401 1 7.25825 148.012 36.2774
12579 2 11.8074 146.437 37.5717
4211 1 9.98691 146.423 36.2906
12577 2 14.5349 148.027 37.5585
4115 1 15.4432 146.423 36.2906
4213 1 12.7145 148.012 36.2774
12547 2 17.2636 146.437 37.5717
4113 1 18.1707 148.012 36.2774
12549 2 19.9912 148.027 37.5585
4098 1 20.8994 146.423 36.2906
12642 2 0.893613 149.617 37.5446
794 1 1.80082 151.19 36.2488
4402 1 4.52959 149.601 36.2635
8320 2 3.62098 151.206 37.5299
12609 2 6.34986 149.617 37.5446
512 1 7.25705 151.19 36.2488
8286 2 9.07723 151.206 37.5299
12578 2 11.8061 149.617 37.5446
4209 1 9.98583 149.601 36.2635
4114 1 15.4421 149.601 36.2635
257 1 12.7133 151.19 36.2488
8256 2 14.5335 151.206 37.5299
12545 2 17.2623 149.617 37.5446
104 1 18.1695 151.19 36.2488
4097 1 20.8983 149.601 36.2635
8222 2 19.9897 151.206 37.5299
16409 1 2.71331 101.895 38.8759
23951 2 1.80674 103.479 40.1673
16407 1 0.898252 101.878 41.4397
18295 1 5.44201 103.486 38.8869
18294 1 3.627 103.471 41.4507
22015 2 4.53429 101.887 40.1563
16255 1 8.16954 101.895 38.8759
18200 1 9.08323 103.471 41.4507
23922 2 7.26298 103.479 40.1673
16233 1 6.35449 101.878 41.4397
18207 1 10.8982 103.486 38.8869
15999 1 11.8107 101.878 41.4397
21817 2 9.99054 101.887 40.1563
16001 1 13.6258 101.895 38.8759
18024 1 14.5395 103.471 41.4507
23800 2 12.7192 103.479 40.1673
21567 2 15.4468 101.887 40.1563
18025 1 16.3545 103.486 38.8869
23592 2 18.1755 103.479 40.1673
15673 1 17.267 101.878 41.4397
18312 1 21.8107 103.486 38.8869
15718 1 19.082 101.895 38.8759
17753 1 19.9957 103.471 41.4507
21232 2 20.903 101.887 40.1563
18296 1 2.71446 105.077 38.897
18288 1 0.89949 105.064 41.4608
23952 2 1.80784 106.663 40.1867
18297 1 5.44313 106.669 38.9063
18286 1 3.6282 106.657 41.4701
23920 2 4.53543 105.071 40.1774
18205 1 8.1707 105.077 38.897
18201 1 6.35573 105.064 41.4608
18202 1 9.08444 106.657 41.4701
23918 2 7.2641 106.663 40.1867
18203 1 10.8994 106.669 38.9063
18018 1 11.812 105.064 41.4608
23801 2 9.99167 105.071 40.1774
18026 1 13.6269 105.077 38.897
18016 1 14.5407 106.657 41.4701
23590 2 15.4479 105.071 40.1774
23802 2 12.7203 106.663 40.1867
18027 1 16.3556 106.669 38.9063
17754 1 17.2682 105.064 41.4608
23588 2 18.1766 106.663 40.1867
18310 1 21.8118 106.669 38.9063
17757 1 19.0832 105.077 38.897
17755 1 19.9969 106.657 41.4701
23292 2 20.9041 105.071 40.1774
18292 1 2.71553 108.26 38.9147
18287 1 0.900643 108.249 41.4785
23919 2 4.5365 108.255 40.1952
18204 1 8.17178 108.26 38.9147
18193 1 6.35688 108.249 41.4785
18017 1 11.8131 108.249 41.4785
23797 2 9.99274 108.255 40.1952
18022 1 13.628 108.26 38.9147
23589 2 15.449 108.255 40.1951
17748 1 17.2694 108.249 41.4785
17756 1 19.0842 108.26 38.9147
23291 2 20.9052 108.255 40.1952
18291 1 2.71648 111.442 38.9291
23948 2 1.8089 109.847 40.2028
18277 1 0.901662 111.435 41.4929
18290 1 5.44414 109.851 38.9224
18289 1 3.62929 109.842 41.4861
23912 2 4.53747 111.439 40.2096
18197 1 8.17272 111.442 38.9291
18191 1 9.08553 109.842 41.4861
23921 2 7.26514 109.847 40.2028
18192 1 6.3579 111.435 41.4928
18206 1 10.9004 109.851 38.9224
18006 1 11.8141 111.435 41.4928
23796 2 9.99371 111.439 40.2096
18021 1 13.629 111.442 38.9291
18019 1 14.5418 109.842 41.4861
23795 2 12.7214 109.847 40.2028
23582 2 15.4499 111.439 40.2096
18020 1 16.3566 109.851 38.9224
23591 2 18.1776 109.847 40.2028
17747 1 17.2704 111.435 41.4929
18311 1 21.8129 109.851 38.9224
17751 1 19.0852 111.442 38.9291
17746 1 19.998 109.842 41.4861
23290 2 20.9062 111.439 40.2096
18281 1 2.71727 114.625 38.9402
23949 2 1.80975 113.031 40.2155
18276 1 0.902496 114.621 41.5039
18293 1 5.44502 113.034 38.9351
18275 1 3.63023 113.028 41.4988
23911 2 4.53824 114.623 40.2206
18196 1 8.17351 114.625 38.9402
18194 1 9.08647 113.028 41.4988
23910 2 7.26599 113.031 40.2155
18177 1 6.35874 114.621 41.5039
18195 1 10.9013 113.034 38.9351
18005 1 11.815 114.621 41.5039
23785 2 9.99447 114.623 40.2206
18010 1 13.6297 114.625 38.9402
18004 1 14.5427 113.028 41.4988
23798 2 12.7222 113.031 40.2155
23581 2 15.4507 114.623 40.2206
18023 1 16.3575 113.034 38.9351
23580 2 18.1785 113.031 40.2155
17734 1 17.2712 114.621 41.5039
18308 1 21.8137 113.034 38.9351
17750 1 19.086 114.625 38.9402
17749 1 19.9989 113.028 41.4988
23283 2 20.907 114.623 40.2206
18280 1 2.71783 117.808 38.9479
18265 1 0.903091 117.807 41.5115
23944 2 1.81044 116.215 40.2249
18279 1 5.4457 116.216 38.9445
18278 1 3.63094 116.214 41.5081
23897 2 4.53883 117.808 40.2283
18181 1 8.17407 117.808 38.9479
18175 1 9.08718 116.214 41.5081
18176 1 6.35932 117.807 41.5115
23913 2 7.26668 116.215 40.2249
18198 1 10.9019 116.216 38.9445
17986 1 11.8156 117.807 41.5115
23784 2 9.99507 117.808 40.2282
18009 1 13.6303 117.808 38.9479
18007 1 14.5434 116.214 41.5081
23566 2 15.4513 117.808 40.2282
23783 2 12.7229 116.215 40.2248
18008 1 16.3582 116.216 38.9445
17733 1 17.2718 117.807 41.5115
23583 2 18.1792 116.215 40.2249
18309 1 21.8144 116.216 38.9445
17737 1 19.0865 117.808 38.9479
17732 1 19.9997 116.214 41.5081
23282 2 20.9075 117.808 40.2282
18269 1 2.71818 120.991 38.952
18264 1 0.903447 120.993 41.5157
23945 2 1.81091 119.4 40.2308
18282 1 5.44615 119.399 38.9504
18263 1 3.63142 119.4 41.514
23896 2 4.53917 120.992 40.2324
18180 1 8.17442 120.991 38.952
18154 1 6.35969 120.993 41.5157
18178 1 9.08765 119.4 41.514
23895 2 7.26716 119.4 40.2308
18179 1 10.9024 119.399 38.9504
17985 1 11.8159 120.993 41.5157
23765 2 9.99542 120.992 40.2324
17990 1 13.6307 120.991 38.952
17984 1 14.5439 119.4 41.514
23565 2 15.4517 120.992 40.2324
23786 2 12.7234 119.4 40.2308
18011 1 16.3586 119.399 38.9504
17712 1 17.2722 120.993 41.5157
23564 2 18.1796 119.4 40.2308
18306 1 21.8149 119.399 38.9504
17736 1 19.0869 120.991 38.952
17735 1 20.0001 119.4 41.514
23267 2 20.9079 120.992 40.2324
18268 1 2.71833 124.174 38.9526
18253 1 0.903579 124.179 41.5163
23940 2 1.81114 122.584 40.2331
18267 1 5.4464 122.582 38.9528
18266 1 3.63166 122.586 41.5164
23881 2 4.53932 124.177 40.233
18158 1 8.17457 124.174 38.9526
18152 1 9.0879 122.586 41.5164
18153 1 6.35982 124.179 41.5163
23898 2 7.26737 122.584 40.2331
18182 1 10.9026 122.582 38.9528
17958 1 11.8161 124.179 41.5163
23764 2 9.99554 124.177 40.233
17989 1 13.6308 124.174 38.9526
17987 1 14.5441 122.586 41.5164
23542 2 15.4518 124.177 40.233
23763 2 12.7236 122.584 40.2331
17988 1 16.3589 122.582 38.9528
17711 1 17.2723 124.179 41.5163
23567 2 18.1799 122.584 40.2331
18307 1 21.8151 122.582 38.9528
17715 1 19.087 124.174 38.9526
17710 1 20.0004 122.586 41.5164
23266 2 20.908 124.177 40.233
18257 1 2.7183 127.357 38.9495
18252 1 0.903524 127.365 41.5132
23941 2 1.81123 125.769 40.2319
18270 1 5.44644 125.765 38.9515
18251 1 3.63168 125.772 41.5152
23880 2 4.53935 127.361 40.2299
18157 1 8.17454 127.357 38.9495
18130 1 6.35976 127.366 41.5132
18155 1 9.08792 125.772 41.5152
23879 2 7.26748 125.769 40.2319
18156 1 10.9027 125.765 38.9515
17957 1 11.816 127.366 41.5132
23738 2 9.9956 127.361 40.2299
17962 1 13.6308 127.357 38.9495
17956 1 14.5442 125.772 41.5152
23541 2 15.4518 127.361 40.2299
23766 2 12.7237 125.769 40.2319
17991 1 16.3589 125.765 38.9515
17682 1 17.2722 127.365 41.5132
23540 2 18.18 125.769 40.2319
18304 1 21.8152 125.765 38.9515
17714 1 19.087 127.357 38.9495
17713 1 20.0004 125.772 41.5152
23243 2 20.9081 127.361 40.2299
23936 2 1.81115 128.953 40.2269
18255 1 5.44638 128.948 38.9466
18254 1 3.63159 128.958 41.5103
18128 1 9.08782 128.958 41.5103
23882 2 7.26738 128.953 40.2269
18159 1 10.9026 128.948 38.9466
17959 1 14.5441 128.958 41.5103
23736 2 12.7236 128.953 40.2269
17960 1 16.3589 128.948 38.9466
23543 2 18.1799 128.953 40.2269
18305 1 21.8151 128.948 38.9466
17680 1 20.0003 128.958 41.5103
18256 1 2.7182 130.539 38.9427
18241 1 0.903388 130.551 41.5065
23937 2 1.81092 132.137 40.2183
18258 1 5.44621 132.131 38.9379
23865 2 4.53914 130.545 40.2231
18239 1 3.63138 132.144 41.5017
18134 1 8.17444 130.539 38.9427
18129 1 6.35963 130.551 41.5065
18131 1 9.08762 132.144 41.5017
23863 2 7.26715 132.137 40.2183
18132 1 10.9024 132.131 38.9379
17923 1 11.8159 130.551 41.5065
23737 2 9.99537 130.545 40.223
17961 1 13.6307 130.539 38.9427
23510 2 15.4516 130.545 40.223
17921 1 14.5439 132.144 41.5017
23739 2 12.7234 132.137 40.2183
17963 1 16.3587 132.131 38.9379
17681 1 17.2721 130.551 41.5065
23508 2 18.1796 132.137 40.2183
17685 1 19.0869 130.539 38.9427
18302 1 21.8149 132.131 38.9379
23242 2 20.9079 130.545 40.223
17683 1 20.0001 132.144 41.5017
18245 1 2.71794 133.722 38.9322
18240 1 0.903095 133.737 41.496
23932 2 1.81063 135.322 40.206
18243 1 5.44587 135.313 38.9255
18242 1 3.63099 135.33 41.4893
23864 2 4.53891 133.73 40.2126
18133 1 8.17417 133.722 38.9322
18104 1 9.08723 135.33 41.4893
18106 1 6.35933 133.737 41.496
23866 2 7.26688 135.322 40.206
18135 1 10.9021 135.313 38.9255
17922 1 11.8156 133.737 41.496
23710 2 9.99516 133.73 40.2126
17927 1 13.6304 133.722 38.9322
17924 1 14.5435 135.33 41.4893
23509 2 15.4514 133.73 40.2126
23708 2 12.7231 135.322 40.206
17925 1 16.3583 135.313 38.9255
17644 1 17.2718 133.737 41.496
23511 2 18.1794 135.322 40.206
18303 1 21.8146 135.313 38.9255
17684 1 19.0867 133.722 38.9322
17642 1 19.9997 135.33 41.4893
23211 2 20.9076 133.73 40.2126
18244 1 2.71752 136.905 38.918
18229 1 0.902609 136.923 41.4818
23933 2 1.80996 138.506 40.1901
18246 1 5.44535 138.496 38.9097
18227 1 3.63042 138.516 41.4735
23849 2 4.53848 136.914 40.1985
18110 1 8.17376 136.905 38.918
18105 1 6.35886 136.923 41.4818
18107 1 9.08665 138.516 41.4735
23847 2 7.26621 138.506 40.1901
18108 1 10.9016 138.496 38.9097
17887 1 11.8151 136.923 41.4818
23709 2 9.99471 136.914 40.1985
17926 1 13.63 136.905 38.918
17885 1 14.5429 138.516 41.4735
23471 2 15.4509 136.914 40.1985
23711 2 12.7224 138.506 40.1901
17928 1 16.3578 138.496 38.9097
17643 1 17.2713 136.923 41.4818
23469 2 18.1787 138.506 40.1901
18300 1 21.8141 138.496 38.9097
17647 1 19.0862 136.905 38.918
17645 1 19.9991 138.516 41.4735
23210 2 20.9072 136.914 40.1985
18233 1 2.71685 140.087 38.9005
18228 1 0.90187 140.108 41.4643
23928 2 1.80916 141.69 40.1709
18231 1 5.44448 141.678 38.8905
18230 1 3.62946 141.701 41.4542
23848 2 4.53767 140.098 40.1809
18109 1 8.17309 140.087 38.9005
18080 1 9.0857 141.701 41.4542
18082 1 6.35811 140.108 41.4643
23850 2 7.26538 141.69 40.1709
18111 1 10.9007 141.678 38.8905
17886 1 11.8143 140.108 41.4643
23682 2 9.99392 140.098 40.1809
17891 1 13.6293 140.087 38.9005
17888 1 14.5419 141.701 41.4542
23470 2 15.4502 140.098 40.1809
23680 2 12.7216 141.69 40.1709
17889 1 16.357 141.678 38.8905
17599 1 17.2706 140.108 41.4643
23472 2 18.1779 141.69 40.1709
18301 1 21.8132 141.678 38.8905
17646 1 19.0856 140.087 38.9005
17597 1 19.9982 141.701 41.4542
23171 2 20.9064 140.098 40.1809
18232 1 2.71583 143.269 38.8797
18218 1 0.900744 143.294 41.4433
23929 2 1.80798 144.873 40.1484
18234 1 5.44337 144.86 38.8681
18216 1 3.62822 144.887 41.4317
23833 2 4.53673 143.281 40.1601
18086 1 8.17207 143.269 38.8797
18081 1 6.35697 143.294 41.4433
18083 1 9.08447 144.887 41.4317
23831 2 7.26423 144.873 40.1484
18084 1 10.8996 144.86 38.8681
17852 1 11.8132 143.294 41.4433
23681 2 9.99296 143.281 40.1601
17890 1 13.6283 143.269 38.8797
17850 1 14.5407 144.887 41.4317
23431 2 15.4492 143.281 40.16
23683 2 12.7204 144.873 40.1484
17892 1 16.3558 144.86 38.8681
17598 1 17.2695 143.294 41.4433
23429 2 18.1767 144.873 40.1484
18298 1 21.8121 144.86 38.8681
17602 1 19.0846 143.269 38.8797
17600 1 19.9969 144.887 41.4317
23170 2 20.9054 143.281 40.16
18222 1 2.71462 146.451 38.8557
18217 1 0.899392 146.479 41.4193
23925 2 1.80669 148.057 40.1229
18220 1 5.44207 148.042 38.8425
18219 1 3.62675 148.072 41.4062
23832 2 4.53547 146.465 40.136
18085 1 8.17085 146.451 38.8557
18060 1 9.08298 148.072 41.4062
18062 1 6.35563 146.479 41.4193
23834 2 7.26293 148.057 40.1229
18087 1 10.8983 148.042 38.8425
17851 1 11.8119 146.479 41.4193
23655 2 9.99172 146.465 40.136
17856 1 13.6271 146.451 38.8557
17853 1 14.5392 148.072 41.4062
23430 2 15.448 146.465 40.136
23653 2 12.7192 148.057 40.1229
17854 1 16.3546 148.042 38.8425
17555 1 17.2681 146.479 41.4193
23432 2 18.1754 148.057 40.1229
18299 1 21.8108 148.042 38.8425
17601 1 19.0833 146.451 38.8557
17553 1 19.9955 148.072 41.4062
23124 2 20.9042 146.465 40.136
18221 1 2.71326 149.633 38.8287
18211 1 0.897835 149.665 41.3923
23818 2 4.53404 149.649 40.109
18063 1 8.1695 149.633 38.8287
18061 1 6.35407 149.665 41.3923
17821 1 11.8103 149.665 41.3923
23654 2 9.99028 149.649 40.109
17855 1 13.6257 149.633 38.8287
23392 2 15.4465 149.649 40.109
17554 1 17.2666 149.665 41.3923
17556 1 19.082 149.633 38.8287
23123 2 20.9027 149.649 40.109
18284 1 1.81273 103.456 44.0133
22001 2 2.71963 101.87 42.7195
23915 2 5.44836 103.463 42.7305
16231 1 4.54021 101.861 44.0023
18199 1 7.26897 103.456 44.0133
21815 2 8.17588 101.87 42.7195
23799 2 10.9046 103.463 42.7305
15969 1 9.99645 101.861 44.0023
18013 1 12.7252 103.456 44.0133
15671 1 15.4527 101.861 44.0023
21529 2 13.6321 101.87 42.7195
17752 1 18.1815 103.456 44.0133
23585 2 16.3608 103.463 42.7305
23950 2 21.8171 103.463 42.7305
15339 1 20.9089 101.861 44.0023
21230 2 19.0883 101.87 42.7195
18285 1 1.81398 106.645 44.0328
23916 2 2.72084 105.057 42.7406
18189 1 4.54148 105.05 44.0235
23917 2 5.44952 106.651 42.7499
18187 1 7.27021 106.645 44.0328
23793 2 8.17708 105.057 42.7406
18014 1 9.99772 105.05 44.0235
23791 2 10.9058 106.651 42.7499
17744 1 15.454 105.05 44.0235
18015 1 12.7264 106.645 44.0328
23586 2 13.6333 105.057 42.7406
17742 1 18.1827 106.645 44.0328
23587 2 16.362 106.651 42.7499
23946 2 21.8182 106.651 42.7499
17412 1 20.9102 105.05 44.0235
23289 2 19.0896 105.057 42.7406
23908 2 2.72198 108.244 42.7584
18188 1 4.54267 108.239 44.0412
23792 2 8.1782 108.244 42.7584
18002 1 9.99891 108.239 44.0412
17743 1 15.4551 108.239 44.0412
23578 2 13.6344 108.244 42.7584
17411 1 20.9114 108.239 44.0412
23288 2 19.0907 108.244 42.7584
18273 1 1.81509 109.834 44.0488
23907 2 2.72297 111.432 42.7728
23906 2 5.45063 109.838 42.766
18173 1 4.54372 111.428 44.0555
18190 1 7.27133 109.834 44.0488
23781 2 8.17923 111.432 42.7728
23794 2 10.9069 109.838 42.766
18001 1 9.99995 111.428 44.0555
18000 1 12.7276 109.834 44.0488
17730 1 15.4562 111.428 44.0555
23577 2 13.6355 111.432 42.7728
17745 1 18.1838 109.834 44.0488
23576 2 16.3631 109.838 42.766
23947 2 21.8193 109.838 42.766
17410 1 20.9124 111.428 44.0555
23281 2 19.0917 111.432 42.7728
18274 1 1.81606 113.023 44.0614
23893 2 2.72378 114.619 42.7838
23909 2 5.45151 113.025 42.7787
18172 1 4.54458 114.617 44.0665
18171 1 7.2723 113.023 44.0614
23780 2 8.18001 114.619 42.7838
23779 2 10.9078 113.025 42.7787
17982 1 10.0008 114.617 44.0665
18003 1 12.7285 113.023 44.0614
17729 1 15.4571 114.617 44.0665
23562 2 13.6363 114.619 42.7837
17728 1 18.1848 113.023 44.0614
23579 2 16.364 113.025 42.7787
23942 2 21.8202 113.025 42.7787
17403 1 20.9133 114.617 44.0665
23280 2 19.0925 114.619 42.7838
18261 1 1.8168 116.212 44.0708
23892 2 2.7244 117.807 42.7914
18150 1 4.54518 117.807 44.0741
23891 2 5.45224 116.213 42.788
18174 1 7.27303 116.212 44.0708
23761 2 8.18064 117.807 42.7914
17981 1 10.0014 117.807 44.0742
23782 2 10.9085 116.213 42.788
17708 1 15.4577 117.807 44.0742
17980 1 12.7293 116.212 44.0708
23561 2 13.6369 117.807 42.7914
17731 1 18.1855 116.212 44.0708
23560 2 16.3647 116.213 42.788
23943 2 21.821 116.213 42.788
17402 1 20.9139 117.807 44.0742
23265 2 19.0931 117.807 42.7914
18262 1 1.81727 119.401 44.0767
23877 2 2.72475 120.995 42.7956
18149 1 4.54554 120.996 44.0784
23894 2 5.45273 119.401 42.7939
18148 1 7.27351 119.401 44.0767
23760 2 8.18098 120.995 42.7956
17954 1 10.0018 120.996 44.0784
23759 2 10.909 119.401 42.7939
17707 1 15.458 120.996 44.0784
17983 1 12.7297 119.401 44.0767
23538 2 13.6372 120.995 42.7956
17706 1 18.186 119.401 44.0767
23563 2 16.3652 119.401 42.7939
23938 2 21.8214 119.401 42.7939
17387 1 20.9143 120.996 44.0784
23264 2 19.0935 120.995 42.7956
18249 1 1.81751 122.59 44.0792
23876 2 2.72487 124.182 42.7962
18126 1 4.54566 124.185 44.079
23875 2 5.45294 122.588 42.7963
18151 1 7.27375 122.59 44.0792
23734 2 8.18111 124.182 42.7962
17953 1 10.0019 124.185 44.079
23762 2 10.9092 122.588 42.7963
17678 1 15.4581 124.185 44.079
17952 1 12.73 122.59 44.0792
23537 2 13.6373 124.182 42.7962
17709 1 18.1862 122.59 44.0792
23536 2 16.3654 122.588 42.7963
23939 2 21.8217 122.588 42.7963
17386 1 20.9144 124.185 44.079
23241 2 19.0936 124.182 42.7962
18250 1 1.81752 125.78 44.078
23861 2 2.72488 127.37 42.7931
18125 1 4.54558 127.374 44.076
23878 2 5.45302 125.776 42.7951
18124 1 7.27376 125.78 44.078
23733 2 8.18113 127.37 42.7931
17919 1 10.0018 127.374 44.076
23732 2 10.9093 125.776 42.7951
17677 1 15.4581 127.374 44.076
17955 1 12.73 125.78 44.078
23506 2 13.6374 127.37 42.7931
17676 1 18.1862 125.78 44.078
23539 2 16.3655 125.776 42.7951
23934 2 21.8217 125.776 42.7951
17363 1 20.9143 127.374 44.076
23240 2 19.0936 127.37 42.7931
18237 1 1.8174 128.969 44.0731
23859 2 5.45292 128.964 42.7902
18127 1 7.27363 128.969 44.0731
23735 2 10.9092 128.964 42.7902
17917 1 12.7299 128.969 44.0731
17679 1 18.1861 128.969 44.0731
23504 2 16.3654 128.964 42.7902
23935 2 21.8216 128.964 42.7902
23860 2 2.72466 130.557 42.7863
18238 1 1.81716 132.158 44.0645
18102 1 4.54542 130.563 44.0693
23862 2 5.45264 132.151 42.7815
23706 2 8.18089 130.557 42.7863
18100 1 7.2734 132.158 44.0645
17918 1 10.0017 130.563 44.0693
23704 2 10.9089 132.151 42.7815
17640 1 15.4579 130.563 44.0693
23505 2 13.6371 130.557 42.7863
17920 1 12.7296 132.158 44.0645
17638 1 18.1859 132.158 44.0645
23507 2 16.3651 132.151 42.7816
17362 1 20.9141 130.563 44.0693
23209 2 19.0934 130.557 42.7863
23930 2 21.8214 132.151 42.7816
18225 1 1.81675 135.347 44.0521
23845 2 2.72439 133.745 42.7758
18101 1 4.5451 133.752 44.0588
23843 2 5.45231 135.338 42.7693
18103 1 7.27299 135.347 44.0521
23705 2 8.18062 133.745 42.7759
17883 1 10.0013 133.752 44.0588
23707 2 10.9086 135.338 42.7693
17639 1 15.4576 133.752 44.0588
17881 1 12.7292 135.347 44.0521
23467 2 13.6368 133.745 42.7759
17641 1 18.1855 135.347 44.0521
23465 2 16.3648 135.338 42.7692
23931 2 21.821 135.338 42.7692
17331 1 20.9138 133.752 44.0588
23208 2 19.0931 133.745 42.7758
18226 1 1.81613 138.536 44.0362
23844 2 2.72391 136.932 42.7617
18078 1 4.54459 136.941 44.0446
23846 2 5.45162 138.526 42.7533
18076 1 7.27237 138.536 44.0362
23678 2 8.18014 136.932 42.7617
17882 1 10.0008 136.941 44.0446
23676 2 10.9078 138.526 42.7533
17595 1 15.4571 136.941 44.0446
17884 1 12.7286 138.536 44.0362
23466 2 13.6364 136.932 42.7617
17593 1 18.1849 138.536 44.0362
23468 2 16.3641 138.526 42.7533
23926 2 21.8203 138.526 42.7533
17330 1 20.9133 136.941 44.0446
23169 2 19.0926 136.932 42.7617
18214 1 1.81514 141.725 44.0168
23829 2 2.72304 140.119 42.7441
18077 1 4.54381 140.13 44.0269
23827 2 5.45071 141.713 42.734
18079 1 7.27138 141.725 44.0168
23677 2 8.17928 140.119 42.7441
17848 1 10.0001 140.13 44.0269
23679 2 10.907 141.713 42.734
17594 1 15.4563 140.13 44.0269
17846 1 12.7276 141.725 44.0168
23427 2 13.6355 140.119 42.7441
17596 1 18.1838 141.725 44.0168
23425 2 16.3632 141.713 42.7341
23927 2 21.8194 141.713 42.7341
17291 1 20.9125 140.13 44.0269
23168 2 19.0918 140.119 42.7441
18215 1 1.81384 144.913 43.9941
23828 2 2.72203 143.306 42.7232
18058 1 4.54265 143.319 44.0058
23830 2 5.44945 144.9 42.7115
18056 1 7.27008 144.913 43.9941
23651 2 8.17828 143.306 42.7232
17847 1 9.99889 143.319 44.0058
23649 2 10.9057 144.9 42.7115
17551 1 15.4551 143.319 44.0058
17849 1 12.7263 144.913 43.9941
23426 2 13.6345 143.306 42.7232
17549 1 18.1826 144.913 43.9941
23428 2 16.3619 144.9 42.7114
23923 2 21.8182 144.9 42.7115
17290 1 20.9114 143.319 44.0058
23122 2 19.0907 143.306 42.7232
18210 1 1.8123 148.103 43.9684
23817 2 2.72062 146.494 42.699
18057 1 4.54122 146.508 43.9816
23815 2 5.44802 148.087 42.6858
18059 1 7.26854 148.103 43.9684
23650 2 8.17686 146.494 42.699
17820 1 9.99746 146.508 43.9816
23652 2 10.9043 148.087 42.6858
17550 1 15.4537 146.508 43.9816
17818 1 12.7248 148.103 43.9684
23391 2 13.6331 146.494 42.699
17552 1 18.181 148.103 43.9684
23389 2 16.3605 148.087 42.6858
23924 2 21.8167 148.087 42.6858
17245 1 20.9099 146.508 43.9816
23121 2 19.0894 146.494 42.699
23816 2 2.71909 149.681 42.6718
18043 1 4.53954 149.697 43.9544
23628 2 8.17533 149.681 42.6718
17819 1 9.99578 149.697 43.9544
17512 1 15.452 149.697 43.9544
23390 2 13.6316 149.681 42.6718
17244 1 20.9083 149.697 43.9544
23076 2 19.0878 149.681 42.6718
21999 2 0.905735 101.852 45.2814
16217 1 2.7267 101.844 46.5636
18283 1 -0.000787495 103.44 46.5747
23914 2 3.63449 103.448 45.2925
18184 1 5.45545 103.44 46.5747
23788 2 9.09072 103.448 45.2925
21793 2 6.36196 101.852 45.2814
15967 1 8.18293 101.844 46.5636
21527 2 11.8182 101.852 45.2814
18012 1 10.9117 103.44 46.5747
23584 2 14.5469 103.448 45.2925
15633 1 13.6392 101.844 46.5636
21185 2 17.2745 101.852 45.2814
17739 1 16.3679 103.44 46.5747
23285 2 20.0032 103.448 45.2925
15337 1 19.0954 101.844 46.5636
23904 2 0.906979 105.043 45.3027
18185 1 2.72795 105.036 46.5849
18271 1 0.000440366 106.632 46.5943
23902 2 3.63566 106.638 45.312
18186 1 5.45668 106.632 46.5943
23789 2 6.36321 105.043 45.3027
23790 2 9.0919 106.638 45.312
17998 1 8.18419 105.036 46.5849
23574 2 11.8194 105.043 45.3027
17996 1 10.9129 106.632 46.5943
23572 2 14.5481 106.638 45.312
17740 1 13.6404 105.036 46.5849
23286 2 17.2757 105.043 45.3027
17741 1 16.3692 106.632 46.5943
23287 2 20.0044 106.638 45.312
17409 1 19.0967 105.036 46.5849
23903 2 0.908105 108.234 45.3205
18169 1 2.72913 108.229 46.6028
23777 2 6.36436 108.234 45.3205
17997 1 8.18538 108.229 46.6028
23573 2 11.8206 108.234 45.3205
17726 1 13.6416 108.229 46.6028
23278 2 17.2768 108.234 45.3205
17408 1 19.0979 108.229 46.6028
23889 2 0.909126 111.424 45.3349
18168 1 2.73019 111.421 46.6172
18272 1 0.00156569 109.825 46.6104
18167 1 5.4578 109.825 46.6104
23905 2 3.63676 109.829 45.3282
23775 2 9.09301 109.829 45.3281
23776 2 6.36537 111.424 45.3349
17978 1 8.18643 111.421 46.6172
17999 1 10.914 109.825 46.6104
23558 2 11.8216 111.424 45.3349
23575 2 14.5492 109.829 45.3281
17725 1 13.6427 111.421 46.6172
17724 1 16.3703 109.825 46.6104
23277 2 17.2779 111.424 45.3349
23276 2 20.0055 109.829 45.3281
17401 1 19.0989 111.421 46.6172
23888 2 0.909961 114.615 45.3459
18146 1 2.73105 114.613 46.6282
18259 1 0.00252634 113.017 46.6231
23887 2 3.63768 113.02 45.3408
18170 1 5.45877 113.017 46.6231
23778 2 9.09391 113.02 45.3409
23757 2 6.36618 114.615 45.3459
17977 1 8.18729 114.613 46.6282
23557 2 11.8224 114.615 45.3459
17976 1 10.915 113.017 46.6231
23556 2 14.5502 113.02 45.3409
17704 1 13.6435 114.613 46.6282
23262 2 17.2787 114.615 45.3459
17727 1 16.3712 113.017 46.6231
23279 2 20.0064 113.02 45.3408
17400 1 19.0998 114.613 46.6282
23873 2 0.910563 117.806 45.3536
18145 1 2.73165 117.806 46.6359
18260 1 0.00326339 116.21 46.6325
23890 2 3.63842 116.211 45.3502
18144 1 5.4595 116.21 46.6325
23755 2 9.09465 116.211 45.3502
23756 2 6.36682 117.806 45.3536
17950 1 8.18789 117.806 46.6359
23534 2 11.8231 117.806 45.3536
17979 1 10.9157 116.21 46.6325
23559 2 14.5509 116.211 45.3502
17703 1 13.6441 117.806 46.6359
23261 2 17.2793 117.806 45.3536
17702 1 16.372 116.21 46.6325
23260 2 20.0071 116.211 45.3502
17385 1 19.1004 117.806 46.6359
23872 2 0.910912 120.997 45.3578
18122 1 2.732 120.998 46.6401
18247 1 0.00373476 119.402 46.6384
23871 2 3.63889 119.402 45.3561
18147 1 5.45997 119.402 46.6384
23730 2 6.36715 120.997 45.3578
23758 2 9.09514 119.402 45.3561
17949 1 8.18824 120.998 46.6401
23533 2 11.8234 120.997 45.3578
17948 1 10.9162 119.402 46.6384
23532 2 14.5514 119.402 45.3561
17674 1 13.6445 120.998 46.6401
23238 2 17.2796 120.997 45.3578
17705 1 16.3724 119.402 46.6384
23263 2 20.0076 119.402 45.3561
17384 1 19.1007 120.998 46.6401
23857 2 0.911035 124.188 45.3584
18121 1 2.7321 124.191 46.6408
18248 1 0.00396009 122.595 46.6409
23874 2 3.63911 122.592 45.3585
18120 1 5.4602 122.595 46.6409
23728 2 9.09535 122.592 45.3585
23729 2 6.36727 124.188 45.3584
17915 1 8.18834 124.191 46.6408
23502 2 11.8235 124.188 45.3584
17951 1 10.9164 122.595 46.6409
23535 2 14.5516 122.592 45.3585
17673 1 13.6446 124.191 46.6408
23237 2 17.2798 124.188 45.3584
17672 1 16.3727 122.595 46.6409
23236 2 20.0078 122.592 45.3585
17361 1 19.1008 124.191 46.6408
23856 2 0.911025 127.379 45.3554
18098 1 2.73202 127.383 46.6378
18235 1 0.00395643 125.787 46.6398
23855 2 3.63918 125.783 45.3574
18123 1 5.4602 125.787 46.6398
23702 2 6.36725 127.379 45.3554
23731 2 9.09541 125.783 45.3574
17914 1 8.18826 127.383 46.6378
23501 2 11.8235 127.379 45.3554
17913 1 10.9164 125.787 46.6398
23500 2 14.5516 125.783 45.3574
17636 1 13.6445 127.383 46.6378
23206 2 17.2797 127.379 45.3554
17675 1 16.3727 125.787 46.6398
23239 2 20.0079 125.783 45.3574
17360 1 19.1007 127.383 46.6378
18236 1 0.00382386 128.979 46.6349
23858 2 3.63904 128.974 45.3525
18096 1 5.46006 128.979 46.6349
23700 2 9.09529 128.974 45.3525
17916 1 10.9163 128.979 46.6349
23503 2 14.5515 128.974 45.3525
17634 1 16.3725 128.979 46.6349
23204 2 20.0077 128.974 45.3525
23841 2 0.910793 130.569 45.3486
18097 1 2.73183 130.575 46.6311
18223 1 0.00356485 132.172 46.6263
23839 2 3.63876 132.165 45.3439
18099 1 5.4598 132.172 46.6263
23701 2 6.36703 130.569 45.3486
23703 2 9.09499 132.165 45.3439
17879 1 8.18807 130.575 46.6311
23463 2 11.8233 130.569 45.3486
17877 1 10.916 132.172 46.6263
23461 2 14.5512 132.165 45.3439
17635 1 13.6443 130.575 46.6311
23205 2 17.2795 130.569 45.3486
17637 1 16.3723 132.172 46.6263
23207 2 20.0075 132.165 45.3439
17329 1 19.1005 130.575 46.6311
23840 2 0.910453 133.76 45.3382
18074 1 2.7315 133.768 46.6206
18224 1 0.00314177 135.364 46.6139
23842 2 3.63839 135.355 45.3315
18072 1 5.45938 135.364 46.6139
23672 2 9.09462 135.355 45.3315
23674 2 6.36672 133.76 45.3381
17878 1 8.18774 133.768 46.6206
23462 2 11.8229 133.76 45.3381
17880 1 10.9156 135.364 46.6139
23464 2 14.5509 135.355 45.3315
17591 1 13.644 133.768 46.6206
23166 2 17.2792 133.76 45.3381
17589 1 16.3719 135.364 46.6139
23164 2 20.0071 135.355 45.3315
17328 1 19.1002 133.768 46.6206
23825 2 0.90998 136.95 45.324
18073 1 2.73097 136.96 46.6063
18212 1 0.00250763 138.556 46.5978
23823 2 3.63769 138.546 45.3155
18075 1 5.45874 138.556 46.5978
23673 2 6.36621 136.95 45.324
23675 2 9.09394 138.546 45.3155
17844 1 8.18721 136.96 46.6063
23423 2 11.8225 136.951 45.324
17842 1 10.915 138.556 46.5978
23421 2 14.5502 138.546 45.3155
17590 1 13.6434 136.96 46.6063
23165 2 17.2787 136.951 45.324
17592 1 16.3712 138.556 46.5978
23167 2 20.0064 138.546 45.3155
17289 1 19.0997 136.96 46.6063
23824 2 0.909121 140.141 45.3062
18054 1 2.73019 140.152 46.5885
18213 1 0.00153319 141.748 46.5782
23826 2 3.63673 141.736 45.2961
18052 1 5.45777 141.748 46.5782
23645 2 9.09296 141.736 45.2961
23647 2 6.36534 140.141 45.3062
17843 1 8.18643 140.152 46.5885
23422 2 11.8216 140.141 45.3062
17845 1 10.914 141.748 46.5782
23424 2 14.5492 141.736 45.2961
17547 1 13.6427 140.152 46.5885
23119 2 17.2778 140.141 45.3062
17545 1 16.3702 141.748 46.5782
23117 2 20.0055 141.736 45.2961
17288 1 19.0989 140.152 46.5885
23813 2 0.908014 143.332 45.2851
18053 1 2.72904 143.344 46.5672
18208 1 0.00022858 144.94 46.5553
23811 2 3.63547 144.927 45.2733
18055 1 5.45646 144.94 46.5553
23646 2 6.36428 143.332 45.2851
23648 2 9.09171 144.927 45.2733
17816 1 8.18527 143.344 46.5672
23387 2 11.8205 143.332 45.2851
17814 1 10.9127 144.94 46.5553
23385 2 14.5479 144.927 45.2732
17546 1 13.6415 143.344 46.5672
23118 2 17.2767 143.332 45.2851
17548 1 16.3689 144.94 46.5553
23120 2 20.0042 144.927 45.2732
17243 1 19.0978 143.344 46.5672
23812 2 0.90661 146.522 45.2607
18042 1 2.72759 146.537 46.5426
23814 2 3.63394 148.118 45.2472
18040 1 5.4549 148.133 46.5292
23625 2 9.09019 148.118 45.2472
23627 2 6.36284 146.522 45.2606
17815 1 8.18383 146.537 46.5426
23386 2 11.8191 146.522 45.2606
17817 1 10.9111 148.133 46.5291
23388 2 14.5464 148.118 45.2473
17511 1 13.6401 146.537 46.5426
23075 2 17.2753 146.522 45.2607
17509 1 16.3674 148.133 46.5292
18209 1 21.8236 148.133 46.5292
23073 2 20.0026 148.118 45.2473
17242 1 19.0963 146.537 46.5426
23806 2 0.905005 149.713 45.2331
18041 1 2.7259 149.73 46.5149
23626 2 6.36124 149.713 45.2331
17793 1 8.18214 149.73 46.5149
23356 2 11.8175 149.713 45.2331
17510 1 13.6384 149.73 46.5149
23074 2 17.2737 149.713 45.2331
17199 1 19.0946 149.73 46.5149
23900 2 1.82131 103.432 47.8533
16215 1 0.913915 101.826 49.1236
21791 2 4.54883 101.835 47.842
18183 1 3.64265 103.424 49.1349
23787 2 7.27757 103.432 47.8532
17993 1 9.09889 103.424 49.1349
15945 1 6.37016 101.826 49.1236
21497 2 10.0051 101.835 47.8421
15631 1 11.8264 101.826 49.1236
23569 2 12.7338 103.432 47.8533
21183 2 15.4613 101.835 47.8421
17738 1 14.5551 103.424 49.1349
23284 2 18.19 103.432 47.8533
15294 1 17.2826 101.826 49.1236
20855 2 20.9175 101.835 47.8421
17405 1 20.0114 103.424 49.1349
23901 2 1.82249 106.626 47.873
18165 1 0.915136 105.022 49.1453
23773 2 4.55004 105.029 47.8636
18163 1 3.64385 106.62 49.1547
23771 2 7.27872 106.626 47.873
17994 1 6.37137 105.022 49.1453
17995 1 9.10009 106.62 49.1547
23570 2 10.0063 105.029 47.8636
17722 1 11.8276 105.022 49.1453
23274 2 15.4625 105.029 47.8636
23571 2 12.735 106.626 47.873
17720 1 14.5563 106.62 49.1547
23272 2 18.1912 106.626 47.873
17406 1 17.2839 105.022 49.1453
22932 2 20.9188 105.029 47.8636
17407 1 20.0126 106.62 49.1547
18164 1 0.916293 108.218 49.1633
23772 2 4.55116 108.223 47.8816
17974 1 6.37253 108.218 49.1633
23554 2 10.0074 108.223 47.8815
17721 1 11.8288 108.218 49.1633
23273 2 15.4636 108.223 47.8815
17398 1 17.285 108.218 49.1633
22931 2 20.9199 108.223 47.8815
23885 2 1.82359 109.82 47.8892
18142 1 0.91731 111.414 49.1778
18166 1 3.64494 109.816 49.1709
23753 2 4.55218 111.417 47.896
23774 2 7.27982 109.82 47.8892
17972 1 9.10118 109.816 49.1709
17973 1 6.37355 111.414 49.1778
23553 2 10.0084 111.417 47.896
17700 1 11.8298 111.414 49.1778
23552 2 12.736 109.82 47.8892
17723 1 14.5574 109.816 49.171
23258 2 15.4647 111.417 47.8961
23275 2 18.1923 109.82 47.8892
17397 1 17.286 111.414 49.1778
17396 1 20.0137 109.816 49.171
22930 2 20.9209 111.417 47.896
23886 2 1.82449 113.014 47.902
18141 1 0.918148 114.609 49.1889
23752 2 4.55299 114.611 47.9071
18140 1 3.64588 113.012 49.1838
23751 2 7.28073 113.014 47.902
17975 1 9.10212 113.012 49.1838
17946 1 6.37439 114.609 49.1889
23530 2 10.0092 114.611 47.9071
17699 1 11.8306 114.609 49.1889
23555 2 12.737 113.014 47.902
23257 2 15.4655 114.611 47.9071
17698 1 14.5584 113.012 49.1837
23256 2 18.1932 113.014 47.902
17382 1 17.2869 114.609 49.1889
22923 2 20.9217 114.611 47.9071
17399 1 20.0146 113.012 49.1837
23869 2 1.8252 116.208 47.9114
18118 1 0.918739 117.805 49.1966
23726 2 4.55359 117.805 47.9148
18143 1 3.6466 116.207 49.1932
23754 2 7.28144 116.208 47.9114
17944 1 9.10283 116.207 49.1932
17945 1 6.37497 117.805 49.1966
23529 2 10.0098 117.805 47.9148
17670 1 11.8312 117.805 49.1966
23234 2 15.4661 117.805 47.9148
23528 2 12.7377 116.208 47.9114
17701 1 14.5591 116.207 49.1932
23259 2 18.1939 116.208 47.9114
17381 1 17.2875 117.805 49.1966
22922 2 20.9223 117.805 47.9148
17380 1 20.0153 116.207 49.1932
23870 2 1.82568 119.402 47.9174
18117 1 0.91907 121.001 49.2009
23725 2 4.55393 121 47.919
18116 1 3.64706 119.403 49.1992
23724 2 7.28192 119.402 47.9174
17911 1 6.37531 121.001 49.2009
17947 1 9.10329 119.403 49.1992
23498 2 10.0102 121 47.919
17669 1 11.8315 121.001 49.2009
23233 2 15.4664 121 47.919
23531 2 12.7381 119.402 47.9174
17668 1 14.5595 119.403 49.1992
23232 2 18.1944 119.402 47.9174
17358 1 17.2878 121.001 49.2009
22907 2 20.9226 121 47.919
17383 1 20.0158 119.403 49.1992
23853 2 1.82589 122.597 47.9198
18094 1 0.919167 124.196 49.2016
23698 2 4.55405 124.194 47.9197
18119 1 3.64727 122.599 49.2017
23727 2 7.28213 122.597 47.9198
17909 1 9.1035 122.599 49.2017
17910 1 6.3754 124.196 49.2016
23497 2 10.0103 124.194 47.9197
17632 1 11.8316 124.196 49.2016
23202 2 15.4665 124.194 47.9197
23496 2 12.7384 122.597 47.9198
17671 1 14.5597 122.599 49.2017
23235 2 18.1946 122.597 47.9198
17357 1 17.2879 124.196 49.2016
22906 2 20.9228 124.194 47.9197
17356 1 20.016 122.599 49.2017
23854 2 1.82593 125.791 47.9187
18093 1 0.919076 127.392 49.1987
23697 2 4.55401 127.388 47.9167
18092 1 3.64726 125.794 49.2006
23696 2 7.28217 125.791 47.9187
17875 1 6.37532 127.392 49.1987
17912 1 9.1035 125.794 49.2006
23459 2 10.0102 127.388 47.9167
17631 1 11.8316 127.392 49.1987
23201 2 15.4665 127.388 47.9167
23499 2 12.7384 125.791 47.9187
17630 1 14.5597 125.794 49.2006
23200 2 18.1946 125.791 47.9187
17326 1 17.2878 127.392 49.1987
22883 2 20.9227 127.388 47.9167
17359 1 20.016 125.794 49.2006
23837 2 1.82578 128.985 47.9138
18095 1 3.64711 128.99 49.1958
23699 2 7.28203 128.985 47.9138
17873 1 9.10334 128.99 49.1958
23457 2 12.7383 128.985 47.9138
17633 1 14.5596 128.99 49.1958
23203 2 18.1945 128.985 47.9138
17324 1 20.0158 128.99 49.1958
18070 1 0.918867 130.588 49.1919
23838 2 1.82552 132.178 47.9052
23670 2 4.55378 130.582 47.91
18068 1 3.64683 132.185 49.1871
17874 1 6.3751 130.588 49.1919
23668 2 7.28174 132.178 47.9052
17876 1 9.10307 132.185 49.1871
23458 2 10.01 130.582 47.91
17587 1 11.8313 130.588 49.1919
23162 2 15.4663 130.581 47.91
23460 2 12.738 132.178 47.9052
17585 1 14.5593 132.185 49.1871
17325 1 17.2876 130.588 49.1919
23160 2 18.1942 132.178 47.9052
22882 2 20.9225 130.581 47.91
17327 1 20.0155 132.185 49.1871
23821 2 1.82507 135.372 47.8928
18069 1 0.918528 133.783 49.1814
23669 2 4.55342 133.775 47.8995
18071 1 3.6464 135.381 49.1747
23671 2 7.28132 135.372 47.8928
17838 1 9.10264 135.381 49.1747
17840 1 6.37476 133.783 49.1814
23419 2 10.0097 133.775 47.8994
17586 1 11.831 133.783 49.1814
23161 2 15.4659 133.775 47.8994
23417 2 12.7376 135.372 47.8928
17588 1 14.5589 135.381 49.1747
23163 2 18.1938 135.372 47.8928
17286 1 17.2872 133.783 49.1814
22851 2 20.9221 133.775 47.8994
17284 1 20.0151 135.381 49.1747
23822 2 1.82441 138.566 47.8766
18050 1 0.917991 136.979 49.167
23643 2 4.55291 136.969 47.8851
18048 1 3.64576 138.576 49.1584
23641 2 7.28066 138.566 47.8766
17839 1 6.37423 136.979 49.167
17841 1 9.10199 138.576 49.1584
23418 2 10.0091 136.969 47.8852
17543 1 11.8305 136.979 49.167
23115 2 15.4654 136.969 47.8852
23420 2 12.7369 138.566 47.8766
17541 1 14.5582 138.576 49.1584
23113 2 18.1931 138.566 47.8766
17285 1 17.2867 136.979 49.167
22850 2 20.9216 136.969 47.8852
17287 1 20.0145 138.576 49.1584
23809 2 1.82344 141.76 47.857
18049 1 0.917207 140.174 49.149
23642 2 4.55209 140.163 47.8672
18051 1 3.64482 141.772 49.1386
23644 2 7.27966 141.76 47.857
17810 1 9.10106 141.772 49.1386
17812 1 6.37345 140.174 49.149
23383 2 10.0083 140.163 47.8672
17542 1 11.8297 140.174 49.149
23114 2 15.4645 140.163 47.8672
23381 2 12.7359 141.76 47.857
17544 1 14.5573 141.772 49.1386
23116 2 18.1922 141.76 47.857
17240 1 17.2859 140.174 49.149
22811 2 20.9208 140.163 47.8673
17238 1 20.0135 141.772 49.1386
23810 2 1.82221 144.954 47.8338
18038 1 0.916122 143.37 49.1274
23623 2 4.55095 143.357 47.8458
18036 1 3.64356 144.968 49.1152
23621 2 7.27845 144.954 47.8338
17811 1 6.37235 143.37 49.1274
17813 1 9.0998 144.968 49.1152
23382 2 10.0072 143.357 47.8458
17507 1 11.8286 143.37 49.1274
23071 2 15.4634 143.357 47.8458
23384 2 12.7347 144.954 47.8338
17505 1 14.556 144.968 49.1152
23069 2 18.1909 144.954 47.8338
17239 1 17.2848 143.37 49.1274
22810 2 20.9197 143.357 47.8458
17241 1 20.0123 144.968 49.1152
23805 2 1.82068 148.148 47.8074
18037 1 0.914695 146.566 49.1023
23622 2 4.54962 146.551 47.821
18039 1 3.64204 148.164 49.0886
23624 2 7.27692 148.148 47.8074
17790 1 9.09828 148.164 49.0886
17792 1 6.37094 146.566 49.1023
23355 2 10.0058 146.551 47.821
17506 1 11.8272 146.566 49.1023
23070 2 15.4621 146.551 47.821
23353 2 12.7332 148.148 47.8073
17508 1 14.5545 148.164 49.0886
23072 2 18.1894 148.148 47.8073
17198 1 17.2834 146.566 49.1023
22767 2 20.9184 146.551 47.821
17196 1 20.0108 148.164 49.0886
18031 1 0.913077 149.762 49.074
23608 2 4.54796 149.746 47.7929
17791 1 6.36931 149.762 49.074
23354 2 10.0042 149.746 47.7929
17476 1 11.8256 149.762 49.074
23032 2 15.4604 149.746 47.7929
17197 1 17.2818 149.762 49.074
22766 2 20.9167 149.746 47.7929
21777 2 2.73639 101.818 50.4015
23899 2 0.0088712 103.416 50.4129
18161 1 1.83054 103.409 51.6939
21775 2 0.924651 101.8 52.9598
23768 2 5.46509 103.416 50.4129
23767 2 3.65332 103.401 52.9713
15943 1 4.55807 101.809 51.6825
21495 2 8.19264 101.818 50.4015
17992 1 7.28678 103.409 51.694
23545 2 9.10956 103.401 52.9713
21473 2 6.38089 101.8 52.9598
23568 2 10.9214 103.416 50.4129
15601 1 10.0143 101.809 51.6825
21143 2 11.8371 101.8 52.9598
21145 2 13.6489 101.818 50.4015
17717 1 12.743 103.409 51.6939
23268 2 14.5658 103.401 52.9714
15292 1 15.4705 101.809 51.6825
23269 2 16.3776 103.416 50.4129
17404 1 18.1993 103.409 51.6939
20812 2 17.2934 101.8 52.9598
20853 2 19.1051 101.818 50.4015
22925 2 20.022 103.401 52.9714
14995 1 20.9268 101.809 51.6825
23769 2 2.73757 105.015 50.4233
23883 2 0.010003 106.614 50.4328
18162 1 1.83168 106.608 51.714
23745 2 0.925737 105.001 52.982
23770 2 5.46624 106.614 50.4328
17970 1 4.55924 105.008 51.7044
23743 2 3.65439 106.601 52.9916
23550 2 8.1938 105.015 50.4233
17968 1 7.28793 106.608 51.714
23546 2 6.38198 105.001 52.9819
23547 2 9.11062 106.601 52.9916
23548 2 10.9225 106.614 50.4328
17718 1 10.0155 105.008 51.7044
23250 2 11.8382 105.001 52.9819
23270 2 13.65 105.015 50.4233
17394 1 15.4717 105.008 51.7044
17719 1 12.7442 106.608 51.714
23248 2 14.5669 106.601 52.9916
23271 2 16.3787 106.614 50.4328
17392 1 18.2004 106.608 51.714
22926 2 17.2945 105.001 52.982
22929 2 19.1063 105.015 50.4233
17067 1 20.928 105.008 51.7044
22927 2 20.0231 106.601 52.9916
23749 2 2.73866 108.213 50.4415
23744 2 0.926776 108.202 53.0004
17969 1 4.56035 108.207 51.7227
23549 2 8.19489 108.213 50.4415
23522 2 6.38302 108.202 53.0004
17696 1 10.0166 108.207 51.7227
23249 2 11.8393 108.202 53.0004
23254 2 13.6511 108.213 50.4415
17393 1 15.4728 108.207 51.7227
22918 2 17.2955 108.202 53.0003
22928 2 19.1074 108.213 50.4415
17066 1 20.9291 108.207 51.7227
18138 1 1.83273 109.807 51.7304
23884 2 0.0110323 109.811 50.4493
23748 2 2.73963 111.41 50.4561
23718 2 0.927746 111.403 53.0152
23746 2 3.65539 109.802 53.0082
23747 2 5.4673 109.811 50.4492
17942 1 4.56132 111.406 51.7373
17971 1 7.28897 109.807 51.7304
23520 2 9.11164 109.802 53.0082
23526 2 8.19587 111.41 50.4561
23521 2 6.38397 111.403 53.0152
23551 2 10.9235 109.811 50.4492
17695 1 10.0176 111.406 51.7373
23226 2 11.8402 111.403 53.0152
17694 1 12.7452 109.807 51.7304
23251 2 14.5679 109.802 53.0082
23253 2 13.6521 111.41 50.4561
17378 1 15.4738 111.406 51.7373
17395 1 18.2014 109.807 51.7304
23252 2 16.3798 109.811 50.4493
22917 2 17.2965 111.403 53.0152
22916 2 20.0241 109.802 53.0082
22921 2 19.1084 111.41 50.4561
17065 1 20.93 111.406 51.7373
23867 2 0.0119458 113.009 50.4621
23722 2 2.74043 114.607 50.4673
18139 1 1.83363 113.006 51.7434
23717 2 0.92849 114.603 53.0265
23750 2 5.46817 113.009 50.4621
23716 2 3.65626 113.003 53.0212
17941 1 4.56212 114.605 51.7486
23525 2 8.19666 114.607 50.4673
17940 1 7.28987 113.006 51.7434
23523 2 9.11249 113.003 53.0213
23490 2 6.38473 114.603 53.0265
23524 2 10.9244 113.009 50.4621
17666 1 10.0184 114.605 51.7486
23225 2 11.841 114.603 53.0265
23230 2 13.6529 114.607 50.4673
17697 1 12.7461 113.006 51.7434
23224 2 14.5687 113.003 53.0213
17377 1 15.4746 114.605 51.7486
23255 2 16.3807 113.009 50.4621
17376 1 18.2023 113.006 51.7434
22902 2 17.2972 114.603 53.0265
22920 2 19.1091 114.607 50.4673
22919 2 20.025 113.003 53.0213
17058 1 20.9308 114.605 51.7486
23721 2 2.74101 117.805 50.475
23868 2 0.0126247 116.206 50.4716
18114 1 1.83432 116.205 51.7529
23690 2 0.929034 117.804 53.0343
23720 2 5.46886 116.206 50.4716
17907 1 4.56269 117.804 51.7564
23719 2 3.65691 116.204 53.0308
23494 2 8.19725 117.805 50.4751
17943 1 7.29056 116.205 51.7529
23488 2 9.11315 116.204 53.0308
23489 2 6.38528 117.804 53.0343
23527 2 10.9251 116.206 50.4716
17665 1 10.0189 117.804 51.7564
23194 2 11.8415 117.804 53.0343
23229 2 13.6535 117.805 50.4751
17354 1 15.4752 117.804 51.7564
17664 1 12.7468 116.205 51.7529
23227 2 14.5694 116.204 53.0308
23228 2 16.3813 116.206 50.4716
17379 1 18.203 116.205 51.7529
22901 2 17.2978 117.804 53.0343
22905 2 19.1097 117.805 50.4751
17057 1 20.9314 117.804 51.7564
22900 2 20.0256 116.204 53.0308
23694 2 2.74133 121.002 50.4793
23851 2 0.0130752 119.403 50.4776
18115 1 1.83476 119.404 51.759
23689 2 0.92935 121.004 53.0387
23723 2 5.46932 119.403 50.4776
17906 1 4.56301 121.003 51.7607
23688 2 3.65734 119.404 53.0369
23493 2 8.19757 121.002 50.4793
17905 1 7.291 119.404 51.759
23451 2 6.38559 121.004 53.0387
23491 2 9.11357 119.404 53.0369
23492 2 10.9256 119.403 50.4776
17628 1 10.0192 121.003 51.7607
23193 2 11.8418 121.004 53.0387
23198 2 13.6538 121.002 50.4793
17353 1 15.4755 121.003 51.7607
17667 1 12.7472 119.404 51.759
23192 2 14.5698 119.404 53.0369
23231 2 16.3818 119.403 50.4776
17352 1 18.2035 119.404 51.759
22878 2 17.2981 121.004 53.0387
22904 2 19.11 121.002 50.4793
17042 1 20.9317 121.003 51.7607
22903 2 20.0261 119.404 53.0369
23693 2 2.74144 124.199 50.48
23852 2 0.0132856 122.601 50.4801
18090 1 1.83496 122.603 51.7616
23662 2 0.929451 124.205 53.0394
23692 2 5.46952 122.601 50.4801
17871 1 4.56309 124.202 51.7615
23691 2 3.65754 122.605 53.0395
23455 2 8.19768 124.199 50.4801
17908 1 7.29119 122.603 51.7616
23449 2 9.11379 122.605 53.0395
23450 2 6.38569 124.205 53.0394
23495 2 10.9258 122.601 50.4801
17627 1 10.0193 124.202 51.7615
23154 2 11.8419 124.205 53.0394
23197 2 13.6539 124.199 50.4801
17322 1 15.4756 124.202 51.7615
17626 1 12.7474 122.603 51.7616
23195 2 14.57 122.605 53.0395
23196 2 16.382 122.601 50.4801
17355 1 18.2037 122.603 51.7616
22877 2 17.2982 124.205 53.0394
22881 2 19.1102 124.199 50.4801
17041 1 20.9318 124.202 51.7615
22876 2 20.0263 122.605 53.0395
23666 2 2.74137 127.397 50.4771
23835 2 0.013322 125.798 50.479
18091 1 1.83494 125.802 51.7605
23661 2 0.929367 127.406 53.0364
23695 2 5.46955 125.798 50.479
17870 1 4.563 127.401 51.7585
23660 2 3.65756 125.805 53.0384
23454 2 8.19761 127.397 50.4771
17869 1 7.29118 125.802 51.7605
23411 2 6.3856 127.406 53.0364
23452 2 9.11379 125.805 53.0384
23453 2 10.9258 125.798 50.479
17583 1 10.0192 127.401 51.7586
23153 2 11.8418 127.406 53.0364
23158 2 13.6538 127.397 50.4771
17321 1 15.4755 127.401 51.7586
17629 1 12.7474 125.802 51.7605
23152 2 14.57 125.805 53.0384
23199 2 16.382 125.798 50.479
17320 1 18.2037 125.802 51.7605
22846 2 17.2981 127.406 53.0364
22880 2 19.1101 127.397 50.4771
17018 1 20.9317 127.401 51.7585
22879 2 20.0263 125.805 53.0384
23836 2 0.0131431 128.995 50.4742
18066 1 1.83478 129.001 51.7557
23664 2 5.4694 128.995 50.4742
23663 2 3.65737 129.006 53.0335
17872 1 7.29102 129.001 51.7556
23409 2 9.11363 129.006 53.0335
23456 2 10.9256 128.995 50.4742
17581 1 12.7473 129.001 51.7556
23155 2 14.5699 129.006 53.0335
23156 2 16.3819 128.995 50.4742
17323 1 18.2035 129.001 51.7557
22844 2 20.0261 129.006 53.0335
23665 2 2.74115 130.594 50.4703
23635 2 0.929141 130.606 53.0297
23819 2 0.012868 132.192 50.4655
18067 1 1.83448 132.199 51.747
17836 1 4.56277 130.6 51.7518
23667 2 5.46911 132.192 50.4655
23633 2 3.65707 132.206 53.0248
23415 2 8.19739 130.594 50.4703
23410 2 6.38537 130.606 53.0297
17834 1 7.29072 132.199 51.747
23412 2 9.11331 132.206 53.0248
17582 1 10.019 130.6 51.7518
23107 2 11.8416 130.606 53.0297
23413 2 10.9253 132.192 50.4655
23157 2 13.6536 130.594 50.4703
17282 1 15.4752 130.6 51.7518
17584 1 12.747 132.199 51.747
23105 2 14.5696 132.206 53.0248
22845 2 17.2979 130.606 53.0297
23159 2 16.3816 132.192 50.4655
17280 1 18.2032 132.199 51.747
22849 2 19.1099 130.594 50.4703
17017 1 20.9315 130.6 51.7518
22847 2 20.0258 132.206 53.0248
23639 2 2.74077 133.791 50.4597
23820 2 0.0124013 135.389 50.453
18046 1 1.83405 135.398 51.7344
23634 2 0.928717 133.806 53.019
23637 2 5.46863 135.389 50.453
17835 1 4.56241 133.799 51.7412
23636 2 3.6566 135.407 53.0122
23414 2 8.19701 133.791 50.4597
17837 1 7.29028 135.398 51.7344
23373 2 9.11282 135.407 53.0122
23375 2 6.38498 133.806 53.019
23416 2 10.9249 135.389 50.453
17539 1 10.0186 133.799 51.7412
23106 2 11.8412 133.806 53.019
23111 2 13.6532 133.791 50.4597
17281 1 15.4749 133.799 51.7412
17537 1 12.7465 135.398 51.7344
23108 2 14.5691 135.407 53.0122
23109 2 16.3811 135.389 50.453
17283 1 18.2028 135.398 51.7344
22806 2 17.2974 133.806 53.019
22848 2 19.1095 133.791 50.4597
16986 1 20.9311 133.799 51.7412
22804 2 20.0253 135.407 53.0122
23638 2 2.74024 136.988 50.4453
23807 2 0.0117637 138.587 50.4367
18047 1 1.83341 138.597 51.718
23615 2 0.928173 137.007 53.0045
23640 2 5.46801 138.587 50.4367
17808 1 4.56187 136.997 51.7267
23613 2 3.65595 138.607 52.9957
23379 2 8.19647 136.988 50.4453
17806 1 7.28964 138.597 51.718
23374 2 6.3844 137.007 53.0045
23376 2 9.11221 138.607 52.9958
23377 2 10.9242 138.587 50.4367
17538 1 10.0181 136.997 51.7267
23063 2 11.8407 137.007 53.0045
23110 2 13.6527 136.988 50.4453
17236 1 15.4743 136.997 51.7267
17540 1 12.7459 138.597 51.718
23061 2 14.5684 138.607 52.9958
23112 2 16.3805 138.587 50.4367
17234 1 18.2021 138.597 51.718
22805 2 17.2969 137.007 53.0045
22809 2 19.109 136.988 50.4453
16985 1 20.9306 136.997 51.7267
22807 2 20.0246 138.607 52.9958
23619 2 2.73945 140.185 50.4272
23808 2 0.0108056 141.784 50.4168
18034 1 1.8325 141.796 51.6979
23614 2 0.927454 140.207 52.9861
23617 2 5.46704 141.784 50.4168
17807 1 4.5611 140.196 51.7084
23616 2 3.65504 141.808 52.9755
23378 2 8.19569 140.185 50.4272
17809 1 7.28874 141.796 51.6979
23345 2 9.11128 141.808 52.9755
23347 2 6.38367 140.207 52.9861
23380 2 10.9233 141.784 50.4168
17503 1 10.0173 140.196 51.7084
23062 2 11.8399 140.207 52.9861
23067 2 13.6519 140.185 50.4272
17235 1 15.4736 140.196 51.7084
17501 1 12.745 141.796 51.6979
23064 2 14.5675 141.808 52.9755
23065 2 16.3795 141.784 50.4168
17237 1 18.2012 141.796 51.6979
22762 2 17.2962 140.207 52.9861
22808 2 19.1082 140.185 50.4272
16950 1 20.9298 140.196 51.7084
22760 2 20.0238 141.808 52.9755
23618 2 2.73832 143.383 50.4054
23803 2 0.00963284 144.981 50.3932
18035 1 1.83131 144.995 51.6741
23603 2 0.926348 143.408 52.9639
23620 2 5.46586 144.981 50.3932
17788 1 4.56007 143.395 51.6864
23601 2 3.65392 145.009 52.9515
23351 2 8.19457 143.383 50.4054
17786 1 7.28756 144.995 51.6741
23346 2 6.3826 143.408 52.9639
23348 2 9.11015 145.009 52.9515
23349 2 10.9221 144.981 50.3932
17502 1 10.0163 143.395 51.6864
23027 2 11.8388 143.408 52.9639
23066 2 13.6508 143.383 50.4054
17194 1 15.4725 143.395 51.6864
17504 1 12.7438 144.995 51.6741
23025 2 14.5664 145.009 52.9515
23068 2 16.3784 144.981 50.3932
17192 1 18.2 144.995 51.6741
22761 2 17.2951 143.408 52.9639
22765 2 19.107 143.383 50.4054
16949 1 20.9288 143.395 51.6864
22763 2 20.0226 145.009 52.9515
23607 2 2.7371 146.58 50.3801
23804 2 0.00818037 148.179 50.3661
18030 1 1.82989 148.195 51.6467
23602 2 0.925191 146.609 52.9381
23605 2 5.46444 148.179 50.3661
17787 1 4.55874 146.595 51.6608
23604 2 3.65263 148.21 52.9237
23350 2 8.19333 146.58 50.3801
17789 1 7.28612 148.195 51.6467
23325 2 9.10887 148.21 52.9238
23327 2 6.38143 146.609 52.9381
23352 2 10.9207 148.179 50.3661
17475 1 10.015 146.595 51.6608
23026 2 11.8377 146.609 52.938
23031 2 13.6496 146.58 50.3801
17193 1 15.4712 146.595 51.6608
17473 1 12.7424 148.195 51.6467
23028 2 14.5651 148.21 52.9238
23029 2 16.3769 148.179 50.3661
17195 1 18.1986 148.195 51.6467
22722 2 17.2939 146.609 52.9381
22764 2 19.1058 146.58 50.3801
16914 1 20.9274 146.595 51.6608
22720 2 20.0213 148.21 52.9237
23606 2 2.73547 149.778 50.3513
23596 2 0.923719 149.811 52.9085
17773 1 4.55723 149.795 51.6318
23328 2 8.19171 149.778 50.3513
23326 2 6.37995 149.811 52.9086
17474 1 10.0135 149.795 51.6318
22996 2 11.8362 149.811 52.9086
23030 2 13.6479 149.778 50.3513
17157 1 15.4697 149.795 51.6318
22721 2 17.2924 149.811 52.9085
22723 2 19.1042 149.778 50.3514
16913 1 20.9259 149.795 51.6318
18160 1 0.019074 103.393 54.2519
15929 1 2.74664 101.791 54.2403
23741 2 1.84214 103.385 55.5288
17965 1 5.47532 103.393 54.2519
21471 2 4.56976 101.783 55.517
15599 1 8.20288 101.791 54.2403
23544 2 7.29839 103.385 55.5287
17716 1 10.9316 103.393 54.2519
21113 2 10.026 101.783 55.517
15256 1 13.6591 101.791 54.2403
23245 2 12.7547 103.385 55.5287
20810 2 15.4822 101.783 55.517
17389 1 16.3878 103.393 54.2519
22924 2 18.2109 103.385 55.5287
14993 1 19.1154 101.791 54.2403
20536 2 20.9385 101.783 55.517
17966 1 2.74775 104.994 54.2625
18136 1 0.020171 106.595 54.2722
23742 2 1.84317 106.589 55.5493
17967 1 5.47641 106.595 54.2722
23518 2 4.57077 104.987 55.5395
17692 1 8.20399 104.994 54.2625
23516 2 7.2994 106.589 55.5493
17690 1 10.9326 106.595 54.2722
23246 2 10.027 104.987 55.5395
17390 1 13.6602 104.994 54.2625
22914 2 15.4833 104.987 55.5395
23247 2 12.7556 106.589 55.5493
17391 1 16.3889 106.595 54.2722
22912 2 18.2119 106.589 55.5493
17064 1 19.1165 104.994 54.2625
22602 2 20.9395 104.987 55.5395
17938 1 2.7488 108.197 54.281
23517 2 4.57178 108.191 55.5582
17691 1 8.20504 108.197 54.281
23222 2 10.028 108.191 55.5582
17374 1 13.6613 108.197 54.281
22913 2 15.4843 108.191 55.5582
17063 1 19.1175 108.197 54.281
22601 2 20.9405 108.191 55.5582
18137 1 0.0211633 109.798 54.2889
23714 2 1.84415 109.793 55.5661
17937 1 2.74973 111.399 54.2959
17936 1 5.4774 109.798 54.2889
23486 2 4.5727 111.395 55.5732
23519 2 7.30038 109.793 55.5661
17662 1 8.20597 111.399 54.2959
17693 1 10.9336 109.798 54.2889
23221 2 10.0289 111.395 55.5732
23220 2 12.7566 109.793 55.5662
17373 1 13.6622 111.399 54.2959
22898 2 15.4852 111.395 55.5732
17372 1 16.3899 109.798 54.2889
22915 2 18.2129 109.793 55.5662
17056 1 19.1184 111.399 54.2959
22600 2 20.9414 111.395 55.5732
18112 1 0.0220085 113 54.302
17903 1 2.75049 114.601 54.3073
23715 2 1.84495 112.997 55.5794
17939 1 5.47825 113 54.302
23485 2 4.57341 114.599 55.5847
17661 1 8.20672 114.601 54.3072
23484 2 7.3012 112.997 55.5794
17660 1 10.9345 113 54.302
23190 2 10.0297 114.599 55.5847
17350 1 13.663 114.601 54.3073
23223 2 12.7574 112.997 55.5794
22897 2 15.4859 114.599 55.5846
17375 1 16.3907 113 54.302
22896 2 18.2137 112.997 55.5794
17055 1 19.1192 114.601 54.3073
22593 2 20.9421 114.599 55.5846
17902 1 2.75103 117.804 54.3151
18113 1 0.0226688 116.203 54.3116
23686 2 1.84557 116.201 55.5891
17901 1 5.47891 116.203 54.3116
23447 2 4.57393 117.803 55.5926
17624 1 8.20726 117.804 54.3151
23487 2 7.30181 116.201 55.5891
17663 1 10.9351 116.203 54.3116
23189 2 10.0302 117.803 55.5926
17349 1 13.6635 117.804 54.3151
22874 2 15.4864 117.803 55.5926
23188 2 12.7581 116.201 55.5891
17348 1 16.3914 116.203 54.3116
22899 2 18.2143 116.201 55.5891
17040 1 19.1197 117.804 54.3151
22592 2 20.9427 117.803 55.5926
17867 1 2.75133 121.006 54.3196
18088 1 0.0230865 119.405 54.3178
23687 2 1.846 119.405 55.5952
17904 1 5.47932 119.405 54.3178
23446 2 4.57423 121.007 55.597
17623 1 8.20756 121.006 54.3196
23445 2 7.30223 119.405 55.5952
17622 1 10.9356 119.405 54.3178
23150 2 10.0305 121.007 55.597
17318 1 13.6638 121.006 54.3196
22873 2 15.4867 121.007 55.597
23191 2 12.7585 119.405 55.5953
17351 1 16.3918 119.405 54.3178
22872 2 18.2147 119.405 55.5953
17039 1 19.12 121.006 54.3196
22577 2 20.9429 121.007 55.597
17866 1 2.7514 124.208 54.3204
18089 1 0.0232723 122.607 54.3204
23658 2 1.84618 122.609 55.5979
17865 1 5.47951 122.607 54.3204
23407 2 4.57432 124.211 55.5978
17579 1 8.20764 124.208 54.3204
23448 2 7.30242 122.609 55.5979
17625 1 10.9357 122.607 54.3204
23149 2 10.0306 124.211 55.5978
17317 1 13.6639 124.208 54.3204
22842 2 15.4868 124.211 55.5978
23148 2 12.7587 122.609 55.5979
17316 1 16.392 122.607 54.3204
22875 2 18.2149 122.609 55.5979
17016 1 19.1201 124.208 54.3204
22576 2 20.943 124.211 55.5978
17832 1 2.7513 127.41 54.3174
18064 1 0.0232493 125.809 54.3194
23659 2 1.84617 125.813 55.5968
17868 1 5.47949 125.809 54.3194
23406 2 4.57422 127.415 55.5948
17578 1 8.20754 127.41 54.3174
23405 2 7.30241 125.813 55.5968
17577 1 10.9357 125.809 54.3194
23103 2 10.0305 127.415 55.5948
17278 1 13.6638 127.41 54.3174
22841 2 15.4867 127.415 55.5948
23151 2 12.7586 125.813 55.5968
17319 1 16.392 125.809 54.3194
22840 2 18.2149 125.813 55.5968
17015 1 19.12 127.41 54.3174
22553 2 20.9429 127.415 55.5948
18065 1 0.0230782 129.011 54.3145
23631 2 1.84598 129.016 55.5919
17830 1 5.47931 129.011 54.3145
23408 2 7.30222 129.016 55.5919
17580 1 10.9356 129.011 54.3145
23101 2 12.7585 129.016 55.5919
17276 1 16.3918 129.011 54.3145
22843 2 18.2147 129.016 55.5919
17831 1 2.75105 130.612 54.3106
18044 1 0.0227587 132.213 54.3058
23632 2 1.84566 132.22 55.5831
23371 2 4.57395 130.618 55.588
17833 1 5.47899 132.213 54.3058
17535 1 8.20729 130.612 54.3106
23369 2 7.30189 132.22 55.5832
23102 2 10.0302 130.618 55.588
17533 1 10.9352 132.213 54.3058
17277 1 13.6635 130.612 54.3106
22802 2 15.4864 130.618 55.588
23104 2 12.7581 132.22 55.5832
17279 1 16.3915 132.213 54.3058
22800 2 18.2144 132.22 55.5832
16984 1 19.1198 130.612 54.3106
22552 2 20.9427 130.618 55.588
17804 1 2.75066 133.814 54.3
18045 1 0.0222886 135.415 54.2932
23611 2 1.84516 135.424 55.5705
17802 1 5.47853 135.415 54.2932
23370 2 4.57354 133.822 55.5773
17534 1 8.2069 133.814 54.3
23372 2 7.30139 135.424 55.5705
17536 1 10.9348 135.415 54.2932
23059 2 10.0298 133.822 55.5773
17232 1 13.6631 133.814 54.3
22801 2 15.486 133.822 55.5773
23057 2 12.7576 135.424 55.5705
17230 1 16.391 135.415 54.2932
22803 2 18.2139 135.424 55.5705
16983 1 19.1194 133.814 54.3
22522 2 20.9423 133.822 55.5773
17803 1 2.75011 137.016 54.2854
18032 1 0.0216456 138.618 54.2766
23612 2 1.84446 138.628 55.5538
17805 1 5.47788 138.618 54.2766
23343 2 4.57295 137.026 55.5626
17499 1 8.20635 137.016 54.2854
23341 2 7.30073 138.628 55.5538
17497 1 10.9341 138.618 54.2766
23058 2 10.0292 137.026 55.5626
17231 1 13.6626 137.016 54.2854
22758 2 15.4854 137.026 55.5626
23060 2 12.757 138.628 55.5538
17233 1 16.3904 138.618 54.2766
22756 2 18.2132 138.628 55.5538
16948 1 19.1188 137.016 54.2854
22521 2 20.9417 137.026 55.5626
17784 1 2.74935 140.219 54.2668
18033 1 0.0207728 141.82 54.2561
23599 2 1.84366 141.832 55.5332
17782 1 5.47701 141.82 54.2561
23342 2 4.57224 140.23 55.544
17498 1 8.20559 140.219 54.2669
23344 2 7.29989 141.832 55.5332
17500 1 10.9333 141.82 54.2561
23023 2 10.0285 140.23 55.544
17190 1 13.6618 140.219 54.2669
22757 2 15.4847 140.23 55.544
23021 2 12.7561 141.832 55.5332
17188 1 16.3895 141.82 54.2561
22759 2 18.2124 141.832 55.5332
16947 1 19.1181 140.219 54.2669
22490 2 20.9409 140.23 55.544
17783 1 2.74838 143.421 54.2445
18028 1 0.0196767 145.022 54.2318
23600 2 1.84259 145.036 55.5087
17785 1 5.47592 145.022 54.2318
23323 2 4.57124 143.434 55.5214
17471 1 8.20462 143.421 54.2445
23321 2 7.29881 145.036 55.5087
17469 1 10.9322 145.022 54.2318
23022 2 10.0275 143.434 55.5214
17189 1 13.6609 143.421 54.2445
22718 2 15.4837 143.434 55.5214
23024 2 12.755 145.036 55.5087
17191 1 16.3884 145.022 54.2318
22716 2 18.2113 145.036 55.5087
16912 1 19.1171 143.421 54.2445
22489 2 20.9399 143.434 55.5214
17772 1 2.74717 146.624 54.2183
18029 1 0.018385 148.226 54.2038
23595 2 1.84138 148.241 55.4803
17770 1 5.47462 148.226 54.2038
23322 2 4.57011 146.639 55.495
17470 1 8.20341 146.624 54.2183
23324 2 7.29763 148.241 55.4803
17472 1 10.9309 148.226 54.2038
22995 2 10.0264 146.639 55.495
17156 1 13.6596 146.624 54.2183
22717 2 15.4826 146.639 55.495
22993 2 12.7539 148.241 55.4803
17154 1 16.3871 148.226 54.2038
22719 2 18.2101 148.241 55.4803
16911 1 19.1159 146.624 54.2183
22458 2 20.9388 146.639 55.4949
17771 1 2.74579 149.827 54.1884
23308 2 4.56883 149.844 55.4647
17448 1 8.20203 149.827 54.1884
22994 2 10.0251 149.844 55.4647
17155 1 13.6583 149.827 54.1884
22683 2 15.4813 149.844 55.4647
16878 1 19.1145 149.827 54.1884
22457 2 20.9376 149.844 55.4647
15927 1 0.935809 101.774 56.797
23740 2 0.0315788 103.369 58.0851
21457 2 2.75921 101.765 58.0732
17964 1 3.66446 103.377 56.8088
23513 2 5.48781 103.369 58.0851
17687 1 9.1207 103.377 56.8088
15577 1 6.39204 101.774 56.797
21111 2 8.21544 101.765 58.0732
15254 1 11.8483 101.774 56.797
23244 2 10.944 103.369 58.0851
17388 1 14.5769 103.377 56.8088
20776 2 13.6717 101.765 58.0732
14960 1 17.3045 101.774 56.797
22909 2 16.4003 103.369 58.0851
17060 1 20.0332 103.377 56.8088
20534 2 19.1279 101.765 58.0732
17934 1 0.936876 104.98 56.8196
23514 2 2.76018 104.973 58.096
23712 2 0.0325277 106.577 58.106
17932 1 3.66551 106.583 56.8294
23515 2 5.48879 106.577 58.106
17688 1 6.39311 104.98 56.8196
17689 1 9.12174 106.583 56.8294
23218 2 8.21642 104.973 58.096
17370 1 11.8493 104.98 56.8196
23216 2 10.945 106.577 58.106
17368 1 14.578 106.583 56.8295
22910 2 13.6726 104.973 58.0961
17061 1 17.3056 104.98 56.8196
22911 2 16.4012 106.577 58.106
17062 1 20.0342 106.583 56.8294
22599 2 19.1289 104.973 58.096
17933 1 0.937872 108.186 56.8384
23482 2 2.76113 108.18 58.115
17658 1 6.39411 108.186 56.8384
23217 2 8.21738 108.18 58.115
17369 1 11.8503 108.186 56.8384
22894 2 13.6736 108.18 58.115
17053 1 17.3066 108.186 56.8384
22598 2 19.1299 108.18 58.115
23713 2 0.0334781 109.784 58.1231
17899 1 0.938737 111.392 56.8534
23481 2 2.76201 111.388 58.1303
17935 1 3.66644 109.789 56.8463
23480 2 5.48971 109.784 58.1231
17656 1 9.12268 109.789 56.8463
17657 1 6.39498 111.392 56.8534
23186 2 8.21824 111.388 58.1302
23219 2 10.946 109.784 58.1231
17346 1 11.8512 111.392 56.8534
17371 1 14.5789 109.789 56.8463
22893 2 13.6745 111.388 58.1302
22892 2 16.4022 109.784 58.1231
17052 1 17.3075 111.392 56.8534
17051 1 20.0352 109.789 56.8464
22591 2 19.1307 111.388 58.1302
17898 1 0.939469 114.597 56.865
23684 2 0.034271 112.991 58.1365
23443 2 2.7627 114.595 58.1418
17897 1 3.66724 112.994 56.8596
23483 2 5.4905 112.991 58.1365
17659 1 9.12348 112.994 56.8596
17620 1 6.3957 114.597 56.865
23185 2 8.21894 114.595 58.1419
17345 1 11.8519 114.597 56.865
23184 2 10.9467 112.991 58.1365
17344 1 14.5797 112.994 56.8596
22870 2 13.6752 114.595 58.1419
17037 1 17.3082 114.597 56.865
22895 2 16.403 112.991 58.1365
17054 1 20.036 112.994 56.8596
22590 2 19.1314 114.595 58.1418
17863 1 0.939981 117.803 56.873
23442 2 2.76319 117.802 58.1499
23685 2 0.0348478 116.199 58.1463
17900 1 3.66787 116.2 56.8694
23441 2 5.49109 116.199 58.1463
17618 1 9.12411 116.2 56.8694
17619 1 6.39622 117.803 56.873
23146 2 8.21943 117.802 58.1499
17314 1 11.8525 117.803 56.873
23187 2 10.9473 116.199 58.1463
17347 1 14.5803 116.2 56.8694
22869 2 13.6757 117.802 58.1499
17036 1 17.3087 117.803 56.873
22868 2 16.4036 116.199 58.1463
17035 1 20.0366 116.2 56.8694
22575 2 19.1319 117.802 58.1499
17862 1 0.940264 121.008 56.8774
23403 2 2.76348 121.009 58.1544
23656 2 0.0352395 119.406 58.1526
17861 1 3.66827 119.406 56.8756
23444 2 5.49148 119.406 58.1526
17575 1 6.3965 121.008 56.8774
17621 1 9.12451 119.406 56.8756
23145 2 8.21972 121.009 58.1544
17313 1 11.8527 121.008 56.8774
23144 2 10.9477 119.406 58.1526
17312 1 14.5807 119.406 56.8756
22838 2 13.676 121.009 58.1544
17013 1 17.309 121.008 56.8774
22871 2 16.404 119.406 58.1526
17038 1 20.037 119.406 56.8756
22574 2 19.1322 121.009 58.1544
17828 1 0.940334 124.214 56.8783
23402 2 2.76356 124.216 58.1552
23657 2 0.0354214 122.613 58.1552
17864 1 3.66844 122.611 56.8783
23401 2 5.49166 122.613 58.1552
17573 1 9.12468 122.611 56.8783
17574 1 6.39657 124.214 56.8783
23099 2 8.21979 124.216 58.1552
17274 1 11.8528 124.214 56.8783
23147 2 10.9479 122.613 58.1552
17315 1 14.5809 122.611 56.8783
22837 2 13.676 124.216 58.1552
17012 1 17.309 124.214 56.8783
22836 2 16.4041 122.613 58.1552
17011 1 20.0372 122.611 56.8783
22551 2 19.1323 124.216 58.1552
17827 1 0.940216 127.419 56.8753
23367 2 2.76343 127.424 58.1522
23629 2 0.0354094 125.82 58.1542
17826 1 3.66841 125.816 56.8773
23404 2 5.49164 125.82 58.1542
17531 1 6.39646 127.419 56.8753
17576 1 9.12466 125.816 56.8773
23098 2 8.21968 127.424 58.1522
17273 1 11.8527 127.419 56.8754
23097 2 10.9479 125.82 58.1542
17272 1 14.5809 125.816 56.8773
22798 2 13.6759 127.424 58.1522
16981 1 17.3089 127.419 56.8754
22839 2 16.4041 125.82 58.1542
17014 1 20.0371 125.816 56.8773
22550 2 19.1321 127.424 58.1522
23630 2 0.0351868 129.027 58.1493
17829 1 3.66822 129.022 56.8724
23365 2 5.49143 129.027 58.1493
17529 1 9.12446 129.022 56.8724
23100 2 10.9477 129.027 58.1493
17275 1 14.5807 129.022 56.8724
22796 2 16.4039 129.027 58.1493
16979 1 20.0369 129.022 56.8724
17800 1 0.939941 130.625 56.8685
23366 2 2.76314 130.631 58.1454
23609 2 0.0348088 132.234 58.1405
17798 1 3.66787 132.227 56.8637
23368 2 5.49106 132.234 58.1405
17530 1 6.39618 130.625 56.8685
23055 2 8.21937 130.631 58.1454
17532 1 9.1241 132.227 56.8637
17228 1 11.8524 130.625 56.8685
23053 2 10.9473 132.234 58.1405
22797 2 13.6756 130.631 58.1454
17226 1 14.5803 132.227 56.8637
16980 1 17.3087 130.625 56.8685
22799 2 16.4035 132.234 58.1405
22520 2 19.1319 130.631 58.1454
16982 1 20.0366 132.227 56.8637
17799 1 0.939519 133.83 56.8578
23339 2 2.76271 133.838 58.1346
23610 2 0.0343234 135.441 58.1277
17801 1 3.66736 135.433 56.8509
23337 2 5.49055 135.441 58.1277
17493 1 9.1236 135.433 56.8509
17495 1 6.39575 133.83 56.8578
23054 2 8.21896 133.838 58.1346
17227 1 11.852 133.83 56.8578
23056 2 10.9468 135.441 58.1277
17229 1 14.5798 135.433 56.8509
22754 2 13.6752 133.838 58.1346
16945 1 17.3082 133.83 56.8578
22752 2 16.403 135.441 58.1277
16943 1 20.0361 135.433 56.8509
22519 2 19.1314 133.838 58.1346
17780 1 0.938942 137.036 56.8431
23338 2 2.76209 137.045 58.1198
23597 2 0.0336123 138.649 58.1108
17778 1 3.66671 138.638 56.8342
23340 2 5.48984 138.649 58.1108
17494 1 6.39518 137.036 56.8431
17496 1 9.12294 138.638 56.8342
23019 2 8.21833 137.045 58.1198
17186 1 11.8514 137.036 56.8431
23017 2 10.9461 138.649 58.1109
17184 1 14.5792 138.638 56.8342
22753 2 13.6746 137.045 58.1198
16944 1 17.3077 137.036 56.8431
22755 2 16.4023 138.649 58.1108
16946 1 20.0354 138.638 56.8342
22488 2 19.1308 137.045 58.1198
17779 1 0.93818 140.241 56.8243
23319 2 2.76136 140.252 58.1009
23598 2 0.0328032 141.856 58.0899
17781 1 3.66587 141.844 56.8134
23317 2 5.48904 141.856 58.0899
17465 1 9.1221 141.844 56.8134
17467 1 6.39442 140.241 56.8243
23018 2 8.21759 140.252 58.1009
17185 1 11.8507 140.241 56.8243
23020 2 10.9453 141.856 58.0899
17187 1 14.5783 141.844 56.8134
22714 2 13.6738 140.252 58.1009
16909 1 17.3069 140.241 56.8243
22712 2 16.4015 141.856 58.0899
16907 1 20.0346 141.844 56.8134
22487 2 19.1301 140.252 58.1009
17768 1 0.937259 143.447 56.8015
23318 2 2.76044 143.46 58.0779
23593 2 0.0318059 145.064 58.065
17766 1 3.66486 145.05 56.7886
23320 2 5.48805 145.064 58.0649
17466 1 6.3935 143.447 56.8015
17468 1 9.1211 145.05 56.7886
22991 2 8.21669 143.46 58.0779
17152 1 11.8497 143.447 56.8015
22989 2 10.9443 145.064 58.0649
17150 1 14.5773 145.05 56.7886
22713 2 13.6729 143.46 58.0779
16908 1 17.306 143.447 56.8015
22715 2 16.4005 145.064 58.0649
16910 1 20.0336 145.05 56.7886
22456 2 19.1292 143.46 58.0779
17767 1 0.936183 146.653 56.7747
23307 2 2.75937 146.668 58.0509
17447 1 6.39242 146.653 56.7747
22990 2 8.21562 146.668 58.0509
17151 1 11.8487 146.653 56.7747
22682 2 13.6719 146.668 58.0509
16877 1 17.3049 146.653 56.7747
22455 2 19.1281 146.668 58.0509
23594 2 0.0306996 148.272 58.0359
17761 1 0.934953 149.86 56.744
23306 2 2.75825 149.876 58.0198
17769 1 3.6637 148.257 56.7598
23305 2 5.48695 148.272 58.0358
17445 1 9.11993 148.257 56.7598
17446 1 6.39119 149.86 56.744
22968 2 8.21447 149.876 58.0198
22992 2 10.9432 148.272 58.0359
17123 1 11.8474 149.86 56.744
17153 1 14.5762 148.257 56.7598
22681 2 13.6707 149.876 58.0199
22680 2 16.3994 148.272 58.0359
16876 1 17.3037 149.86 56.744
16875 1 20.0324 148.257 56.7598
22426 2 19.127 149.876 58.0198
17930 1 1.85417 103.361 59.3647
21455 2 0.949158 101.748 60.6284
23512 2 3.67777 103.353 60.6405
15575 1 4.58177 101.756 59.3527
17686 1 7.31041 103.361 59.3647
23213 2 9.13399 103.353 60.6405
21089 2 6.4054 101.748 60.6284
15226 1 10.038 101.756 59.3527
20774 2 11.8616 101.748 60.6284
17365 1 12.7667 103.361 59.3647
22908 2 14.5902 103.353 60.6405
14958 1 15.4942 101.756 59.3527
17059 1 18.2229 103.361 59.3647
20505 2 17.3179 101.748 60.6284
22595 2 20.0465 103.353 60.6405
14752 1 20.9505 101.756 59.3527
17931 1 1.85517 106.57 59.3857
23478 2 0.950117 104.959 60.6516
17654 1 4.5828 104.966 59.3757
23476 2 3.67872 106.564 60.6617
17652 1 7.31141 106.57 59.3857
23214 2 6.40637 104.959 60.6516
23215 2 9.13497 106.564 60.6617
17366 1 10.039 104.966 59.3757
22890 2 11.8626 104.959 60.6516
17049 1 15.4953 104.966 59.3757
17367 1 12.7677 106.57 59.3857
22888 2 14.5912 106.564 60.6617
17047 1 18.2239 106.57 59.3857
22596 2 17.3188 104.959 60.6516
16797 1 20.9515 104.966 59.3757
22597 2 20.0474 106.564 60.6617
23477 2 0.951071 108.17 60.6708
17653 1 4.58376 108.175 59.3947
23182 2 6.40731 108.17 60.6708
17342 1 10.04 108.175 59.3947
22889 2 11.8636 108.17 60.6708
17048 1 15.4962 108.175 59.3947
22588 2 17.3198 108.17 60.6708
16796 1 20.9525 108.175 59.3947
17895 1 1.85607 109.78 59.4028
23439 2 0.951925 111.38 60.6863
23479 2 3.67963 109.775 60.679
17616 1 4.58459 111.384 59.41
17655 1 7.31231 109.78 59.4028
23180 2 9.13587 109.775 60.679
23181 2 6.40815 111.38 60.6863
17341 1 10.0408 111.384 59.41
22866 2 11.8644 111.38 60.6863
17340 1 12.7685 109.78 59.4028
22891 2 14.5921 109.775 60.679
17033 1 15.4971 111.384 59.41
17050 1 18.2248 109.78 59.4028
22587 2 17.3206 111.38 60.6863
22586 2 20.0484 109.775 60.679
16795 1 20.9533 111.384 59.41
17896 1 1.85684 112.989 59.4163
23438 2 0.952563 114.591 60.6981
23437 2 3.68039 112.986 60.6926
17615 1 4.58528 114.593 59.4217
17614 1 7.31308 112.989 59.4163
23183 2 9.13663 112.986 60.6926
23142 2 6.40881 114.591 60.698
17310 1 10.0415 114.593 59.4217
22865 2 11.865 114.591 60.698
17343 1 12.7693 112.989 59.4163
22864 2 14.5929 112.986 60.6926
17032 1 15.4978 114.593 59.4217
17031 1 18.2256 112.989 59.4163
22572 2 17.3213 114.591 60.6981
22589 2 20.0491 112.986 60.6926
16788 1 20.954 114.593 59.4217
17859 1 1.85744 116.198 59.4262
23399 2 0.953045 117.801 60.7062
17571 1 4.58577 117.802 59.4298
23440 2 3.68095 116.196 60.7026
17617 1 7.31368 116.198 59.4262
23140 2 9.13719 116.196 60.7026
23141 2 6.40928 117.801 60.7062
17309 1 10.042 117.802 59.4298
22834 2 11.8655 117.801 60.7062
17009 1 15.4983 117.802 59.4298
17308 1 12.7699 116.198 59.4262
22867 2 14.5934 116.196 60.7026
17034 1 18.2261 116.198 59.4262
22571 2 17.3218 117.801 60.7062
16787 1 20.9545 117.802 59.4298
22570 2 20.0497 116.196 60.7026
17860 1 1.85782 119.406 59.4326
23398 2 0.95332 121.012 60.7107
17570 1 4.58604 121.011 59.4344
23397 2 3.68133 119.407 60.7089
17569 1 7.31405 119.406 59.4326
23095 2 6.40956 121.012 60.7107
23143 2 9.13756 119.407 60.7089
17270 1 10.0423 121.011 59.4344
22833 2 11.8658 121.012 60.7107
17008 1 15.4985 121.011 59.4344
17311 1 12.7703 119.406 59.4326
22832 2 14.5938 119.407 60.7089
17007 1 18.2265 119.406 59.4326
22548 2 17.322 121.012 60.7107
16772 1 20.9548 121.011 59.4344
22573 2 20.05 119.407 60.7089
17824 1 1.85798 122.615 59.4353
23363 2 0.953381 124.222 60.7116
17527 1 4.5861 124.219 59.4352
23400 2 3.6815 122.617 60.7116
17572 1 7.31422 122.615 59.4353
23093 2 9.13774 122.617 60.7116
23094 2 6.40962 124.222 60.7116
17269 1 10.0423 124.219 59.4352
22794 2 11.8659 124.222 60.7116
16977 1 15.4986 124.219 59.4352
17268 1 12.7705 122.615 59.4353
22835 2 14.594 122.617 60.7116
17010 1 18.2267 122.615 59.4353
22547 2 17.3221 124.222 60.7116
16771 1 20.9548 124.219 59.4352
22546 2 20.0502 122.617 60.7116
17825 1 1.85794 125.824 59.4343
23362 2 0.95325 127.433 60.7086
17526 1 4.58597 127.428 59.4323
23361 2 3.68146 125.827 60.7106
17525 1 7.31418 125.824 59.4343
23051 2 6.40949 127.433 60.7086
23096 2 9.1377 125.827 60.7106
17224 1 10.0422 127.428 59.4323
22793 2 11.8657 127.433 60.7086
16976 1 15.4984 127.428 59.4323
17271 1 12.7704 125.824 59.4343
22792 2 14.5939 125.827 60.7106
16975 1 18.2267 125.824 59.4343
22517 2 17.322 127.433 60.7086
16749 1 20.9547 127.428 59.4323
22549 2 20.0502 125.827 60.7106
17796 1 1.85772 129.033 59.4294
23364 2 3.68122 129.038 60.7057
17528 1 7.31396 129.033 59.4294
23049 2 9.13746 129.038 60.7057
17222 1 12.7702 129.033 59.4294
22795 2 14.5937 129.038 60.7057
16978 1 18.2264 129.033 59.4294
22515 2 20.0499 129.038 60.7057
23335 2 0.952924 130.643 60.7017
17797 1 1.85733 132.241 59.4206
17491 1 4.58566 130.637 59.4255
23333 2 3.68081 132.248 60.6968
23050 2 6.40916 130.643 60.7017
17489 1 7.31356 132.241 59.4206
23052 2 9.13705 132.248 60.6968
17223 1 10.0419 130.637 59.4255
22750 2 11.8654 130.643 60.7017
16941 1 15.4981 130.637 59.4255
17225 1 12.7698 132.241 59.4206
22748 2 14.5933 132.248 60.6968
22516 2 17.3216 130.643 60.7017
16939 1 18.226 132.241 59.4206
16748 1 20.9544 130.637 59.4255
22518 2 20.0495 132.248 60.6968
17776 1 1.85677 135.45 59.4077
23334 2 0.952443 133.854 60.6909
17490 1 4.58519 133.846 59.4146
23336 2 3.68029 135.459 60.6839
17492 1 7.31301 135.45 59.4077
23013 2 9.13651 135.459 60.6839
23015 2 6.40869 133.854 60.6909
17182 1 10.0414 133.846 59.4146
22749 2 11.8649 133.854 60.6909
16940 1 15.4977 133.846 59.4146
17180 1 12.7693 135.45 59.4077
22751 2 14.5927 135.459 60.6839
16942 1 18.2255 135.45 59.4077
22485 2 17.3212 133.854 60.6909
16725 1 20.9539 133.846 59.4146
22483 2 20.049 135.459 60.6839
17777 1 1.85611 138.659 59.3908
23315 2 0.951802 137.064 60.6759
17463 1 4.58458 137.055 59.3998
23313 2 3.67956 138.67 60.6668
17461 1 7.31234 138.659 59.3908
23014 2 6.40805 137.064 60.6759
23016 2 9.13581 138.67 60.6668
17181 1 10.0408 137.055 59.3998
22710 2 11.8643 137.064 60.6759
16905 1 15.4971 137.055 59.3998
17183 1 12.7686 138.659 59.3908
22708 2 14.592 138.67 60.6669
16903 1 18.2248 138.659 59.3908
22484 2 17.3205 137.064 60.6759
16724 1 20.9533 137.055 59.3998
22486 2 20.0483 138.67 60.6669
17764 1 1.85528 141.868 59.3697
23314 2 0.951056 140.275 60.6568
17462 1 4.58382 140.264 59.3808
23316 2 3.67874 141.88 60.6456
17464 1 7.31151 141.868 59.3697
22985 2 9.13499 141.88 60.6457
22987 2 6.40729 140.275 60.6568
17148 1 10.0401 140.264 59.3808
22709 2 11.8635 140.275 60.6568
16904 1 15.4963 140.264 59.3808
17146 1 12.7677 141.868 59.3697
22711 2 14.5912 141.88 60.6457
16906 1 18.224 141.868 59.3697
22453 2 17.3198 140.275 60.6568
16701 1 20.9525 140.264 59.3808
22451 2 20.0475 141.88 60.6456
17765 1 1.85432 145.078 59.3444
23303 2 0.950196 143.486 60.6335
17443 1 4.58293 143.473 59.3576
23301 2 3.67783 145.092 60.6202
17441 1 7.31057 145.078 59.3445
22986 2 6.40644 143.486 60.6335
22988 2 9.13405 145.092 60.6203
17147 1 10.0392 143.473 59.3576
22678 2 11.8627 143.486 60.6335
16873 1 15.4954 143.473 59.3576
17149 1 12.7668 145.078 59.3444
22676 2 14.5903 145.092 60.6202
16871 1 18.223 145.078 59.3444
22452 2 17.3189 143.486 60.6335
16700 1 20.9516 143.473 59.3576
22454 2 20.0466 145.092 60.6202
23302 2 0.949165 146.697 60.6059
17442 1 4.58195 146.683 59.3303
22967 2 6.4054 146.697 60.6059
17122 1 10.0382 146.683 59.3303
22677 2 11.8617 146.697 60.6059
16872 1 15.4944 146.683 59.3303
22425 2 17.3179 146.697 60.6059
16677 1 20.9507 146.683 59.3303
17760 1 1.8533 148.288 59.315
23296 2 0.948107 149.909 60.5742
23304 2 3.67676 148.303 60.5906
17428 1 4.58086 149.893 59.2987
17444 1 7.30954 148.288 59.315
22965 2 9.133 148.303 60.5906
22966 2 6.40435 149.909 60.5741
17121 1 10.0371 149.893 59.2987
22651 2 11.8606 149.909 60.5741
17120 1 12.7658 148.288 59.315
22679 2 14.5893 148.303 60.5905
16846 1 15.4933 149.893 59.2988
16874 1 18.222 148.288 59.315
22424 2 17.3168 149.909 60.5741
22423 2 20.0455 148.303 60.5905
16676 1 20.9496 149.893 59.2988
17929 1 0.0443886 103.345 61.9198
15561 1 2.77199 101.739 61.9076
23474 2 1.86822 103.338 63.1949
15559 1 0.96265 101.722 64.4621
17649 1 5.50063 103.345 61.9198
21087 2 4.59583 101.73 63.1827
17648 1 3.6913 103.33 64.4744
15224 1 8.22823 101.739 61.9076
23212 2 7.32444 103.338 63.1949
17333 1 9.14754 103.33 64.4744
15204 1 6.41889 101.722 64.4621
17364 1 10.9569 103.345 61.9198
20748 2 10.0521 101.73 63.1827
14930 1 11.8751 101.722 64.4621
14932 1 13.6845 101.739 61.9076
22885 2 12.7807 103.338 63.1949
20503 2 15.5083 101.73 63.1827
17043 1 14.6038 103.33 64.4744
17044 1 16.4131 103.345 61.9198
22594 2 18.2369 103.338 63.1949
14729 1 17.3314 101.722 64.4621
14750 1 19.1407 101.739 61.9077
20331 2 20.9645 101.73 63.1827
16790 1 20.06 103.33 64.4744
17650 1 2.77301 104.952 61.9309
17893 1 0.0453833 106.558 61.9411
23475 2 1.86922 106.552 63.2163
17608 1 0.963688 104.938 64.4856
17651 1 5.50161 106.558 61.9411
23178 2 4.59683 104.945 63.2061
17606 1 3.69229 106.546 64.4959
17338 1 8.22925 104.952 61.9309
23176 2 7.32546 106.552 63.2164
17334 1 6.41993 104.938 64.4857
17335 1 9.14852 106.546 64.4959
17336 1 10.9578 106.558 61.9411
22886 2 10.0531 104.945 63.2061
17025 1 11.8762 104.938 64.4857
17045 1 13.6855 104.952 61.9309
22584 2 15.5093 104.945 63.2061
22887 2 12.7817 106.552 63.2164
17023 1 14.6048 106.546 64.4959
17046 1 16.4141 106.558 61.9411
22582 2 18.2379 106.552 63.2163
16791 1 17.3324 104.938 64.4857
16794 1 19.1417 104.952 61.9309
22362 2 20.9656 104.945 63.2061
16792 1 20.061 106.546 64.4959
17612 1 2.77395 108.164 61.9502
17607 1 0.964616 108.154 64.5052
23177 2 4.59779 108.159 63.2256
17337 1 8.23019 108.164 61.9502
17302 1 6.42086 108.154 64.5052
22862 2 10.054 108.159 63.2256
17024 1 11.8771 108.154 64.5052
17029 1 13.6864 108.164 61.9502
22583 2 15.5103 108.159 63.2256
16783 1 17.3333 108.154 64.5052
16793 1 19.1427 108.164 61.9502
22361 2 20.9665 108.159 63.2256
17894 1 0.0462469 109.771 61.9585
23435 2 1.87009 109.766 63.2339
17611 1 2.77476 111.377 61.9658
17610 1 5.50249 109.771 61.9585
23138 2 4.59859 111.373 63.2413
23179 2 7.32634 109.766 63.2339
17306 1 8.231 111.377 61.9658
17339 1 10.9587 109.771 61.9585
22861 2 10.0548 111.373 63.2412
22860 2 12.7826 109.766 63.2339
17028 1 13.6872 111.377 61.9658
22568 2 15.5111 111.373 63.2412
17027 1 16.415 109.771 61.9585
22585 2 18.2388 109.766 63.2339
16786 1 19.1435 111.377 61.9658
22360 2 20.9673 111.373 63.2413
17857 1 0.0469919 112.983 61.9722
23436 2 1.87081 112.98 63.2477
17567 1 2.77543 114.589 61.9777
17613 1 5.50323 112.983 61.9722
23137 2 4.59923 114.587 63.2532
23136 2 7.32705 112.98 63.2477
17305 1 8.23166 114.589 61.9777
17304 1 10.9595 112.983 61.9722
22830 2 10.0555 114.587 63.2532
22863 2 12.7833 112.98 63.2477
17005 1 13.6879 114.589 61.9777
22567 2 15.5117 114.587 63.2532
17030 1 16.4157 112.983 61.9722
22566 2 18.2395 112.98 63.2477
16785 1 19.1441 114.589 61.9777
22353 2 20.968 114.587 63.2532
17566 1 2.7759 117.801 61.9859
17858 1 0.0475707 116.195 61.9822
23395 2 1.87137 116.194 63.2578
17565 1 5.50381 116.195 61.9822
23091 2 4.5997 117.801 63.2615
17266 1 8.23214 117.801 61.9859
23139 2 7.32761 116.194 63.2578
17307 1 10.96 116.195 61.9822
22829 2 10.0559 117.801 63.2615
17004 1 13.6884 117.801 61.9859
22544 2 15.5122 117.801 63.2615
22828 2 12.7838 116.194 63.2578
17003 1 16.4163 116.195 61.9822
22569 2 18.2401 116.194 63.2578
16770 1 19.1446 117.801 61.9859
22352 2 20.9684 117.801 63.2615
17523 1 2.77616 121.013 61.9904
17822 1 0.0479405 119.407 61.9886
23396 2 1.87174 119.407 63.2642
17568 1 5.50418 119.407 61.9886
23090 2 4.59996 121.014 63.266
17265 1 8.2324 121.013 61.9904
23089 2 7.32798 119.407 63.2642
17264 1 10.9604 119.407 61.9886
22790 2 10.0562 121.014 63.266
16973 1 13.6886 121.013 61.9904
22543 2 15.5124 121.014 63.266
22831 2 12.7842 119.407 63.2642
17006 1 16.4167 119.407 61.9886
22542 2 18.2404 119.407 63.2642
16769 1 19.1449 121.013 61.9904
22337 2 20.9687 121.014 63.266
17522 1 2.77621 124.225 61.9913
17823 1 0.0480948 122.619 61.9914
23359 2 1.8719 122.621 63.2669
17521 1 5.50433 122.619 61.9914
23047 2 4.60002 124.228 63.2669
17220 1 8.23245 124.225 61.9913
23092 2 7.32814 122.621 63.2669
17267 1 10.9606 122.619 61.9914
22789 2 10.0563 124.228 63.2669
16972 1 13.6887 124.225 61.9913
22513 2 15.5125 124.228 63.2669
22788 2 12.7844 122.621 63.2669
16971 1 16.4168 122.619 61.9914
22545 2 18.2406 122.621 63.2669
16747 1 19.1449 124.225 61.9913
22336 2 20.9687 124.228 63.2669
17487 1 2.77605 127.437 61.9884
17794 1 0.0480335 125.831 61.9904
23360 2 1.87185 125.835 63.2659
17524 1 5.50427 125.831 61.9904
23046 2 4.59987 127.442 63.2639
17219 1 8.23229 127.437 61.9884
23045 2 7.32809 125.835 63.2659
17218 1 10.9605 125.831 61.9903
22746 2 10.0561 127.442 63.2639
16937 1 13.6885 127.437 61.9884
22512 2 15.5123 127.442 63.2639
22791 2 12.7843 125.835 63.2659
16974 1 16.4168 125.831 61.9903
22511 2 18.2406 125.835 63.2659
16746 1 19.1448 127.437 61.9884
22317 2 20.9686 127.442 63.2639
17795 1 0.0477823 129.043 61.9855
23331 2 1.87159 129.049 63.261
17485 1 5.50402 129.043 61.9855
23048 2 7.32782 129.049 63.2609
17221 1 10.9603 129.043 61.9855
22744 2 12.7841 129.049 63.2609
16935 1 16.4165 129.043 61.9855
22514 2 18.2403 129.049 63.261
17486 1 2.77571 130.65 61.9815
17774 1 0.0473574 132.256 61.9766
23332 2 1.87114 132.262 63.252
23011 2 4.5995 130.655 63.257
17488 1 5.50359 132.256 61.9766
17178 1 8.23195 130.65 61.9815
23009 2 7.32738 132.262 63.252
22745 2 10.0557 130.655 63.257
17176 1 10.9598 132.256 61.9766
22481 2 15.512 130.655 63.257
16936 1 13.6882 130.65 61.9815
22747 2 12.7836 132.262 63.252
16938 1 16.4161 132.256 61.9766
22479 2 18.2398 132.262 63.252
22316 2 20.9682 130.655 63.257
16723 1 19.1444 130.65 61.9815
17459 1 2.77519 133.862 61.9706
17775 1 0.0467538 135.468 61.9636
23311 2 1.87058 135.476 63.239
17457 1 5.50299 135.468 61.9636
23010 2 4.59899 133.869 63.246
17177 1 8.23143 133.862 61.9706
23012 2 7.32682 135.476 63.239
17179 1 10.9592 135.468 61.9636
22706 2 10.0552 133.869 63.246
16901 1 13.6877 133.862 61.9706
22480 2 15.5115 133.869 63.246
22704 2 12.783 135.476 63.239
16899 1 16.4155 135.468 61.9636
22482 2 18.2393 135.476 63.239
16722 1 19.1439 133.862 61.9706
22297 2 20.9677 133.869 63.246
17458 1 2.77453 137.074 61.9556
17762 1 0.0460455 138.68 61.9466
23312 2 1.86984 138.69 63.2218
17460 1 5.50229 138.68 61.9466
22983 2 4.59835 137.083 63.2309
17144 1 8.23077 137.074 61.9556
22981 2 7.32607 138.69 63.2218
17142 1 10.9585 138.68 61.9466
22705 2 10.0546 137.083 63.231
16900 1 13.687 137.074 61.9556
22449 2 15.5108 137.083 63.2309
22707 2 12.7823 138.69 63.2218
16902 1 16.4148 138.68 61.9466
22447 2 18.2386 138.69 63.2218
16699 1 19.1433 137.074 61.9556
22296 2 20.9671 137.083 63.2309
17439 1 2.77377 140.287 61.9364
17763 1 0.0452343 141.893 61.9252
23299 2 1.86898 141.905 63.2004
17434 1 0.964241 140.309 64.4915
17437 1 5.50147 141.893 61.9252
22982 2 4.59754 140.298 63.2116
17436 1 3.69194 141.917 64.4802
17143 1 8.23001 140.287 61.9364
22984 2 7.32523 141.905 63.2004
17112 1 9.14817 141.917 64.4802
17114 1 6.42048 140.309 64.4915
17145 1 10.9577 141.893 61.9252
22674 2 10.0538 140.298 63.2116
16864 1 11.8767 140.309 64.4915
16869 1 13.6862 140.287 61.9364
22448 2 15.51 140.298 63.2116
22672 2 12.7815 141.905 63.2004
16866 1 14.6044 141.917 64.4802
16867 1 16.4139 141.893 61.9252
22450 2 18.2377 141.905 63.2004
16672 1 17.333 140.309 64.4915
16698 1 19.1425 140.287 61.9364
22277 2 20.9663 140.298 63.2116
16670 1 20.0606 141.917 64.4802
17438 1 2.7729 143.499 61.9129
17758 1 0.0443167 145.106 61.8995
23300 2 1.8681 145.119 63.1746
17423 1 0.963357 143.525 64.4677
17440 1 5.50056 145.106 61.8995
22963 2 4.59668 143.512 63.188
17421 1 3.69101 145.134 64.4542
17118 1 8.22914 143.499 61.9129
22961 2 7.32434 145.119 63.1746
17113 1 6.4196 143.525 64.4677
17115 1 9.14725 145.134 64.4542
17116 1 10.9568 145.106 61.8995
22673 2 10.0529 143.512 63.188
16841 1 11.8758 143.525 64.4677
16868 1 13.6854 143.499 61.9129
22421 2 15.5092 143.512 63.188
22675 2 12.7806 145.119 63.1746
16839 1 14.6035 145.134 64.4542
16870 1 16.413 145.106 61.8995
22419 2 18.2368 145.119 63.1746
16671 1 17.3321 143.525 64.4677
16675 1 19.1416 143.499 61.9129
22276 2 20.9654 143.512 63.188
16673 1 20.0597 145.134 64.4542
17427 1 2.77197 146.712 61.8851
17422 1 0.962408 146.742 64.4395
22962 2 4.5957 146.727 63.16
17117 1 8.22821 146.712 61.8851
17096 1 6.41865 146.742 64.4395
22650 2 10.0519 146.727 63.16
16840 1 11.8749 146.742 64.4395
16845 1 13.6844 146.712 61.8851
22420 2 15.5082 146.727 63.16
16652 1 17.3311 146.742 64.4395
16674 1 19.1407 146.712 61.8851
22257 2 20.9644 146.727 63.16
17759 1 0.0433625 148.319 61.8695
23295 2 1.86707 148.334 63.1444
17426 1 2.77097 149.926 61.8529
17416 1 0.96141 149.958 64.4067
17425 1 5.49959 148.319 61.8695
22948 2 4.59465 149.942 63.1276
17424 1 3.69003 148.35 64.4237
22964 2 7.32332 148.334 63.1444
17097 1 8.2272 149.926 61.8529
17095 1 6.41765 149.958 64.4067
17094 1 9.14627 148.35 64.4237
17119 1 10.9558 148.319 61.8695
22649 2 10.0509 149.942 63.1276
16822 1 11.8739 149.958 64.4067
22648 2 12.7795 148.334 63.1444
16844 1 13.6834 149.926 61.8529
22398 2 15.5071 149.942 63.1276
16842 1 14.6025 148.35 64.4237
16843 1 16.4121 148.319 61.8695
22422 2 18.2358 148.334 63.1444
16651 1 17.3301 149.958 64.4067
16653 1 19.1397 149.926 61.8529
22256 2 20.9634 149.942 63.1276
16650 1 20.0587 148.35 64.4237
23473 2 0.0591256 103.322 65.7481
21073 2 2.7867 101.713 65.7358
17604 1 1.88223 103.314 67.0295
23173 2 5.51536 103.322 65.7481
15202 1 4.60979 101.705 67.0171
20746 2 8.24296 101.713 65.7358
17332 1 7.33847 103.314 67.0295
22884 2 10.9716 103.322 65.7481
14912 1 10.066 101.705 67.0171
20481 2 13.6992 101.713 65.7358
17020 1 12.7947 103.314 67.0295
14727 1 15.5223 101.705 67.0171
22579 2 16.4278 103.322 65.7481
16789 1 18.2509 103.314 67.0295
20329 2 19.1554 101.713 65.7358
14623 1 20.9785 101.705 67.0171
23174 2 2.78778 104.931 65.7595
23433 2 0.0601651 106.539 65.7698
17605 1 1.88325 106.534 67.0512
23175 2 5.51641 106.539 65.7698
17298 1 4.61088 104.924 67.0409
22858 2 8.24402 104.931 65.7594
17296 1 7.33949 106.534 67.0512
22856 2 10.9727 106.539 65.7698
17021 1 10.0671 104.924 67.0409
22580 2 13.7003 104.931 65.7595
16779 1 15.5234 104.924 67.0409
17022 1 12.7957 106.534 67.0512
22581 2 16.4289 106.539 65.7698
16777 1 18.252 106.534 67.0512
22359 2 19.1565 104.931 65.7595
16617 1 20.9796 104.924 67.0409
23134 2 2.78876 108.148 65.7792
17297 1 4.61183 108.143 67.0606
22857 2 8.24499 108.148 65.7791
16997 1 10.0681 108.143 67.0606
22564 2 13.7012 108.148 65.7791
16778 1 15.5243 108.143 67.0606
22358 2 19.1575 108.148 65.7791
16616 1 20.9805 108.143 67.0606
17563 1 0.965426 111.369 64.521
23434 2 0.0610496 109.757 65.7875
17559 1 1.88414 109.753 67.0691
23133 2 2.78954 111.365 65.795
17609 1 3.69316 109.762 64.5136
23132 2 5.51729 109.757 65.7875
17258 1 4.61266 111.362 67.0765
17300 1 9.1494 109.762 64.5136
17301 1 6.42166 111.369 64.521
17299 1 7.34038 109.753 67.0691
22826 2 8.24578 111.365 65.795
17001 1 11.8779 111.369 64.521
22859 2 10.9735 109.757 65.7875
16996 1 10.0689 111.362 67.0765
17026 1 14.6056 109.762 64.5136
16995 1 12.7966 109.753 67.0691
22563 2 13.702 111.365 65.795
16763 1 15.5251 111.362 67.0765
16782 1 17.3341 111.369 64.521
22562 2 16.4298 109.757 65.7875
16780 1 18.2529 109.753 67.0691
16781 1 20.0619 109.762 64.5136
22351 2 19.1583 111.365 65.7949
16615 1 20.9814 111.362 67.0765
17562 1 0.966089 114.585 64.533
23393 2 0.0617596 112.974 65.8015
17560 1 1.88489 112.972 67.0831
23087 2 2.79017 114.583 65.8071
17561 1 3.69389 112.977 64.5275
23135 2 5.518 112.974 65.8015
17257 1 4.61331 114.581 67.0887
17303 1 9.15012 112.977 64.5275
17262 1 6.42233 114.585 64.533
17256 1 7.34113 112.972 67.0831
22825 2 8.24641 114.583 65.8071
17000 1 11.8786 114.585 64.533
22824 2 10.9742 112.974 65.8015
16965 1 10.0695 114.581 67.0887
16999 1 14.6064 112.977 64.5275
16998 1 12.7974 112.972 67.0831
22540 2 13.7026 114.583 65.8071
16762 1 15.5258 114.581 67.0887
16767 1 17.3348 114.585 64.533
22565 2 16.4305 112.974 65.8015
16761 1 18.2536 112.972 67.0831
16784 1 20.0626 112.977 64.5275
22350 2 19.1589 114.583 65.8071
16608 1 20.982 114.581 67.0887
17519 1 0.966538 117.8 64.5413
23086 2 2.79064 117.8 65.8154
23394 2 0.0623038 116.191 65.8117
17515 1 1.88544 116.191 67.0933
17564 1 3.69446 116.193 64.5376
23085 2 5.51854 116.191 65.8117
17212 1 4.61376 117.8 67.0971
17260 1 9.1507 116.193 64.5376
17261 1 6.42278 117.8 64.5413
22786 2 8.24687 117.8 65.8154
17259 1 7.34168 116.191 67.0933
16969 1 11.879 117.8 64.5413
22827 2 10.9748 116.191 65.8117
16964 1 10.07 117.8 67.0971
17002 1 14.6069 116.193 64.5376
22539 2 13.7031 117.8 65.8154
16740 1 15.5262 117.8 67.0971
16963 1 12.7979 116.191 67.0933
16766 1 17.3353 117.8 64.5413
22538 2 16.431 116.191 65.8117
16764 1 18.2542 116.191 67.0933
16765 1 20.0632 116.193 64.5376
22335 2 19.1593 117.8 65.8154
16607 1 20.9825 117.8 67.0971
17518 1 0.966798 121.016 64.5459
23043 2 2.79089 121.017 65.82
23357 2 0.0626677 119.408 65.8182
17516 1 1.88579 119.41 67.0999
17517 1 3.69482 119.408 64.5441
23088 2 5.51891 119.408 65.8182
17211 1 4.614 121.019 67.1018
17216 1 6.42303 121.016 64.5459
17263 1 9.15106 119.408 64.5441
22785 2 8.24713 121.017 65.8201
17210 1 7.34202 119.41 67.0999
16968 1 11.8793 121.016 64.5459
22784 2 10.9752 119.408 65.8182
16929 1 10.0702 121.019 67.1018
16967 1 14.6073 119.408 64.5441
22509 2 13.7034 121.017 65.82
16739 1 15.5265 121.019 67.1018
16966 1 12.7983 119.41 67.0999
16744 1 17.3355 121.016 64.5459
22541 2 16.4314 119.408 65.8182
16738 1 18.2545 119.41 67.0999
16768 1 20.0635 119.408 64.5441
22334 2 19.1596 121.017 65.82
16596 1 20.9827 121.019 67.1018
17483 1 0.96683 124.231 64.5468
23042 2 2.79094 124.234 65.8209
23358 2 0.0628203 122.625 65.821
17479 1 1.88591 122.628 67.1027
17520 1 3.69496 122.623 64.5469
23041 2 5.51906 122.625 65.821
17170 1 4.61401 124.238 67.1027
17214 1 9.1512 122.623 64.5469
17215 1 6.42307 124.231 64.5468
22742 2 8.24718 124.234 65.8209
17213 1 7.34215 122.628 67.1027
16933 1 11.8793 124.231 64.5468
22787 2 10.9753 122.625 65.821
16928 1 10.0703 124.238 67.1027
16970 1 14.6074 122.623 64.5469
22508 2 13.7034 124.234 65.8209
16716 1 15.5265 124.238 67.1027
16927 1 12.7984 122.628 67.1027
16743 1 17.3355 124.231 64.5468
22507 2 16.4315 122.625 65.821
16741 1 18.2546 122.628 67.1027
16742 1 20.0637 122.623 64.5469
22315 2 19.1597 124.234 65.8209
16595 1 20.9827 124.238 67.1027
17482 1 0.966646 127.447 64.5439
23007 2 2.79077 127.451 65.8179
23329 2 0.0627686 125.842 65.8199
17480 1 1.88582 125.847 67.1017
17481 1 3.69488 125.839 64.5459
23044 2 5.51901 125.842 65.8199
17169 1 4.61382 127.456 67.0997
17174 1 6.42289 127.447 64.5439
17217 1 9.15112 125.839 64.5459
22741 2 8.24701 127.451 65.8179
17168 1 7.34206 125.847 67.1017
16932 1 11.8791 127.447 64.5439
22740 2 10.9752 125.842 65.8199
16893 1 10.0701 127.456 67.0997
16931 1 14.6074 125.839 64.5459
22477 2 13.7033 127.451 65.8179
16715 1 15.5263 127.456 67.0997
16930 1 12.7983 125.847 67.1017
16720 1 17.3354 127.447 64.5439
22510 2 16.4315 125.842 65.8199
16714 1 18.2545 125.847 67.1017
16745 1 20.0636 125.839 64.5458
22314 2 19.1595 127.451 65.8179
16584 1 20.9825 127.456 67.0997
23330 2 0.0624918 129.059 65.8149
17451 1 1.88552 129.066 67.0968
17484 1 3.6946 129.054 64.5409
23005 2 5.51873 129.059 65.8149
17172 1 9.15084 129.054 64.5409
17171 1 7.34176 129.066 67.0968
22743 2 10.975 129.059 65.8149
16934 1 14.6071 129.054 64.5409
16891 1 12.798 129.066 67.0968
22475 2 16.4312 129.059 65.8149
16717 1 18.2542 129.066 67.0968
16718 1 20.0633 129.054 64.5409
17455 1 0.966272 130.662 64.537
23006 2 2.79039 130.668 65.811
23309 2 0.0620011 132.276 65.806
17452 1 1.88504 132.285 67.0878
17136 1 4.61342 130.675 67.0928
17453 1 3.69414 132.27 64.532
23008 2 5.51824 132.276 65.806
17173 1 6.42251 130.662 64.537
22702 2 8.24662 130.668 65.811
17175 1 9.15038 132.27 64.532
17134 1 7.34128 132.285 67.0878
16897 1 11.8788 130.662 64.537
16892 1 10.0697 130.675 67.0928
22700 2 10.9745 132.276 65.8059
22476 2 13.7029 130.668 65.8109
16692 1 15.5259 130.675 67.0928
16895 1 14.6066 132.27 64.532
16894 1 12.7975 132.285 67.0878
16719 1 17.335 130.662 64.537
22478 2 16.4307 132.276 65.8059
16690 1 18.2538 132.285 67.0878
22295 2 19.1591 130.668 65.8109
16583 1 20.9821 130.675 67.0928
16721 1 20.0629 132.27 64.532
17454 1 0.965717 133.878 64.526
22979 2 2.78985 133.885 65.7999
23310 2 0.0614183 135.494 65.7928
17431 1 1.88438 135.504 67.0746
17456 1 3.6935 135.486 64.5189
22977 2 5.51766 135.494 65.7928
17135 1 4.61285 133.894 67.0817
17138 1 9.14974 135.486 64.5189
17140 1 6.42195 133.878 64.526
22701 2 8.24609 133.885 65.7999
17137 1 7.34062 135.504 67.0746
16896 1 11.8782 133.878 64.526
22703 2 10.9739 135.494 65.7928
16861 1 10.0691 133.894 67.0817
16898 1 14.606 135.486 64.519
22445 2 13.7023 133.885 65.7999
16691 1 15.5253 133.894 67.0817
16859 1 12.7969 135.504 67.0746
16696 1 17.3344 133.878 64.526
22443 2 16.4301 135.494 65.7928
16693 1 18.2531 135.504 67.0746
16694 1 20.0622 135.486 64.519
22294 2 19.1586 133.885 65.7999
16572 1 20.9816 133.894 67.0817
17435 1 0.965023 137.093 64.5109
22978 2 2.78919 137.102 65.7847
23297 2 0.0606871 138.711 65.7755
17432 1 1.8836 138.723 67.0572
17433 1 3.69276 138.701 64.5017
22980 2 5.51691 138.711 65.7755
17110 1 4.61212 137.114 67.0665
17139 1 6.42126 137.093 64.5109
17141 1 9.14899 138.701 64.5017
22670 2 8.24544 137.102 65.7847
17108 1 7.33984 138.723 67.0572
16865 1 11.8775 137.093 64.5109
22668 2 10.9731 138.711 65.7755
16860 1 10.0684 137.114 67.0665
16863 1 14.6052 138.701 64.5017
22444 2 13.7017 137.102 65.7847
16668 1 15.5246 137.114 67.0665
16862 1 12.7961 138.723 67.0573
16695 1 17.3337 137.093 64.5109
22446 2 16.4294 138.711 65.7755
16666 1 18.2523 138.723 67.0573
16697 1 20.0615 138.701 64.5017
22275 2 19.1579 137.102 65.7847
16571 1 20.9808 137.114 67.0665
22959 2 2.78834 140.32 65.7652
23298 2 0.059746 141.929 65.7539
17419 1 1.88273 141.943 67.0355
22957 2 5.51599 141.929 65.7539
17109 1 4.6113 140.333 67.0469
22669 2 8.24457 140.32 65.7652
17111 1 7.33897 141.943 67.0355
22671 2 10.9722 141.929 65.7539
16837 1 10.0675 140.333 67.0469
22417 2 13.7008 140.32 65.7652
16667 1 15.5238 140.333 67.0469
16835 1 12.7952 141.943 67.0355
22415 2 16.4285 141.929 65.7539
16669 1 18.2514 141.943 67.0355
22274 2 19.1571 140.32 65.7652
16560 1 20.98 140.333 67.0469
22958 2 2.78743 143.538 65.7414
23293 2 0.0588216 145.147 65.7278
17420 1 1.88173 145.162 67.0093
22960 2 5.51507 145.147 65.7278
17092 1 4.61037 143.552 67.023
22646 2 8.24366 143.538 65.7414
17090 1 7.33798 145.162 67.0093
22644 2 10.9713 145.147 65.7278
16836 1 10.0666 143.552 67.023
22416 2 13.6999 143.538 65.7414
16648 1 15.5228 143.552 67.023
16838 1 12.7942 145.162 67.0093
22418 2 16.4275 145.147 65.7278
16646 1 18.2504 145.162 67.0093
22255 2 19.1561 143.538 65.7414
16559 1 20.9791 143.552 67.023
22947 2 2.78644 146.756 65.713
17091 1 4.60932 146.772 66.9944
22645 2 8.24268 146.756 65.713
16821 1 10.0656 146.772 66.9944
22397 2 13.6989 146.756 65.713
16647 1 15.5218 146.772 66.9944
22254 2 19.1552 146.756 65.713
16548 1 20.978 146.772 66.9944
23294 2 0.0577869 148.365 65.6971
17415 1 1.88065 148.382 66.9784
22946 2 2.78531 149.974 65.6802
22945 2 5.51402 148.365 65.6971
17079 1 4.60821 149.992 66.9613
17093 1 7.33689 148.382 66.9784
22627 2 8.24154 149.974 65.6801
22647 2 10.9703 148.365 65.6971
16820 1 10.0644 149.992 66.9613
16819 1 12.7931 148.382 66.9784
22396 2 13.6978 149.974 65.6801
16633 1 15.5207 149.992 66.9613
22395 2 16.4265 148.365 65.6971
16649 1 18.2494 148.382 66.9784
22237 2 19.154 149.974 65.6802
16547 1 20.9769 149.992 66.9613
17603 1 0.0726757 103.3 69.5885
15190 1 2.80019 101.689 69.5761
21071 2 0.977902 101.696 68.2869
17293 1 5.52891 103.3 69.5885
23172 2 3.70662 103.306 68.2994
22853 2 9.16287 103.306 68.2994
14910 1 8.25643 101.689 69.5761
20728 2 6.43416 101.696 68.2869
17019 1 10.9851 103.3 69.5885
20479 2 11.8904 101.696 68.2869
22578 2 14.6191 103.306 68.2994
14713 1 13.7127 101.689 69.5761
16774 1 16.4414 103.3 69.5885
20312 2 17.3466 101.696 68.2869
22355 2 20.0753 103.306 68.2994
14621 1 19.1689 101.689 69.5761
17294 1 2.80135 104.911 69.6
17557 1 0.0737571 106.522 69.6104
23130 2 0.97909 104.917 68.3108
17295 1 5.53 106.522 69.6104
23128 2 3.70774 106.527 68.3212
16993 1 8.25759 104.911 69.6
22854 2 6.43531 104.917 68.3108
22855 2 9.16397 106.527 68.3212
16991 1 10.9862 106.522 69.6104
22560 2 11.8916 104.917 68.3108
16775 1 13.7138 104.911 69.6
22558 2 14.6202 106.527 68.3212
16776 1 16.4425 106.522 69.6104
22356 2 17.3478 104.917 68.3108
16614 1 19.1701 104.911 69.6
22357 2 20.0765 106.527 68.3212
17254 1 2.80237 108.133 69.6199
23129 2 0.980098 108.137 68.3306
16992 1 8.2586 108.133 69.6199
22822 2 6.43634 108.137 68.3306
22559 2 11.8926 108.138 68.3306
16759 1 13.7148 108.133 69.6199
22348 2 17.3488 108.137 68.3306
16613 1 19.1711 108.133 69.6199
17558 1 0.074698 109.745 69.6284
17253 1 2.80322 111.356 69.6359
23083 2 0.980887 111.358 68.3466
17252 1 5.53094 109.745 69.6284
23131 2 3.70863 109.748 68.3391
22820 2 9.16487 109.748 68.3391
16961 1 8.25946 111.356 69.6359
22821 2 6.43713 111.358 68.3466
16994 1 10.9872 109.745 69.6284
22536 2 11.8934 111.358 68.3466
22561 2 14.6211 109.748 68.3391
16758 1 13.7157 111.356 69.6359
16757 1 16.4434 109.745 69.6284
22347 2 17.3496 111.358 68.3466
22346 2 20.0773 109.748 68.3391
16606 1 19.1719 111.356 69.6359
17513 1 0.0754572 112.967 69.6425
17208 1 2.80386 114.578 69.6481
23082 2 0.981547 114.578 68.3588
17255 1 5.5317 112.967 69.6425
23081 2 3.70935 112.968 68.3532
22823 2 9.1656 112.968 68.3532
16960 1 8.2601 114.578 69.6481
22782 2 6.43778 114.578 68.3588
16959 1 10.9879 112.967 69.6425
22535 2 11.894 114.578 68.3588
22534 2 14.6218 112.968 68.3532
16736 1 13.7163 114.578 69.6481
16760 1 16.4442 112.967 69.6425
22332 2 17.3503 114.578 68.3588
22349 2 20.0781 112.968 68.3532
16605 1 19.1726 114.578 69.6481
17207 1 2.80432 117.799 69.6566
17514 1 0.0759906 116.188 69.6528
23039 2 0.981992 117.798 68.3672
17206 1 5.53223 116.189 69.6528
23084 2 3.70992 116.188 68.3635
16925 1 8.26056 117.799 69.6567
22780 2 9.16616 116.188 68.3635
22781 2 6.43823 117.799 68.3672
16962 1 10.9885 116.189 69.6528
22505 2 11.8945 117.798 68.3672
16735 1 13.7168 117.799 69.6567
22537 2 14.6224 116.188 68.3635
16734 1 16.4447 116.188 69.6528
22331 2 17.3507 117.798 68.3672
16594 1 19.173 117.799 69.6567
22330 2 20.0786 116.188 68.3635
17166 1 2.80455 121.021 69.6614
17477 1 0.0763384 119.41 69.6595
23038 2 0.982223 121.019 68.3719
17209 1 5.53258 119.41 69.6595
23037 2 3.71025 119.409 68.3701
16924 1 8.26079 121.021 69.6614
22738 2 6.43846 121.019 68.3719
22783 2 9.16648 119.409 68.3701
16923 1 10.9888 119.41 69.6595
22504 2 11.8947 121.019 68.3719
16712 1 13.717 121.021 69.6614
22503 2 14.6227 119.409 68.3701
16737 1 16.4451 119.41 69.6595
22312 2 17.3509 121.019 68.3719
16593 1 19.1733 121.021 69.6614
22333 2 20.079 119.409 68.37
17165 1 2.80456 124.243 69.6624
17478 1 0.0764584 122.632 69.6624
23003 2 0.982262 124.239 68.3728
17164 1 5.5327 122.632 69.6624
23040 2 3.71039 122.629 68.3729
16889 1 8.2608 124.243 69.6624
22736 2 9.16663 122.629 68.3729
22737 2 6.4385 124.239 68.3728
16926 1 10.9889 122.632 69.6624
22473 2 11.8947 124.239 68.3728
16711 1 13.717 124.243 69.6624
22506 2 14.6229 122.629 68.3729
16710 1 16.4452 122.632 69.6624
22311 2 17.351 124.239 68.3728
16582 1 19.1733 124.243 69.6624
22310 2 20.0791 122.629 68.3729
17132 1 2.80437 127.465 69.6594
17449 1 0.0763689 125.854 69.6614
23002 2 0.9821 127.459 68.3698
17167 1 5.53261 125.854 69.6614
23001 2 3.71033 125.849 68.3718
16888 1 8.26061 127.465 69.6594
22698 2 6.43834 127.459 68.3698
22739 2 9.16657 125.849 68.3718
16887 1 10.9888 125.854 69.6614
22472 2 11.8946 127.459 68.3698
16688 1 13.7168 127.465 69.6594
22471 2 14.6228 125.849 68.3718
16713 1 16.4451 125.854 69.6614
22292 2 17.3508 127.459 68.3698
16581 1 19.1731 127.465 69.6594
22313 2 20.079 125.849 68.3718
17450 1 0.0760848 129.076 69.6564
17130 1 5.53232 129.076 69.6564
23004 2 3.71005 129.069 68.3668
22696 2 9.16629 129.069 68.3668
16890 1 10.9886 129.076 69.6564
22474 2 14.6225 129.069 68.3668
16686 1 16.4448 129.076 69.6564
22290 2 20.0788 129.069 68.3668
17131 1 2.80399 130.688 69.6523
22975 2 0.981716 130.68 68.3628
17429 1 0.0756118 132.299 69.6473
17133 1 5.53185 132.299 69.6473
22973 2 3.70957 132.29 68.3577
16857 1 8.26023 130.688 69.6523
22697 2 6.43796 130.68 68.3628
22699 2 9.1658 132.29 68.3578
22441 2 11.8942 130.68 68.3628
16855 1 10.9881 132.299 69.6473
16687 1 13.7165 130.688 69.6523
22439 2 14.622 132.29 68.3577
22291 2 17.3504 130.68 68.3628
16689 1 16.4443 132.299 69.6473
16570 1 19.1727 130.688 69.6523
22293 2 20.0783 132.29 68.3577
17106 1 2.80342 133.91 69.6412
17430 1 0.0749436 135.521 69.6341
22974 2 0.981152 133.9 68.3517
17104 1 5.53118 135.521 69.6341
22976 2 3.70895 135.511 68.3445
16856 1 8.25966 133.91 69.6412
22664 2 9.16519 135.511 68.3445
22666 2 6.43739 133.9 68.3517
16858 1 10.9874 135.521 69.6341
22440 2 11.8936 133.9 68.3517
16664 1 13.7159 133.91 69.6412
22442 2 14.6214 135.511 68.3445
16662 1 16.4437 135.521 69.6341
22272 2 17.3499 133.9 68.3516
16569 1 19.1721 133.91 69.6412
22270 2 20.0777 135.511 68.3445
17105 1 2.80266 137.133 69.6258
17417 1 0.0741077 138.744 69.6165
22955 2 0.980475 137.121 68.3363
17107 1 5.53034 138.744 69.6165
22953 2 3.70819 138.732 68.3271
16833 1 8.2589 137.133 69.6258
22665 2 6.43671 137.121 68.3363
22667 2 9.16444 138.732 68.327
16831 1 10.9866 138.744 69.6165
22413 2 11.893 137.121 68.3363
16663 1 13.7151 137.133 69.6258
22411 2 14.6207 138.732 68.3271
16665 1 16.4428 138.744 69.6165
22271 2 17.3492 137.121 68.3363
16558 1 19.1714 137.133 69.6258
22273 2 20.0769 138.732 68.3271
17088 1 2.80176 140.355 69.6062
17418 1 0.0731372 141.967 69.5947
22954 2 0.979588 140.342 68.3167
17086 1 5.52938 141.967 69.5947
22956 2 3.70719 141.953 68.3053
16832 1 8.258 140.355 69.6062
22640 2 9.16344 141.953 68.3053
22642 2 6.43583 140.342 68.3167
16834 1 10.9856 141.967 69.5947
22412 2 11.8921 140.342 68.3167
16644 1 13.7142 140.355 69.6062
22414 2 14.6197 141.953 68.3053
16642 1 16.4419 141.967 69.5947
22252 2 17.3483 140.342 68.3167
16557 1 19.1705 140.355 69.6062
22250 2 20.0759 141.953 68.3053
17087 1 2.80071 143.578 69.582
17413 1 0.0720052 145.19 69.5683
22943 2 0.978574 143.563 68.2927
17089 1 5.52825 145.19 69.5683
22941 2 3.70615 145.174 68.2789
16817 1 8.25695 143.578 69.582
22641 2 6.43481 143.563 68.2927
22643 2 9.16238 145.174 68.279
16815 1 10.9845 145.19 69.5683
22393 2 11.891 143.563 68.2927
16643 1 13.7132 143.578 69.582
22391 2 14.6186 145.174 68.2789
16645 1 16.4407 145.19 69.5683
22251 2 17.3473 143.563 68.2927
16546 1 19.1694 143.578 69.582
22253 2 20.0749 145.174 68.2789
17078 1 2.79949 146.801 69.5533
22942 2 0.977488 146.785 68.2641
16816 1 8.25573 146.801 69.5533
22626 2 6.43373 146.785 68.2641
22392 2 11.89 146.785 68.2641
16632 1 13.712 146.801 69.5533
22236 2 17.3462 146.785 68.2641
16545 1 19.1682 146.801 69.5533
17414 1 0.0707131 148.413 69.5372
17077 1 2.79816 150.025 69.5199
22936 2 0.976238 150.007 68.2309
17076 1 5.52695 148.413 69.5372
22944 2 3.70502 148.396 68.2481
22624 2 9.16125 148.396 68.2481
16806 1 8.2544 150.025 69.5199
22625 2 6.43247 150.007 68.2309
16818 1 10.9832 148.413 69.5372
22378 2 11.8887 150.007 68.2309
22394 2 14.6175 148.396 68.2481
16631 1 13.7106 150.025 69.5199
16630 1 16.4394 148.413 69.5372
22235 2 17.345 150.007 68.2309
22234 2 20.0737 148.396 68.2481
16536 1 19.1669 150.025 69.5199
23126 2 1.89791 103.29 70.8458
15188 1 0.985879 101.672 72.1517
17292 1 3.71465 103.285 72.1642
20726 2 4.62539 101.678 70.8333
16988 1 9.17089 103.285 72.1642
22852 2 7.35416 103.29 70.8458
14900 1 6.44212 101.672 72.1517
14711 1 11.8984 101.672 72.1517
20465 2 10.0816 101.678 70.8333
16773 1 14.6271 103.285 72.1642
22555 2 12.8104 103.29 70.8458
20310 2 15.5379 101.678 70.8332
22354 2 18.2666 103.29 70.8458
14612 1 17.3546 101.672 72.1517
16610 1 20.0834 103.285 72.1642
20240 2 20.9941 101.678 70.8332
17250 1 0.987142 104.897 72.1757
23127 2 1.89907 106.514 70.8677
17248 1 3.71583 106.51 72.1863
22818 2 4.62665 104.902 70.8573
16989 1 6.44338 104.897 72.1757
16990 1 9.17207 106.51 72.1863
22816 2 7.35531 106.514 70.8677
16755 1 11.8996 104.897 72.1757
22556 2 10.0829 104.902 70.8573
16753 1 14.6283 106.51 72.1863
22344 2 15.5391 104.902 70.8573
22557 2 12.8115 106.514 70.8678
16611 1 17.3559 104.897 72.1757
22342 2 18.2678 106.514 70.8678
16612 1 20.0845 106.51 72.1863
22212 2 20.9954 104.902 70.8573
17249 1 0.988231 108.123 72.1958
22817 2 4.62766 108.126 70.8772
16957 1 6.44447 108.123 72.1958
16754 1 11.9007 108.123 72.1958
22532 2 10.0839 108.126 70.8772
22343 2 15.5401 108.126 70.8773
16603 1 17.3569 108.123 72.1958
22211 2 20.9964 108.126 70.8773
23079 2 1.89996 109.738 70.8858
17204 1 0.989111 111.348 72.2119
17251 1 3.71682 109.736 72.2044
22778 2 4.62847 111.35 70.8933
16955 1 9.17306 109.736 72.2044
22819 2 7.3562 109.738 70.8858
16956 1 6.44535 111.348 72.2119
16732 1 11.9016 111.348 72.2119
22531 2 10.0847 111.35 70.8933
16756 1 14.6293 109.736 72.2044
22530 2 12.8124 109.738 70.8858
22328 2 15.541 111.35 70.8933
22345 2 18.2687 109.738 70.8858
16602 1 17.3578 111.348 72.2119
16601 1 20.0855 109.736 72.2044
22210 2 20.9972 111.35 70.8933
23080 2 1.90071 112.961 70.8999
17203 1 0.989771 114.573 72.2242
17202 1 3.71759 112.961 72.2186
22777 2 4.62913 114.573 70.9056
16958 1 9.17382 112.961 72.2186
22776 2 7.35694 112.961 70.9
16921 1 6.44601 114.573 72.2242
16731 1 11.9022 114.573 72.2242
22501 2 10.0854 114.573 70.9056
16730 1 14.6301 112.961 72.2186
22533 2 12.8132 112.961 70.8999
22327 2 15.5416 114.573 70.9056
22326 2 18.2694 112.961 70.8999
16591 1 17.3585 114.573 72.2242
16604 1 20.0863 112.961 72.2186
22204 2 20.9979 114.573 70.9056
17162 1 0.990222 117.799 72.2328
23035 2 1.90127 116.185 70.9103
17205 1 3.71814 116.186 72.229
22734 2 4.62958 117.796 70.9141
16919 1 9.17438 116.186 72.229
16920 1 6.44646 117.799 72.2328
22779 2 7.3575 116.185 70.9103
16708 1 11.9027 117.799 72.2328
22500 2 10.0858 117.796 70.9141
16733 1 14.6306 116.186 72.229
22308 2 15.5421 117.796 70.9141
22499 2 12.8137 116.185 70.9103
16590 1 17.3589 117.799 72.2328
22329 2 18.27 116.185 70.9103
16589 1 20.0869 116.186 72.229
22203 2 20.9983 117.796 70.9141
17161 1 0.990458 121.024 72.2376
23036 2 1.9016 119.408 70.917
17160 1 3.71849 119.411 72.2357
22733 2 4.62982 121.02 70.9189
16885 1 6.4467 121.024 72.2376
16922 1 9.17473 119.411 72.2357
22732 2 7.35785 119.408 70.917
16707 1 11.9029 121.024 72.2376
22469 2 10.0861 121.02 70.9189
16706 1 14.631 119.411 72.2357
22307 2 15.5423 121.02 70.9189
22502 2 12.8141 119.408 70.917
16579 1 17.3592 121.024 72.2376
22306 2 18.2703 119.408 70.917
16592 1 20.0872 119.411 72.2357
22196 2 20.9985 121.02 70.9189
17128 1 0.990492 124.249 72.2385
22999 2 1.90175 122.631 70.9198
17163 1 3.71862 122.636 72.2385
22694 2 4.62988 124.243 70.9197
16883 1 9.17486 122.636 72.2385
16884 1 6.44673 124.249 72.2385
22735 2 7.35799 122.631 70.9198
16684 1 11.903 124.249 72.2385
22468 2 10.0861 124.243 70.9197
16709 1 14.6311 122.636 72.2385
22288 2 15.5424 124.243 70.9197
22467 2 12.8142 122.631 70.9198
16578 1 17.3592 124.249 72.2385
22309 2 18.2705 122.631 70.9198
16577 1 20.0873 122.636 72.2385
22195 2 20.9986 124.243 70.9197
17127 1 0.990335 127.474 72.2355
23000 2 1.90171 125.855 70.9187
17126 1 3.71856 125.862 72.2375
22693 2 4.62973 127.467 70.9167
16853 1 6.44657 127.474 72.2355
16886 1 9.17479 125.862 72.2375
22692 2 7.35795 125.855 70.9187
16683 1 11.9028 127.474 72.2355
22437 2 10.086 127.467 70.9167
16682 1 14.631 125.862 72.2375
22287 2 15.5422 127.467 70.9167
22470 2 12.8142 125.855 70.9187
16567 1 17.359 127.474 72.2355
22286 2 18.2704 125.855 70.9187
16580 1 20.0873 125.862 72.2375
22188 2 20.9984 127.467 70.9167
22971 2 1.90146 129.078 70.9136
17129 1 3.7183 129.087 72.2324
16851 1 9.17454 129.087 72.2324
22695 2 7.3577 129.078 70.9136
16685 1 14.6308 129.087 72.2324
22435 2 12.8139 129.078 70.9136
22289 2 18.2702 129.078 70.9136
16565 1 20.087 129.087 72.2324
17102 1 0.98998 130.7 72.2284
22972 2 1.90099 132.302 70.9045
22662 2 4.62937 130.69 70.9096
17100 1 3.71784 132.313 72.2233
16852 1 6.44622 130.7 72.2284
16854 1 9.17409 132.313 72.2233
22660 2 7.35724 132.302 70.9045
16660 1 11.9025 130.7 72.2284
22436 2 10.0856 130.69 70.9096
22268 2 15.5419 130.69 70.9096
16658 1 14.6303 132.313 72.2233
22438 2 12.8135 132.302 70.9045
16566 1 17.3587 130.7 72.2284
22266 2 18.2697 132.302 70.9045
22187 2 20.9981 130.69 70.9096
16568 1 20.0866 132.313 72.2233
17101 1 0.989413 133.926 72.2172
22951 2 1.90035 135.526 70.8912
17103 1 3.71716 135.539 72.21
22661 2 4.62881 133.914 70.8984
16827 1 9.1734 135.539 72.21
16829 1 6.44565 133.926 72.2172
22663 2 7.3566 135.526 70.8912
16659 1 11.9019 133.926 72.2172
22409 2 10.085 133.914 70.8984
16661 1 14.6296 135.539 72.21
22267 2 15.5413 133.914 70.8984
22407 2 12.8128 135.526 70.8912
16555 1 17.3581 133.926 72.2172
22269 2 18.2691 135.526 70.8912
16553 1 20.0859 135.539 72.21
22180 2 20.9975 133.914 70.8984
17084 1 0.988601 137.152 72.2017
22952 2 1.89955 138.751 70.8737
17082 1 3.71623 138.765 72.1924
22638 2 4.62811 137.138 70.883
16828 1 6.44484 137.152 72.2017
16830 1 9.17246 138.765 72.1924
22636 2 7.35578 138.751 70.8737
16640 1 11.9011 137.152 72.2017
22408 2 10.0843 137.138 70.883
16638 1 14.6287 138.765 72.1924
22248 2 15.5406 137.138 70.883
22410 2 12.812 138.751 70.8736
16554 1 17.3573 137.152 72.2017
22246 2 18.2683 138.751 70.8736
16556 1 20.0849 138.765 72.1924
22179 2 20.9968 137.138 70.8829
17083 1 0.987565 140.379 72.1819
22939 2 1.89848 141.975 70.8518
17085 1 3.71509 141.992 72.1704
22637 2 4.62716 140.363 70.8633
16811 1 9.17132 141.992 72.1704
16813 1 6.4438 140.379 72.1819
22639 2 7.35471 141.975 70.8517
16639 1 11.9 140.379 72.1819
22389 2 10.0834 140.363 70.8632
16641 1 14.6276 141.992 72.1704
22247 2 15.5397 140.363 70.8632
22387 2 12.811 141.975 70.8517
16543 1 17.3563 140.379 72.1819
22249 2 18.2672 141.975 70.8517
16541 1 20.0838 141.992 72.1704
22172 2 20.9959 140.363 70.8632
17074 1 0.986323 143.605 72.1577
22940 2 1.89726 145.2 70.8253
17072 1 3.71374 145.218 72.1439
22622 2 4.62599 143.588 70.8391
16812 1 6.44256 143.605 72.1577
16814 1 9.16999 145.218 72.1439
22620 2 7.35352 145.2 70.8252
16628 1 11.8988 143.605 72.1577
22388 2 10.0822 143.588 70.8391
16626 1 14.6262 145.218 72.1439
22232 2 15.5385 143.588 70.8391
22390 2 12.8098 145.2 70.8253
16542 1 17.355 143.605 72.1577
22230 2 18.266 145.2 70.8253
16544 1 20.0825 145.218 72.1439
22171 2 20.9947 143.588 70.8391
17073 1 0.984866 146.832 72.1289
22621 2 4.62477 146.813 70.8103
16805 1 6.44111 146.832 72.1289
16627 1 11.8974 146.832 72.1289
22377 2 10.081 146.813 70.8103
22231 2 15.5372 146.813 70.8103
16535 1 17.3536 146.832 72.1289
22164 2 20.9935 146.813 70.8103
22935 2 1.89597 148.425 70.7942
17069 1 0.983241 150.058 72.0953
17075 1 3.71219 148.445 72.1127
22611 2 4.62335 150.038 70.777
16803 1 9.16843 148.445 72.1127
22623 2 7.35222 148.425 70.7942
16804 1 6.43948 150.058 72.0953
16621 1 11.8957 150.058 72.0953
22376 2 10.0796 150.038 70.777
16629 1 14.6247 148.445 72.1127
22375 2 12.8084 148.425 70.7942
22221 2 15.5358 150.038 70.777
22233 2 18.2647 148.425 70.7942
16534 1 17.3519 150.058 72.0953
16533 1 20.0809 148.445 72.1127
22163 2 20.9921 150.038 70.7769
23125 2 0.0875038 103.274 73.3776
20716 2 2.81491 101.66 73.365
17246 1 1.84166 103.272 74.8154
20714 2 0.977198 101.645 75.8393
22813 2 5.54374 103.274 73.3776
22812 2 3.70613 103.261 75.8519
14898 1 4.56892 101.658 74.8028
20463 2 8.27115 101.66 73.365
16987 1 7.2979 103.272 74.8154
22523 2 9.16236 103.261 75.8519
20457 2 6.43342 101.645 75.8393
22554 2 11 103.274 73.3776
14705 1 10.0252 101.658 74.8028
20298 2 11.8897 101.645 75.8393
20300 2 13.7274 101.66 73.365
16750 1 12.7542 103.272 74.8154
22338 2 14.6186 103.261 75.8519
14610 1 15.4814 101.658 74.8028
22339 2 16.4562 103.274 73.3776
16609 1 18.2104 103.272 74.8154
20233 2 17.3459 101.645 75.8393
20238 2 19.1836 101.66 73.365
22205 2 20.0748 103.261 75.8519
14593 1 20.9376 101.658 74.8028
22814 2 2.81625 104.887 73.3892
23077 2 0.0886692 106.501 73.3997
17247 1 1.84317 106.502 74.8375
22770 2 0.97871 104.876 75.8635
22815 2 5.54491 106.501 73.3997
16953 1 4.57057 104.887 74.827
22768 2 3.70745 106.491 75.8742
22528 2 8.2725 104.887 73.3892
16951 1 7.2994 106.502 74.8375
22524 2 6.43496 104.876 75.8636
22525 2 9.1637 106.491 75.8742
22526 2 11.0012 106.501 73.3997
16751 1 10.0268 104.887 74.827
22320 2 11.8912 104.876 75.8636
22340 2 13.7287 104.887 73.3891
16599 1 15.4831 104.887 74.827
16752 1 12.7556 106.502 74.8375
22318 2 14.6199 106.491 75.8742
22341 2 16.4574 106.501 73.3997
16597 1 18.2119 106.502 74.8375
22206 2 17.3474 104.876 75.8636
22209 2 19.185 104.887 73.3892
16527 1 20.9393 104.887 74.827
22207 2 20.0762 106.491 75.8742
22774 2 2.81727 108.114 73.4093
22769 2 0.979866 108.106 75.8838
16952 1 4.57191 108.116 74.8471
22527 2 8.27351 108.114 73.4093
22493 2 6.4361 108.106 75.8838
16728 1 10.0281 108.116 74.8471
22319 2 11.8924 108.106 75.8838
22324 2 13.7298 108.114 73.4093
16598 1 15.4844 108.116 74.8471
22199 2 17.3486 108.106 75.8838
22208 2 19.186 108.114 73.4093
16526 1 20.9406 108.116 74.8471
17200 1 1.84431 109.731 74.8557
23078 2 0.0896065 109.728 73.4178
22726 2 0.980788 111.336 75.9001
22773 2 2.81814 111.341 73.4255
22771 2 3.70847 109.721 75.8925
22772 2 5.54584 109.728 73.4179
16917 1 4.57289 111.346 74.8633
16954 1 7.30055 109.731 74.8557
22491 2 9.1647 109.721 75.8925
22492 2 6.43702 111.336 75.9001
22497 2 8.27436 111.341 73.4255
22529 2 11.0021 109.728 73.4179
16727 1 10.0291 111.346 74.8634
22300 2 11.8932 111.336 75.9001
16726 1 12.7568 109.731 74.8557
22321 2 14.6209 109.721 75.8925
16587 1 15.4854 111.346 74.8634
22323 2 13.7306 111.341 73.4255
16600 1 18.213 109.731 74.8557
22322 2 16.4583 109.728 73.4179
22198 2 17.3495 111.336 75.9001
22197 2 20.0772 109.721 75.8925
16525 1 20.9416 111.346 74.8633
22202 2 19.1868 111.341 73.4255
17201 1 1.84515 112.96 74.87
23033 2 0.090368 112.954 73.4321
22725 2 0.981454 114.566 75.9126
22730 2 2.81879 114.567 73.4378
22724 2 3.70927 112.951 75.9068
22775 2 5.54661 112.954 73.4321
16916 1 4.57359 114.575 74.8757
16915 1 7.30139 112.96 74.87
22494 2 9.16551 112.951 75.9068
22461 2 6.4377 114.566 75.9126
22496 2 8.27504 114.567 73.4378
22495 2 11.0028 112.954 73.4321
16704 1 10.0298 114.575 74.8757
22299 2 11.8939 114.566 75.9125
16729 1 12.7576 112.96 74.87
22298 2 14.6217 112.951 75.9068
16586 1 15.4861 114.575 74.8757
22304 2 13.7313 114.567 73.4378
16585 1 18.2139 112.96 74.87
22325 2 16.4591 112.954 73.4321
22191 2 17.3502 114.566 75.9125
22200 2 20.078 112.951 75.9068
16524 1 20.9423 114.575 74.8757
22201 2 19.1875 114.567 73.4378
17158 1 1.84572 116.189 74.8805
22686 2 0.981907 117.796 75.9211
22729 2 2.81924 117.793 73.4464
23034 2 0.0909178 116.18 73.4426
16881 1 4.57403 117.804 74.8843
22727 2 3.70982 116.181 75.9173
22728 2 5.54716 116.18 73.4426
16918 1 7.30196 116.189 74.8805
22459 2 9.16607 116.181 75.9173
22460 2 6.43814 117.796 75.9211
22465 2 8.27548 117.793 73.4464
16703 1 10.0303 117.804 74.8843
22280 2 11.8944 117.796 75.9211
22498 2 11.0034 116.18 73.4426
16575 1 15.4865 117.804 74.8843
16702 1 12.7582 116.189 74.8805
22301 2 14.6223 116.181 75.9173
22303 2 13.7317 117.793 73.4464
16588 1 18.2144 116.189 74.8805
22190 2 17.3506 117.796 75.9211
22302 2 16.4596 116.18 73.4426
16523 1 20.9427 117.804 74.8843
22189 2 20.0785 116.181 75.9173
22194 2 19.188 117.793 73.4464
17159 1 1.84604 119.418 74.8872
22685 2 0.982175 121.026 75.9257
22690 2 2.81951 121.02 73.4511
22997 2 0.0912813 119.407 73.4492
16880 1 4.57423 121.033 74.889
22684 2 3.71018 119.411 75.9239
22731 2 5.54751 119.407 73.4492
16879 1 7.30227 119.418 74.8872
22429 2 6.43841 121.026 75.9257
22462 2 9.16642 119.411 75.9239
22464 2 8.27574 121.02 73.4511
16680 1 10.0305 121.033 74.889
22279 2 11.8946 121.026 75.9257
22463 2 11.0038 119.407 73.4492
16574 1 15.4867 121.033 74.889
16705 1 12.7585 119.418 74.8872
22278 2 14.6227 119.411 75.9239
22284 2 13.732 121.02 73.4511
16573 1 18.2148 119.418 74.8872
22183 2 17.3509 121.026 75.9257
22305 2 16.46 119.407 73.4492
16522 1 20.9429 121.033 74.889
22192 2 20.0789 119.411 75.9239
22193 2 19.1882 121.02 73.4511
17124 1 1.84613 122.648 74.8899
22654 2 0.982254 124.256 75.9264
22689 2 2.81959 124.246 73.4519
22998 2 0.0914557 122.633 73.452
16849 1 4.57422 124.263 74.8899
22687 2 3.71036 122.641 75.9266
22688 2 5.54769 122.633 73.452
16882 1 7.30237 122.648 74.8899
22427 2 9.1666 122.641 75.9266
22428 2 6.43849 124.256 75.9264
22433 2 8.27583 124.246 73.4519
16679 1 10.0305 124.263 74.8899
22260 2 11.8947 124.256 75.9264
22466 2 11.0039 122.633 73.452
16563 1 15.4867 124.263 74.8899
16678 1 12.7586 122.648 74.8899
22281 2 14.6228 122.641 75.9266
22283 2 13.7321 124.246 73.4519
16576 1 18.2148 122.648 74.8899
22182 2 17.351 124.256 75.9264
22282 2 16.4602 122.633 73.452
16521 1 20.9429 124.263 74.8899
22181 2 20.0791 122.641 75.9266
22186 2 19.1883 124.246 73.4519
17125 1 1.84601 125.878 74.8888
22653 2 0.982139 127.486 75.9231
22658 2 2.81948 127.473 73.4488
22969 2 0.0914337 125.86 73.4508
16848 1 4.574 127.493 74.8867
22652 2 3.71034 125.871 75.9253
22691 2 5.54768 125.86 73.4508
16847 1 7.30225 125.878 74.8888
22401 2 6.43838 127.486 75.9231
22430 2 9.16658 125.871 75.9252
22432 2 8.27572 127.473 73.4488
16656 1 10.0302 127.493 74.8867
22259 2 11.8946 127.486 75.9231
22431 2 11.0039 125.86 73.4508
16562 1 15.4865 127.493 74.8867
16681 1 12.7585 125.878 74.8888
22258 2 14.6228 125.871 75.9252
22264 2 13.732 127.473 73.4488
16561 1 18.2147 125.878 74.8888
22175 2 17.3509 127.486 75.9231
22285 2 16.4602 125.86 73.4509
16520 1 20.9427 127.493 74.8867
22184 2 20.0791 125.871 75.9252
22185 2 19.1882 127.473 73.4488
17098 1 1.84568 129.108 74.8836
22970 2 0.0912263 129.087 73.4457
22655 2 3.71012 129.102 75.9199
22656 2 5.54747 129.087 73.4457
16850 1 7.30192 129.108 74.8836
22399 2 9.16636 129.102 75.9199
22434 2 11.0037 129.087 73.4457
16654 1 12.7582 129.108 74.8836
22261 2 14.6226 129.102 75.9199
16564 1 18.2144 129.108 74.8836
22262 2 16.4599 129.087 73.4457
22173 2 20.0788 129.102 75.9199
22630 2 0.981796 130.717 75.9157
22657 2 2.81916 130.7 73.4416
17099 1 1.84512 132.338 74.8743
22949 2 0.0907855 132.314 73.4365
16825 1 4.57355 130.723 74.8795
22628 2 3.70964 132.333 75.9105
22659 2 5.54701 132.314 73.4365
22400 2 6.43803 130.717 75.9157
22405 2 8.27539 130.7 73.4416
16823 1 7.30136 132.338 74.8743
22402 2 9.16588 132.333 75.9105
16655 1 10.0298 130.723 74.8795
22240 2 11.8943 130.717 75.9157
22403 2 11.0033 132.314 73.4365
16551 1 15.486 130.723 74.8795
22263 2 13.7316 130.7 73.4416
16657 1 12.7576 132.338 74.8743
22238 2 14.6221 132.333 75.9105
22174 2 17.3505 130.717 75.9157
16549 1 18.2138 132.338 74.8743
22265 2 16.4595 132.314 73.4364
16519 1 20.9423 130.723 74.8795
22178 2 19.1879 130.7 73.4416
22176 2 20.0784 132.333 75.9105
17080 1 1.84429 135.569 74.8609
22629 2 0.981169 133.948 75.9043
22634 2 2.81858 133.927 73.4303
22950 2 0.0900977 135.541 73.4231
16824 1 4.57286 133.953 74.8682
22631 2 3.70887 135.564 75.897
22632 2 5.54634 135.541 73.4231
16826 1 7.30053 135.569 74.8609
22379 2 9.16511 135.564 75.897
22381 2 6.43741 133.948 75.9043
22404 2 8.27483 133.927 73.4303
16636 1 10.0291 133.953 74.8682
22239 2 11.8937 133.948 75.9043
22406 2 11.0026 135.541 73.4231
16550 1 15.4853 133.953 74.8682
16634 1 12.7568 135.569 74.8609
22241 2 14.6213 135.564 75.897
22244 2 13.7311 133.927 73.4303
16552 1 18.213 135.569 74.8609
22167 2 17.3499 133.948 75.9043
22242 2 16.4588 135.541 73.4231
16518 1 20.9416 133.953 74.8682
22165 2 20.0776 135.564 75.897
22177 2 19.1873 133.927 73.4303
17081 1 1.84315 138.8 74.8432
22614 2 0.980271 137.18 75.8886
22633 2 2.81781 137.155 73.4148
22937 2 0.0892335 138.769 73.4054
16809 1 4.57188 137.184 74.8526
22612 2 3.70783 138.796 75.8792
22635 2 5.54548 138.769 73.4054
16807 1 7.2994 138.8 74.8432
22380 2 6.43651 137.18 75.8886
22382 2 9.16407 138.796 75.8792
22385 2 8.27406 137.155 73.4148
16635 1 10.0281 137.184 74.8526
22224 2 11.8927 137.18 75.8886
22383 2 11.0017 138.769 73.4054
16539 1 15.4844 137.184 74.8526
16637 1 12.7556 138.8 74.8432
22222 2 14.6203 138.796 75.8792
22243 2 13.7303 137.155 73.4148
16537 1 18.2119 138.8 74.8432
22166 2 17.349 137.18 75.8886
22245 2 16.4579 138.769 73.4054
16517 1 20.9406 137.184 74.8526
22168 2 20.0765 138.796 75.8792
22170 2 19.1865 137.155 73.4148
17070 1 1.84172 142.03 74.8212
22613 2 0.979081 140.412 75.8687
22618 2 2.81681 140.383 73.3949
22938 2 0.0880884 141.997 73.3834
16808 1 4.5706 140.415 74.8328
22615 2 3.70647 142.027 75.8571
22616 2 5.54433 141.997 73.3834
16810 1 7.29796 142.03 74.8212
22367 2 9.16272 142.027 75.8571
22369 2 6.43531 140.412 75.8687
22384 2 8.27305 140.383 73.395
16624 1 10.0268 140.415 74.8328
22223 2 11.8916 140.412 75.8687
22386 2 11.0006 141.997 73.3834
16538 1 15.4831 140.415 74.8328
16622 1 12.7542 142.03 74.8212
22225 2 14.619 142.027 75.8571
22228 2 13.7293 140.383 73.395
16540 1 18.2104 142.03 74.8212
22159 2 17.3478 140.412 75.8687
22226 2 16.4568 141.997 73.3834
16516 1 20.9393 140.415 74.8328
22157 2 20.0752 142.027 75.8571
22169 2 19.1855 140.383 73.395
17071 1 1.84006 145.261 74.7947
22606 2 0.977532 143.643 75.8444
22617 2 2.81552 143.611 73.3707
22933 2 0.086661 145.225 73.3569
16801 1 4.56903 143.645 74.8085
22604 2 3.70478 145.259 75.8306
22619 2 5.54288 145.225 73.3569
16799 1 7.29629 145.261 74.7947
22368 2 6.43378 143.643 75.8444
22370 2 9.16101 145.259 75.8306
22373 2 8.27175 143.611 73.3708
16623 1 10.0253 143.645 74.8085
22216 2 11.89 143.643 75.8444
22371 2 10.9991 145.225 73.3569
16531 1 15.4815 143.645 74.8085
16625 1 12.7525 145.261 74.7947
22214 2 14.6172 145.259 75.8307
22227 2 13.728 143.611 73.3707
16529 1 18.2088 145.261 74.7947
22158 2 17.3462 143.643 75.8444
22229 2 16.4554 145.225 73.3569
16515 1 20.9378 143.645 74.8085
22160 2 20.0735 145.259 75.8307
22162 2 19.1842 143.611 73.3707
22605 2 0.975735 146.875 75.8157
22610 2 2.81403 146.839 73.342
16800 1 4.56728 146.876 74.7797
22365 2 6.43197 146.875 75.8157
22372 2 8.27025 146.839 73.3419
16620 1 10.0235 146.876 74.7797
22215 2 11.8882 146.875 75.8157
16530 1 15.4798 146.876 74.7797
22220 2 13.7265 146.839 73.3419
22155 2 17.3444 146.875 75.8157
16514 1 20.936 146.876 74.7797
22161 2 19.1827 146.839 73.3419
17068 1 1.83824 148.49 74.7635
22934 2 0.0850892 148.453 73.3258
22603 2 0.973775 150.106 75.7824
22609 2 2.81238 150.068 73.3085
22607 2 3.70289 148.49 75.7996
22608 2 5.54133 148.453 73.3258
16798 1 4.56539 150.105 74.7462
16802 1 7.29448 148.49 74.7635
22363 2 9.15913 148.49 75.7996
22366 2 8.26863 150.068 73.3084
22364 2 6.43001 150.106 75.7824
22374 2 10.9976 148.453 73.3258
22213 2 11.8863 150.106 75.7824
16619 1 10.0216 150.105 74.7462
16618 1 12.7507 148.49 74.7635
22217 2 14.6154 148.49 75.7996
22219 2 13.7249 150.068 73.3085
16528 1 15.4779 150.105 74.7462
16532 1 18.207 148.49 74.7635
22218 2 16.4538 148.453 73.3258
22154 2 17.3425 150.106 75.7824
22153 2 20.0716 148.49 75.7996
22156 2 19.1811 150.068 73.3085
16513 1 20.9341 150.105 74.7462
