ITEM: TIMESTEP
420
ITEM: NUMBER OF ATOMS
23952
ITEM: BOX BOUNDS pp pp ss
0.0000000000000000e+00 2.1824953608198122e+01
0.0000000000000000e+00 1.5120771408893131e+02
-4.0801161581128786e+00 7.5931818976380626e+01
ITEM: ATOMS id type x y z
8175 2 2.70767 1.46648 -3.36977
2047 1 1.78334 -0.099047 -2.3034
8174 2 5.43553 -0.0992052 -3.36728
2014 1 4.51172 1.46748 -2.30589
8078 2 8.1639 1.46648 -3.36977
2016 1 7.23958 -0.099047 -2.3034
8080 2 10.8918 -0.0992052 -3.36728
1887 1 9.96796 1.46748 -2.30589
1662 1 15.4242 1.46748 -2.30589
1886 1 12.6958 -0.099047 -2.3034
7887 2 13.6201 1.46648 -3.36977
1664 1 18.1521 -0.099047 -2.3034
7886 2 16.348 -0.0992052 -3.36728
8192 2 21.8042 -0.0992052 -3.36728
1344 1 20.8804 1.46748 -2.30589
7600 2 19.0764 1.46648 -3.36977
8171 2 2.70839 4.59789 -3.37785
2048 1 1.78394 3.03402 -2.30941
8176 2 5.43611 3.03218 -3.37329
2013 1 4.51246 4.60058 -2.31397
8077 2 8.16462 4.59789 -3.37785
2012 1 7.24018 3.03402 -2.30941
8076 2 10.8924 3.03218 -3.37329
1883 1 9.9687 4.60058 -2.31397
1661 1 15.4249 4.60058 -2.31397
1888 1 12.6964 3.03402 -2.30941
7883 2 13.6209 4.59789 -3.37785
1660 1 18.1527 3.03402 -2.30941
7888 2 16.3486 3.03218 -3.37329
8190 2 21.8048 3.03218 -3.37329
1343 1 20.8812 4.60058 -2.31397
7599 2 19.0771 4.59789 -3.37785
8170 2 2.70937 7.7294 -3.39008
2044 1 1.78482 6.16717 -2.31956
8169 2 5.43696 6.16363 -3.38345
2006 1 4.51348 7.73379 -2.3262
8070 2 8.1656 7.7294 -3.39008
2015 1 7.24106 6.16717 -2.31956
8079 2 10.8932 6.16363 -3.38345
1882 1 9.96972 7.73379 -2.3262
1654 1 15.426 7.73379 -2.3262
1881 1 12.6973 6.16717 -2.31956
7882 2 13.6218 7.7294 -3.39008
1663 1 18.1535 6.16717 -2.31956
7881 2 16.3494 6.16363 -3.38345
8191 2 21.8057 6.16363 -3.38345
1342 1 20.8822 7.73379 -2.3262
7594 2 19.0781 7.7294 -3.39008
8160 2 2.7106 10.8611 -3.40646
2045 1 1.78598 9.30046 -2.33386
8172 2 5.43807 9.29521 -3.39775
2005 1 4.51479 10.8672 -2.34257
8069 2 8.16684 10.8611 -3.40646
2004 1 7.24222 9.30046 -2.33386
8068 2 10.8943 9.29521 -3.39775
1871 1 9.97103 10.8672 -2.34257
1653 1 15.4273 10.8672 -2.34257
1884 1 12.6985 9.30046 -2.33386
7871 2 13.6231 10.8611 -3.40646
1652 1 18.1547 9.30046 -2.33386
7884 2 16.3505 9.29521 -3.39775
8188 2 21.8068 9.29521 -3.39775
1335 1 20.8835 10.8672 -2.34257
7593 2 19.0793 10.8611 -3.40646
8159 2 2.71213 13.9929 -3.42699
2040 1 1.78745 12.434 -2.3523
8158 2 5.43945 12.427 -3.41621
1991 1 4.51647 14.0009 -2.36305
2007 1 7.24369 12.434 -2.3523
8054 2 8.16837 13.9929 -3.42699
8071 2 10.8957 12.427 -3.41621
1870 1 9.97271 14.0009 -2.36305
1638 1 15.4289 14.0009 -2.36305
1869 1 12.6999 12.434 -2.3523
7870 2 13.6246 13.9929 -3.42699
1655 1 18.1562 12.434 -2.3523
7869 2 16.3519 12.427 -3.41621
8189 2 21.8082 12.427 -3.41621
1334 1 20.8852 14.0009 -2.36305
7580 2 19.0808 13.9929 -3.42699
8148 2 2.71397 17.1252 -3.45167
2041 1 1.78944 15.5679 -2.37494
8161 2 5.44113 15.559 -3.43881
1990 1 4.51882 17.1351 -2.38791
1989 1 7.24568 15.5679 -2.37494
8053 2 8.17021 17.1252 -3.45167
1851 1 9.97506 17.1351 -2.38791
8052 2 10.8974 15.559 -3.43881
1637 1 15.4313 17.1351 -2.38791
1872 1 12.7019 15.5679 -2.37494
7851 2 13.6264 17.1252 -3.45167
1636 1 18.1582 15.5679 -2.37494
7872 2 16.3536 15.559 -3.43881
8186 2 21.8098 15.559 -3.43881
1319 1 20.8875 17.1351 -2.38791
7579 2 19.0827 17.1252 -3.45167
8147 2 2.71612 20.2583 -3.48042
2036 1 1.7921 18.7025 -2.40188
8146 2 5.44313 18.6917 -3.46554
1975 1 4.52174 20.2701 -2.41687
1992 1 7.24834 18.7025 -2.40188
8031 2 8.17236 20.2583 -3.48042
1850 1 9.97798 20.2701 -2.41687
8055 2 10.8994 18.6917 -3.46554
1614 1 15.4342 20.2701 -2.41687
1849 1 12.7046 18.7025 -2.40188
7850 2 13.6286 20.2583 -3.48042
1639 1 18.1608 18.7025 -2.40188
7849 2 16.3556 18.6917 -3.46554
8187 2 21.8118 18.6917 -3.46554
1318 1 20.8905 20.2701 -2.41687
7558 2 19.0848 20.2583 -3.48042
8136 2 2.71854 23.3925 -3.51313
2037 1 1.79527 21.8379 -2.43287
8149 2 5.44542 21.8252 -3.49629
1974 1 4.52518 23.4061 -2.44986
1973 1 7.25151 21.8379 -2.43287
8030 2 8.17478 23.3925 -3.51313
1824 1 9.98142 23.4061 -2.44986
8029 2 10.9017 21.8252 -3.49629
1613 1 15.4377 23.4061 -2.44986
1852 1 12.7078 21.8379 -2.43287
7823 2 13.631 23.3925 -3.51313
1612 1 18.164 21.8379 -2.43287
7852 2 16.3579 21.8252 -3.49629
8184 2 21.8141 21.8252 -3.49629
1295 1 20.8939 23.4061 -2.44986
7557 2 19.0873 23.3925 -3.51313
2032 1 1.79898 24.9746 -2.46782
8135 2 2.7212 26.5279 -3.54962
8134 2 5.44796 24.96 -3.53092
1959 1 4.52916 26.5435 -2.48671
1976 1 7.25522 24.9746 -2.46782
8007 2 8.17744 26.5279 -3.54962
8032 2 10.9042 24.96 -3.53092
1823 1 9.9854 26.5435 -2.48671
1822 1 12.7115 24.9746 -2.46782
1582 1 15.4416 26.5435 -2.48671
7822 2 13.6337 26.5279 -3.54962
1615 1 18.1677 24.9746 -2.46782
7821 2 16.3604 24.96 -3.53092
8185 2 21.8167 24.96 -3.53092
1294 1 20.8979 26.5435 -2.48671
7528 2 19.0899 26.5279 -3.54962
2033 1 1.80325 28.1128 -2.50652
8137 2 5.45074 28.0963 -3.56919
1957 1 7.25949 28.1128 -2.50652
8005 2 10.907 28.0963 -3.56919
1825 1 12.7157 28.1128 -2.50652
1580 1 18.172 28.1128 -2.50652
7824 2 16.3632 28.0963 -3.56919
8182 2 21.8195 28.0963 -3.56919
8124 2 2.7241 29.6652 -3.58961
2028 1 1.80811 31.2529 -2.54867
8122 2 5.45374 31.2346 -3.61081
1958 1 4.53373 29.6826 -2.52718
1960 1 7.26435 31.2529 -2.54867
8006 2 8.18033 29.6652 -3.58961
1796 1 9.98997 29.6826 -2.52718
8008 2 10.91 31.2346 -3.61081
1581 1 15.4462 29.6826 -2.52718
1794 1 12.7206 31.2529 -2.54867
7788 2 13.6366 29.6652 -3.58961
1583 1 18.1768 31.2529 -2.54867
7786 2 16.3662 31.2346 -3.61081
8183 2 21.8225 31.2346 -3.61081
1263 1 20.9024 29.6826 -2.52718
7527 2 19.0928 29.6652 -3.58961
8123 2 2.72718 32.8047 -3.63274
2029 1 1.81353 34.3954 -2.59385
8125 2 5.4569 34.3754 -3.65533
1943 1 4.53887 32.8239 -2.57091
1941 1 7.26977 34.3954 -2.59385
7983 2 8.18342 32.8047 -3.63274
1795 1 9.99511 32.8239 -2.57091
7981 2 10.9131 34.3754 -3.65533
1543 1 15.4513 32.8239 -2.57091
1797 1 12.726 34.3954 -2.59385
7787 2 13.6397 32.8047 -3.63274
1541 1 18.1822 34.3954 -2.59385
7789 2 16.3694 34.3754 -3.65533
8180 2 21.8256 34.3754 -3.65533
1262 1 20.9076 32.8239 -2.57091
7490 2 19.0959 32.8047 -3.63274
8181 2 0.00395587 37.5193 -3.70215
8112 2 2.73042 35.9469 -3.67849
2024 1 1.81946 37.5408 -2.64148
8110 2 5.46019 37.5193 -3.70215
1942 1 4.54456 35.9677 -2.6174
1944 1 7.2757 37.5408 -2.64148
7982 2 8.18666 35.9469 -3.67849
1768 1 10.0008 35.9677 -2.6174
7984 2 10.9164 37.5193 -3.70215
1542 1 15.457 35.9677 -2.6174
1766 1 12.7319 37.5408 -2.64148
7752 2 13.6429 35.9469 -3.67849
1544 1 18.1882 37.5408 -2.64148
7750 2 16.3727 37.5193 -3.70215
1223 1 20.9133 35.9677 -2.6174
7489 2 19.0991 35.9469 -3.67849
8178 2 0.00731503 40.6667 -3.75053
8111 2 2.73375 39.0925 -3.7262
2025 1 1.8258 40.6893 -2.6908
8113 2 5.46355 40.6667 -3.75053
1927 1 4.55071 39.1146 -2.66598
1925 1 7.28204 40.6893 -2.6908
7959 2 8.18999 39.0925 -3.7262
1767 1 10.0069 39.1146 -2.66598
7957 2 10.9198 40.6667 -3.75053
1503 1 15.4632 39.1146 -2.66598
1769 1 12.7383 40.6893 -2.6908
7751 2 13.6462 39.0925 -3.7262
1501 1 18.1945 40.6893 -2.6908
7753 2 16.376 40.6667 -3.75053
1222 1 20.9194 39.1146 -2.66598
7445 2 19.1025 39.0925 -3.7262
8179 2 0.0106828 43.8181 -3.79956
8100 2 2.73712 42.2418 -3.77503
8095 2 0.918093 42.2758 -1.27329
2020 1 1.8324 43.8415 -2.74089
8098 2 5.46692 43.8181 -3.79956
8097 2 3.64705 43.8515 -1.29842
1926 1 4.5572 42.2649 -2.71581
1928 1 7.28864 43.8415 -2.74089
7930 2 9.10329 43.8515 -1.29842
7932 2 6.37433 42.2758 -1.27329
7958 2 8.19336 42.2418 -3.77503
1740 1 10.0134 42.2649 -2.71581
7711 2 11.8306 42.2758 -1.27329
7960 2 10.9232 43.8181 -3.79956
1502 1 15.4697 42.2649 -2.71581
1738 1 12.7449 43.8415 -2.74089
7713 2 14.5595 43.8515 -1.29842
7716 2 13.6496 42.2418 -3.77503
1504 1 18.2011 43.8415 -2.74089
7396 2 17.2868 42.2758 -1.27329
7714 2 16.3794 43.8181 -3.79956
1176 1 20.9259 42.2649 -2.71581
7394 2 20.0158 43.8515 -1.29842
7444 2 19.1058 42.2418 -3.77503
8177 2 0.0139991 46.9739 -3.84819
8099 2 2.74047 45.3954 -3.824
8088 2 0.919729 45.4282 -1.32347
2021 1 1.83908 46.9974 -2.79066
8101 2 5.47024 46.9739 -3.84819
8086 2 3.64861 47.0058 -1.34829
1912 1 4.56386 45.4189 -2.76589
1910 1 7.29532 46.9974 -2.79066
7931 2 6.37597 45.4282 -1.32347
7933 2 9.10485 47.0058 -1.34829
7936 2 8.19671 45.3954 -3.824
1739 1 10.0201 45.4189 -2.76589
7680 2 11.8322 45.4282 -1.32347
7934 2 10.9265 46.9739 -3.84819
1464 1 15.4763 45.4189 -2.76589
1741 1 12.7516 46.9974 -2.79066
7678 2 14.5611 47.0058 -1.34829
7715 2 13.6529 45.3954 -3.824
1462 1 18.2078 46.9974 -2.79066
7395 2 17.2884 45.4282 -1.32347
7717 2 16.3827 46.9739 -3.84819
1175 1 20.9326 45.4189 -2.76589
7397 2 20.0173 47.0058 -1.34829
7399 2 19.1092 45.3954 -3.824
8089 2 2.74374 48.5536 -3.87199
8087 2 0.921228 48.5844 -1.37273
10368 2 0.0172035 50.1344 -3.89523
4095 1 1.84563 50.1573 -2.83886
1911 1 4.5705 48.5769 -2.81504
10350 2 5.47344 50.1344 -3.89523
10349 2 3.65005 50.164 -1.3966
7913 2 6.37747 48.5844 -1.37273
7935 2 8.19998 48.5536 -3.87199
10249 2 9.10629 50.164 -1.3966
4064 1 7.30187 50.1573 -2.83886
1713 1 10.0267 48.5769 -2.81504
7679 2 11.8337 48.5844 -1.37273
10256 2 10.9297 50.1344 -3.89523
1463 1 15.483 48.5769 -2.81504
7681 2 13.6562 48.5536 -3.87199
3934 1 12.7581 50.1573 -2.83886
10061 2 14.5625 50.164 -1.3966
7353 2 17.2899 48.5844 -1.37273
3712 1 18.2143 50.1573 -2.83886
10062 2 16.3859 50.1344 -3.89523
1128 1 20.9392 48.5769 -2.81504
7398 2 19.1125 48.5536 -3.87199
9772 2 20.0188 50.164 -1.3966
8167 2 0.896647 1.4733 -0.862141
2010 1 2.71154 1.47538 0.360888
8173 2 3.6245 -0.0939383 -0.859648
2009 1 5.43939 -0.0926991 0.363382
8074 2 6.35289 1.4733 -0.862141
8073 2 9.08074 -0.0939383 -0.859648
1879 1 8.16778 1.47538 0.360888
7879 2 11.8091 1.4733 -0.862141
1885 1 10.8956 -0.0926991 0.363382
7885 2 14.537 -0.0939383 -0.859648
1658 1 13.624 1.47538 0.360888
7597 2 17.2654 1.4733 -0.862141
1657 1 16.3519 -0.0926991 0.363382
7596 2 19.9932 -0.0939383 -0.859648
2046 1 21.8081 -0.0926991 0.363382
1341 1 19.0803 1.47538 0.360888
8166 2 0.89736 4.6078 -0.870252
2002 1 2.71226 4.61155 0.352775
8165 2 3.62509 3.04054 -0.865676
2011 1 5.43999 3.04346 0.357353
8075 2 9.08133 3.04054 -0.865676
8066 2 6.3536 4.6078 -0.870252
1878 1 8.1685 4.61155 0.352775
7878 2 11.8098 4.6078 -0.870252
1877 1 10.8962 3.04346 0.357353
7877 2 14.5376 3.04054 -0.865676
1650 1 13.6247 4.61155 0.352775
7591 2 17.2661 4.6078 -0.870252
1659 1 16.3525 3.04346 0.357353
7598 2 19.9938 3.04054 -0.865676
2042 1 21.8087 3.04346 0.357353
1340 1 19.081 4.61155 0.352775
8156 2 0.898322 7.74237 -0.882532
2001 1 2.71324 7.74781 0.34049
8168 2 3.62593 6.17507 -0.87587
2000 1 5.44084 6.17967 0.347155
8065 2 6.35456 7.74237 -0.882532
8064 2 9.08217 6.17507 -0.87587
1867 1 8.16948 7.74781 0.340491
7867 2 11.8108 7.74237 -0.882532
1880 1 10.8971 6.17967 0.347155
7880 2 14.5384 6.17507 -0.87587
1649 1 13.6257 7.74781 0.34049
7590 2 17.267 7.74237 -0.882532
1648 1 16.3533 6.17967 0.347155
7589 2 19.9946 6.17507 -0.87587
2043 1 21.8096 6.17967 0.347155
1333 1 19.082 7.74781 0.340491
8155 2 0.899527 10.8771 -0.898987
1987 1 2.71449 10.8842 0.324026
8154 2 3.62701 9.30971 -0.890237
2003 1 5.44195 9.31599 0.332781
8067 2 9.08325 9.30971 -0.890237
8050 2 6.35577 10.8771 -0.898987
1866 1 8.17073 10.8842 0.324026
7866 2 11.812 10.8771 -0.898987
1865 1 10.8982 9.31599 0.332781
7865 2 14.5395 9.30971 -0.890237
1634 1 13.627 10.8842 0.324026
7577 2 17.2682 10.8771 -0.898987
1651 1 16.3544 9.31599 0.332781
7592 2 19.9957 9.30971 -0.890237
2038 1 21.8107 9.31599 0.332781
1332 1 19.0832 10.8842 0.324026
8144 2 0.900957 14.012 -0.919633
1986 1 2.71599 14.0209 0.303358
8157 2 3.62833 12.4445 -0.908783
1985 1 5.44333 12.4525 0.314223
8048 2 9.08457 12.4445 -0.908782
8049 2 6.3572 14.012 -0.919633
1847 1 8.17223 14.0209 0.303358
7847 2 11.8134 14.012 -0.919633
1868 1 10.8996 12.4525 0.314223
7868 2 14.5408 12.4445 -0.908783
1633 1 13.6285 14.0209 0.303358
7576 2 17.2697 14.012 -0.919633
1632 1 16.3558 12.4525 0.314223
7575 2 19.9971 12.4445 -0.908782
2039 1 21.812 12.4525 0.314223
1317 1 19.0847 14.0209 0.303358
8143 2 0.902566 17.1474 -0.944515
1971 1 2.71774 17.1579 0.278422
8142 2 3.62986 15.5796 -0.931546
1988 1 5.44495 15.5893 0.291423
8022 2 4.5381 17.1703 1.61032
8027 2 6.3588 17.1474 -0.944515
8051 2 9.0861 15.5796 -0.931546
1846 1 8.17398 17.1579 0.278422
7846 2 11.815 17.1474 -0.944515
1845 1 10.9012 15.5893 0.291423
7815 2 9.99434 17.1703 1.61032
7845 2 14.5423 15.5796 -0.931546
1610 1 13.6302 17.1579 0.278422
7550 2 15.4506 17.1703 1.61032
7555 2 17.2713 17.1474 -0.944515
1635 1 16.3574 15.5893 0.291423
7578 2 19.9986 15.5796 -0.931546
2034 1 21.8137 15.5893 0.291423
1316 1 19.0865 17.1579 0.278422
7207 2 20.9068 17.1703 1.61032
8132 2 0.904344 20.2833 -0.973554
8128 2 1.81092 18.7397 1.59624
1970 1 2.71973 20.2955 0.249296
8145 2 3.63155 18.7152 -0.958523
1969 1 5.44683 18.7266 0.264374
7999 2 4.54002 20.3092 1.58112
8025 2 9.08779 18.7152 -0.958523
8026 2 6.36058 20.2833 -0.973554
1820 1 8.17597 20.2955 0.249296
8024 2 7.26715 18.7397 1.59624
7819 2 11.8168 20.2833 -0.973554
1848 1 10.9031 18.7266 0.264374
7814 2 9.99625 20.3092 1.58112
7848 2 14.544 18.7152 -0.958523
1609 1 13.6322 20.2955 0.249296
7521 2 15.4525 20.3092 1.58112
7813 2 12.7234 18.7397 1.59624
7554 2 17.2731 20.2833 -0.973554
1608 1 16.3593 18.7266 0.264374
7552 2 18.1796 18.7397 1.59624
7553 2 20.0003 18.7152 -0.958523
2035 1 21.8155 18.7266 0.264374
1293 1 19.0884 20.2955 0.249296
7206 2 20.9087 20.3092 1.58112
8131 2 0.906263 23.42 -1.00663
8129 2 1.81293 21.8788 1.56498
1955 1 2.72194 23.4338 0.216102
8130 2 3.63341 21.8515 -0.989597
1972 1 5.44893 21.8645 0.233199
7998 2 4.54212 23.4486 1.54783
8003 2 6.3625 23.42 -1.00663
8028 2 9.08965 21.8515 -0.989597
1819 1 8.17817 23.4338 0.216102
7997 2 7.26916 21.8788 1.56498
7818 2 11.8187 23.42 -1.00663
1818 1 10.9052 21.8645 0.233199
7780 2 9.99835 23.4486 1.54783
7817 2 14.5459 21.8515 -0.989597
1578 1 13.6344 23.4338 0.216102
7520 2 15.4546 23.4486 1.54783
7816 2 12.7254 21.8788 1.56498
7525 2 17.275 23.42 -1.00663
1611 1 16.3614 21.8645 0.233199
7519 2 18.1816 21.8788 1.56498
7556 2 20.0021 21.8515 -0.989597
2030 1 21.8176 21.8645 0.233199
1292 1 19.0907 23.4338 0.216102
7183 2 20.9108 23.4486 1.54783
8120 2 0.90828 26.5578 -1.04359
8116 2 1.8151 25.0187 1.52969
1954 1 2.72431 26.5732 0.178993
8133 2 3.63538 24.9887 -1.02464
1953 1 5.45122 25.0033 0.198024
7975 2 4.54436 26.5889 1.51059
8001 2 9.09162 24.9887 -1.02464
8002 2 6.36452 26.5578 -1.04359
8000 2 7.27134 25.0187 1.52969
1792 1 8.18055 26.5732 0.178993
7784 2 11.8208 26.5578 -1.04359
1821 1 10.9075 25.0033 0.198024
7779 2 10.0006 26.5889 1.51059
7820 2 14.5479 24.9887 -1.02464
7778 2 12.7276 25.0187 1.52969
1577 1 13.6368 26.5732 0.178993
7483 2 15.4568 26.5889 1.51059
7524 2 17.277 26.5578 -1.04359
1576 1 16.3637 25.0033 0.198024
7522 2 18.1838 25.0187 1.52969
7523 2 20.0041 24.9887 -1.02464
2031 1 21.8199 25.0033 0.198024
1261 1 19.093 26.5732 0.178993
7182 2 20.9131 26.5889 1.51059
8117 2 1.81741 28.1594 1.49057
8118 2 3.63743 28.1272 -1.06345
1956 1 5.45368 28.1433 0.159041
8004 2 9.09367 28.1272 -1.06345
7973 2 7.27365 28.1594 1.49057
1790 1 10.9099 28.1433 0.159041
7782 2 14.5499 28.1272 -1.06345
7781 2 12.7299 28.1594 1.49057
1579 1 16.3662 28.1433 0.159041
7481 2 18.1861 28.1594 1.49057
7526 2 20.0061 28.1272 -1.06345
2026 1 21.8224 28.1433 0.159041
8119 2 0.910346 29.6969 -1.08418
8104 2 1.81979 31.3014 1.4479
1939 1 2.72683 29.7138 0.138211
8121 2 3.6395 31.2672 -1.10572
1937 1 5.45625 31.2847 0.11655
7974 2 4.54671 29.7302 1.46965
7977 2 9.09574 31.2672 -1.10572
7979 2 6.36658 29.6969 -1.08418
1791 1 8.18307 29.7138 0.138211
7976 2 7.27603 31.3014 1.4479
7783 2 11.8228 29.6969 -1.08418
1793 1 10.9125 31.2847 0.11655
7744 2 10.003 29.7302 1.46965
7785 2 14.552 31.2672 -1.10572
1539 1 13.6393 29.7138 0.138211
7482 2 15.4592 29.7302 1.46965
7742 2 12.7323 31.3014 1.4479
7487 2 17.2791 29.6969 -1.08418
1537 1 16.3687 31.2847 0.11655
7484 2 18.1885 31.3014 1.4479
7485 2 20.0082 31.2672 -1.10572
2027 1 21.825 31.2847 0.11655
1260 1 19.0955 29.7138 0.138211
7151 2 20.9154 29.7302 1.46965
8108 2 0.912407 32.8379 -1.12803
8105 2 1.8222 34.4448 1.40211
1938 1 2.72944 32.856 0.0941167
8106 2 3.64154 34.4092 -1.15103
1940 1 5.45888 34.4279 0.0709792
7951 2 4.54912 32.8729 1.42536
7978 2 6.36865 32.8379 -1.12803
7980 2 9.09778 34.4092 -1.15103
1764 1 8.18568 32.856 0.0941167
7949 2 7.27844 34.4448 1.40211
7748 2 11.8249 32.8379 -1.12803
1762 1 10.9151 34.4279 0.0709792
7743 2 10.0054 32.8729 1.42536
7746 2 14.554 34.4092 -1.15103
1538 1 13.6419 32.856 0.0941167
7438 2 15.4616 32.8729 1.42536
7745 2 12.7347 34.4448 1.40211
7486 2 17.2811 32.8379 -1.12803
1540 1 16.3714 34.4279 0.0709792
7436 2 18.1909 34.4448 1.40211
7488 2 20.0103 34.4092 -1.15103
2022 1 21.8276 34.4279 0.0709792
1221 1 19.0982 32.856 0.0941167
7150 2 20.9178 32.8729 1.42536
8107 2 0.914412 35.9811 -1.17464
8092 2 1.82456 37.5901 1.35379
1923 1 2.73209 36.0003 0.0472159
2023 1 0.0052838 37.5733 0.0229162
8109 2 3.6435 37.5536 -1.19878
1921 1 5.46152 37.5733 0.0229162
7950 2 4.55151 36.0172 1.37823
7953 2 9.09974 37.5536 -1.19878
7955 2 6.37065 35.9811 -1.17464
1763 1 8.18832 36.0003 0.0472159
7952 2 7.2808 37.5901 1.35379
7747 2 11.8269 35.9811 -1.17464
1765 1 10.9178 37.5733 0.0229162
7708 2 10.0077 36.0172 1.37823
7749 2 14.556 37.5536 -1.19878
1499 1 13.6446 36.0003 0.0472159
7437 2 15.464 36.0172 1.37823
7706 2 12.737 37.5901 1.35379
7442 2 17.2831 35.9811 -1.17464
1497 1 16.374 37.5733 0.0229162
7439 2 18.1933 37.5901 1.35379
7440 2 20.0122 37.5536 -1.19878
1220 1 19.1008 36.0003 0.0472159
7111 2 20.9202 36.0172 1.37823
8096 2 0.916317 39.1269 -1.22334
8093 2 1.82684 40.7377 1.30368
1922 1 2.73471 39.1469 -0.00181917
2018 1 0.00787487 40.7212 -0.0268783
8094 2 3.64534 40.7009 -1.24821
1924 1 5.46411 40.7212 -0.0268783
7928 2 4.55384 39.1636 1.3289
7954 2 6.37256 39.1269 -1.22334
7956 2 9.10158 40.7009 -1.24821
1736 1 8.19095 39.1469 -0.00181917
7926 2 7.28308 40.7377 1.30368
7712 2 11.8288 39.1269 -1.22334
1734 1 10.9204 40.7212 -0.0268783
7707 2 10.0101 39.1636 1.3289
7710 2 14.5578 40.7009 -1.24821
1498 1 13.6472 39.1469 -0.00181917
7392 2 15.4663 39.1636 1.3289
7709 2 12.7393 40.7377 1.30368
7441 2 17.285 39.1269 -1.22334
1500 1 16.3766 40.7212 -0.0268783
7390 2 18.1956 40.7377 1.30368
7443 2 20.0141 40.7009 -1.24821
1174 1 19.1034 39.1469 -0.00181917
7110 2 20.9226 39.1636 1.3289
8084 2 1.82897 43.8878 1.25272
1908 1 2.73726 42.2962 -0.0521381
2019 1 0.0103697 43.872 -0.0774651
1906 1 5.46661 43.872 -0.0774651
7927 2 4.55604 42.3124 1.27824
1735 1 8.19349 42.2962 -0.0521381
7929 2 7.28521 43.8878 1.25272
1737 1 10.9228 43.872 -0.0774651
7676 2 10.0123 42.3124 1.27824
1460 1 13.6497 42.2962 -0.0521381
7391 2 15.4685 42.3124 1.27824
7674 2 12.7414 43.8878 1.25272
1458 1 16.3791 43.872 -0.0774651
7393 2 18.1977 43.8878 1.25272
1173 1 19.106 42.2962 -0.0521381
7064 2 20.9248 42.3124 1.27824
8085 2 1.83094 47.0408 1.20202
1907 1 2.73969 45.4487 -0.102716
2017 1 0.0127306 47.0261 -0.127737
1909 1 5.46897 47.0261 -0.127737
7912 2 4.5581 45.4639 1.22727
1712 1 8.19593 45.4487 -0.102716
7910 2 7.28718 47.0408 1.20202
1710 1 10.9252 47.0261 -0.127737
7675 2 10.0143 45.4639 1.22727
1459 1 13.6522 45.4487 -0.102716
7352 2 15.4706 45.4639 1.22727
7677 2 12.7434 47.0408 1.20202
1461 1 16.3814 47.0261 -0.127737
7350 2 18.1997 47.0408 1.20202
1127 1 19.1084 45.4487 -0.102716
7063 2 20.9268 45.4639 1.22727
1897 1 2.74197 48.6044 -0.152369
10339 2 1.83273 50.1971 1.15284
4094 1 0.0149255 50.1836 -0.176445
7911 2 4.55998 48.6185 1.17716
4057 1 5.47116 50.1836 -0.176445
1711 1 8.19821 48.6044 -0.152369
10248 2 7.28897 50.1971 1.15284
7649 2 10.0162 48.6185 1.17716
3933 1 10.9274 50.1836 -0.176445
1425 1 13.6544 48.6044 -0.152369
7351 2 15.4725 48.6185 1.17716
10050 2 12.7452 50.1971 1.15284
3705 1 16.3836 50.1836 -0.176445
9771 2 18.2014 50.1971 1.15284
1126 1 19.1107 48.6044 -0.152369
7016 2 20.9287 48.6185 1.17716
8163 2 1.80359 -0.0887046 1.69553
1998 1 0.892793 1.48309 2.95972
8058 2 2.71116 1.4879 4.26078
8062 2 4.53197 1.48018 1.69303
2008 1 3.62065 -0.0866212 2.96221
8057 2 5.43902 -0.0826177 4.26328
8072 2 7.25982 -0.0887046 1.69553
1874 1 9.07689 -0.0866212 2.96221
1875 1 6.34903 1.48309 2.95972
7859 2 8.1674 1.4879 4.26078
7875 2 9.98821 1.48018 1.69303
1646 1 11.8053 1.48309 2.95972
7873 2 10.8953 -0.0826177 4.26328
7587 2 15.4444 1.48018 1.69303
7874 2 12.7161 -0.0887046 1.69553
1656 1 14.5331 -0.0866212 2.96221
7583 2 13.6236 1.4879 4.26078
7595 2 18.1723 -0.0887046 1.69553
1338 1 17.2615 1.48309 2.95972
7582 2 16.3515 -0.0826177 4.26328
7232 2 20.9007 1.48018 1.69303
8162 2 21.8077 -0.0826177 4.26328
1337 1 19.9894 -0.0866212 2.96221
7229 2 19.0799 1.4879 4.26078
8164 2 1.80418 3.04907 1.68949
1997 1 0.893523 4.62253 2.95159
8042 2 2.71189 4.62893 4.25264
8061 2 4.53269 4.61796 1.6849
1996 1 3.62124 3.05281 2.95617
8059 2 5.43961 3.05841 4.25723
8060 2 7.26042 3.04907 1.68949
1863 1 6.34976 4.62253 2.95159
1876 1 9.07748 3.05281 2.95617
7858 2 8.16813 4.62893 4.25264
7863 2 9.98893 4.61796 1.6849
1645 1 11.806 4.62253 2.95159
7857 2 10.8959 3.05841 4.25723
7586 2 15.4452 4.61796 1.6849
7876 2 12.7167 3.04907 1.68949
1644 1 14.5337 3.05281 2.95617
7569 2 13.6244 4.62893 4.25264
7585 2 18.1729 3.04907 1.68949
1330 1 17.2622 4.62253 2.95159
7584 2 16.3521 3.05841 4.25723
7231 2 20.9014 4.61796 1.6849
8150 2 21.8083 3.05841 4.25723
1339 1 19.99 3.05281 2.95617
7228 2 19.0806 4.62893 4.25264
8152 2 1.80503 6.18687 1.67927
1983 1 0.894522 7.76202 2.93926
8041 2 2.71289 7.76999 4.24031
8046 2 4.53368 7.7558 1.67258
1999 1 3.62211 6.19227 2.94595
8040 2 5.44047 6.19945 4.247
8063 2 7.26127 6.18687 1.67927
1861 1 9.07835 6.19227 2.94595
1862 1 6.35076 7.76202 2.93926
7839 2 8.16913 7.76999 4.24031
7862 2 9.98991 7.7558 1.67258
1630 1 11.807 7.76202 2.93926
7860 2 10.8967 6.19945 4.247
7573 2 15.4462 7.7558 1.67258
7861 2 12.7175 6.18687 1.67927
1647 1 14.5346 6.19227 2.94595
7568 2 13.6254 7.76999 4.24031
7588 2 18.1737 6.18687 1.67927
1329 1 17.2632 7.76202 2.93926
7567 2 16.353 6.19945 4.247
7230 2 20.9024 7.7558 1.67258
8151 2 21.8092 6.19945 4.247
1328 1 19.9908 6.19227 2.94595
7221 2 19.0816 7.76999 4.24031
8153 2 1.80614 9.32475 1.66485
1982 1 0.895787 10.9016 2.92273
8019 2 2.71415 10.9111 4.22376
8045 2 4.53491 10.8937 1.65606
1981 1 3.62324 9.3318 2.93152
8043 2 5.4416 9.34054 4.23257
8044 2 7.26238 9.32475 1.66485
1843 1 6.35203 10.9016 2.92273
1864 1 9.07948 9.3318 2.93152
7838 2 8.17039 10.9111 4.22376
7843 2 9.99115 10.8937 1.65606
1629 1 11.8083 10.9016 2.92273
7837 2 10.8978 9.34054 4.23257
7572 2 15.4474 10.8937 1.65606
7864 2 12.7186 9.32475 1.66485
1628 1 14.5357 9.3318 2.93152
7547 2 13.6266 10.9111 4.22376
7571 2 18.1749 9.32475 1.66485
1314 1 17.2645 10.9016 2.92273
7570 2 16.3541 9.34054 4.23257
7223 2 20.9036 10.8937 1.65606
8138 2 21.8103 9.34054 4.23257
1331 1 19.992 9.3318 2.93152
7220 2 19.0829 10.9111 4.22376
8140 2 1.80751 12.4628 1.64622
1967 1 0.897313 14.0414 2.90195
8018 2 2.71568 14.0523 4.20297
8023 2 4.5364 14.0319 1.63531
1984 1 3.62464 12.4715 2.91287
8017 2 5.443 12.4817 4.2139
8047 2 7.26375 12.4628 1.64622
1841 1 9.08088 12.4715 2.91287
1842 1 6.35355 14.0414 2.90195
7811 2 8.17191 14.0523 4.20297
7842 2 9.99263 14.0319 1.63531
1606 1 11.8098 14.0414 2.90195
7840 2 10.8992 12.4817 4.2139
7551 2 15.4489 14.0319 1.63531
7841 2 12.72 12.4628 1.64622
1631 1 14.5371 12.4715 2.91287
7546 2 13.6282 14.0523 4.20297
7574 2 18.1762 12.4628 1.64622
1313 1 17.266 14.0414 2.90195
7545 2 16.3555 12.4817 4.2139
7222 2 20.9051 14.0319 1.63531
8139 2 21.8117 12.4817 4.2139
1312 1 19.9934 12.4715 2.91287
7205 2 19.0844 14.0523 4.20297
8141 2 1.8091 15.6011 1.62335
1966 1 0.899088 17.1814 2.8769
7995 2 2.71745 17.1938 4.17792
1965 1 3.62629 15.6114 2.88995
8020 2 5.44465 15.623 4.19098
8021 2 7.26534 15.6011 1.62335
1816 1 6.35533 17.1814 2.8769
1844 1 9.08253 15.6114 2.88995
7810 2 8.17369 17.1938 4.17792
1605 1 11.8116 17.1814 2.8769
7809 2 10.9009 15.623 4.19098
7844 2 12.7216 15.6011 1.62335
1604 1 14.5388 15.6114 2.88995
7517 2 13.6299 17.1938 4.17792
7549 2 18.1778 15.6011 1.62335
1290 1 17.2678 17.1814 2.8769
7548 2 16.3571 15.623 4.19098
8126 2 21.8134 15.623 4.19098
1315 1 19.995 15.6114 2.88995
7204 2 19.0862 17.1938 4.17792
1951 1 0.901099 20.3218 2.84762
7994 2 2.71948 20.3354 4.14866
1968 1 3.62818 18.7516 2.86278
7993 2 5.44655 18.7646 4.16382
1814 1 9.08442 18.7516 2.86278
1815 1 6.35734 20.3218 2.84762
7776 2 8.17571 20.3354 4.14866
1574 1 11.8136 20.3218 2.84762
7812 2 10.9028 18.7646 4.16382
1607 1 14.5407 18.7516 2.86278
7516 2 13.632 20.3354 4.14866
1289 1 17.2698 20.3218 2.84762
7515 2 16.359 18.7646 4.16382
8127 2 21.8153 18.7646 4.16382
1288 1 19.9969 18.7516 2.86278
7181 2 19.0882 20.3354 4.14866
1950 1 0.903328 23.4627 2.81421
7971 2 2.72172 23.4775 4.11527
1949 1 3.63031 21.8922 2.83142
7996 2 5.44869 21.9064 4.13247
1788 1 6.35957 23.4627 2.81421
1817 1 9.08655 21.8922 2.83142
7775 2 8.17796 23.4775 4.11527
1573 1 11.8158 23.4627 2.81421
7774 2 10.9049 21.9064 4.13247
1572 1 14.5428 21.8922 2.83142
7479 2 13.6342 23.4775 4.11527
1258 1 17.272 23.4627 2.81421
7518 2 16.3612 21.9064 4.13247
8114 2 21.8174 21.9064 4.13247
1291 1 19.999 21.8922 2.83142
7180 2 19.0904 23.4775 4.11527
1952 1 3.63263 25.0334 2.796
7969 2 5.45104 25.0486 4.09706
1786 1 9.08887 25.0334 2.796
7777 2 10.9073 25.0486 4.09706
1575 1 14.5451 25.0334 2.796
7477 2 16.3635 25.0486 4.09706
8115 2 21.8198 25.0486 4.09706
1256 1 20.0013 25.0334 2.796
1935 1 0.905743 26.6043 2.77681
7970 2 2.72417 26.62 4.07788
1933 1 3.63513 28.1754 2.75668
7972 2 5.45357 28.1915 4.05775
1787 1 6.36198 26.6043 2.77681
1789 1 9.09137 28.1754 2.75668
7740 2 8.1804 26.62 4.07788
1535 1 11.8182 26.6043 2.77681
7738 2 10.9098 28.1915 4.05775
1533 1 14.5476 28.1754 2.75668
7478 2 13.6366 26.62 4.07788
1257 1 17.2745 26.6043 2.77681
7480 2 16.366 28.1915 4.05775
8102 2 21.8223 28.1915 4.05775
1259 1 20.0038 28.1754 2.75668
7149 2 19.0929 26.62 4.07788
1934 1 0.908305 29.7467 2.73565
7947 2 2.72677 29.7632 4.03672
1936 1 3.63774 31.3184 2.71377
7945 2 5.45623 31.3351 4.01483
1758 1 9.09398 31.3184 2.71377
1760 1 6.36454 29.7467 2.73565
7739 2 8.18301 29.7632 4.03672
1534 1 11.8208 29.7467 2.73565
7741 2 10.9125 31.3351 4.01483
1536 1 14.5502 31.3184 2.71377
7434 2 13.6392 29.7632 4.03672
1218 1 17.277 29.7467 2.73565
7432 2 16.3687 31.3351 4.01483
8103 2 21.8249 31.3351 4.01483
1216 1 20.0065 31.3184 2.71377
7148 2 19.0955 29.7632 4.03672
1919 1 0.91096 32.8904 2.69108
7946 2 2.72948 32.9073 3.99214
1917 1 3.64042 34.4627 2.66766
7948 2 5.45898 34.4797 3.96871
1759 1 6.3672 32.8904 2.69108
1761 1 9.09666 34.4627 2.66766
7704 2 8.18572 32.9073 3.99214
1495 1 11.8234 32.8904 2.69108
7702 2 10.9152 34.4797 3.96871
1493 1 14.5529 34.4627 2.66766
7433 2 13.642 32.9073 3.99214
1217 1 17.2797 32.8904 2.69108
7435 2 16.3715 34.4797 3.96871
8090 2 21.8277 34.4797 3.96871
1219 1 20.0091 34.4627 2.66766
7109 2 19.0982 32.9073 3.99214
8091 2 0.00548581 37.6257 3.91994
1918 1 0.913646 36.0354 2.64358
7924 2 2.73223 36.0525 3.94461
1920 1 3.6431 37.6086 2.61894
7922 2 5.46172 37.6257 3.91994
1730 1 9.09934 37.6086 2.61894
1732 1 6.36988 36.0354 2.64358
7703 2 8.18847 36.0525 3.94461
1494 1 11.8261 36.0354 2.64358
7705 2 10.918 37.6257 3.91994
1496 1 14.5556 37.6086 2.61894
7388 2 13.6447 36.0525 3.94461
1171 1 17.2824 36.0354 2.64358
7386 2 16.3742 37.6257 3.91994
1169 1 20.0118 37.6086 2.61894
7108 2 19.1009 36.0525 3.94461
8082 2 0.00817389 40.7732 3.86926
1904 1 0.916297 39.1822 2.59383
7923 2 2.73496 39.1992 3.89478
1902 1 3.64571 40.7564 2.56836
7925 2 5.46441 40.7732 3.86926
1731 1 6.37254 39.1822 2.59383
1733 1 9.10195 40.7564 2.56836
7672 2 8.1912 39.1992 3.89478
1456 1 11.8288 39.1822 2.59383
7670 2 10.9207 40.7732 3.86926
1454 1 14.5582 40.7564 2.56836
7387 2 13.6474 39.1992 3.89478
1170 1 17.285 39.1822 2.59383
7389 2 16.3769 40.7732 3.86926
1172 1 20.0144 40.7564 2.56836
7062 2 19.1037 39.1992 3.89478
8083 2 0.010735 43.9226 3.81762
1903 1 0.918851 42.3311 2.54267
7908 2 2.73759 42.3476 3.84349
1905 1 3.64819 43.9064 2.51688
7906 2 5.46697 43.9226 3.81762
1706 1 9.10443 43.9064 2.51688
1708 1 6.37509 42.3311 2.54267
7671 2 8.19383 42.3476 3.84349
1455 1 11.8313 42.3311 2.54267
7673 2 10.9232 43.9226 3.81762
1457 1 14.5607 43.9064 2.51688
7348 2 13.6501 42.3476 3.84349
1124 1 17.2876 42.3311 2.54267
7346 2 16.3795 43.9226 3.81762
1122 1 20.0169 43.9064 2.51688
7061 2 19.1063 42.3476 3.84349
8081 2 0.0131167 47.0742 3.76612
1896 1 0.921256 45.4823 2.49114
7907 2 2.74007 45.4981 3.79178
1894 1 3.65051 47.0589 2.46561
7909 2 5.46936 47.0742 3.76612
1707 1 6.37749 45.4823 2.49114
1709 1 9.10675 47.0589 2.46561
7648 2 8.19631 45.4981 3.79178
1424 1 11.8337 45.4823 2.49114
7646 2 10.9256 47.0742 3.76612
1422 1 14.563 47.0589 2.46561
7347 2 13.6525 45.4981 3.79178
1123 1 17.29 45.4823 2.49114
7349 2 16.3818 47.0742 3.76612
1125 1 20.0192 47.0589 2.46561
7015 2 19.1088 45.4981 3.79178
1895 1 0.923471 48.6362 2.44045
7897 2 2.74235 48.651 3.74082
10338 2 0.0152881 50.2283 3.71605
4056 1 3.65262 50.2142 2.41582
10233 2 5.47153 50.2283 3.71605
1689 1 6.37971 48.6362 2.44045
7647 2 8.19859 48.651 3.74082
3922 1 9.10886 50.2142 2.41582
1423 1 11.8359 48.6362 2.44045
10049 2 10.9278 50.2283 3.71605
7313 2 13.6548 48.651 3.74082
3704 1 14.5651 50.2142 2.41582
1081 1 17.2922 48.6362 2.44045
9758 2 16.384 50.2283 3.71605
7014 2 19.1111 48.651 3.74082
3385 1 20.0213 50.2142 2.41582
1994 1 1.80036 -0.07934 5.54464
8038 2 0.89068 1.49639 6.83261
1859 1 4.52874 1.49199 5.54214
8056 2 3.61854 -0.0757416 6.8351
1873 1 7.2566 -0.07934 5.54464
7854 2 9.07478 -0.0757416 6.8351
7855 2 6.34692 1.49639 6.83261
1642 1 9.98498 1.49199 5.54214
7565 2 11.8032 1.49639 6.83261
1326 1 15.4412 1.49199 5.54214
1641 1 12.7128 -0.07934 5.54464
7581 2 14.531 -0.0757416 6.8351
1336 1 18.1691 -0.07934 5.54464
7226 2 17.2594 1.49639 6.83261
960 1 20.8975 1.49199 5.54214
7225 2 19.9873 -0.0757416 6.8351
1995 1 1.80096 3.06333 5.5386
8037 2 0.891401 4.64062 6.82449
1858 1 4.52948 4.63466 5.53401
8036 2 3.61913 3.06851 6.82907
1857 1 7.2572 3.06333 5.5386
7835 2 6.34764 4.64062 6.82449
7856 2 9.07536 3.06851 6.82907
1626 1 9.98571 4.63466 5.53401
7564 2 11.8039 4.64062 6.82449
1325 1 15.442 4.63466 5.53401
1643 1 12.7134 3.06333 5.5386
7563 2 14.5316 3.06851 6.82907
1324 1 18.1697 3.06333 5.5386
7218 2 17.2601 4.64062 6.82449
959 1 20.8982 4.63466 5.53401
7227 2 19.9878 3.06851 6.82907
1979 1 1.80183 6.20599 5.52837
8015 2 0.892392 7.78484 6.81218
1839 1 4.53048 7.77733 5.52168
8039 2 3.61998 6.21273 6.81886
1860 1 7.25806 6.20599 5.52837
7833 2 9.07622 6.21273 6.81886
7834 2 6.34863 7.78484 6.81218
1625 1 9.98672 7.77733 5.52168
7543 2 11.8049 7.78484 6.81218
1310 1 15.443 7.77733 5.52168
1624 1 12.7143 6.20599 5.52837
7566 2 14.5325 6.21273 6.81886
1327 1 18.1705 6.20599 5.52837
7217 2 17.2611 7.78484 6.81218
958 1 20.8992 7.77733 5.52168
7216 2 19.9887 6.21273 6.81886
1980 1 1.80297 9.34868 5.51393
8014 2 0.893655 10.9291 6.79565
1838 1 4.53176 10.92 5.50512
8013 2 3.62111 9.35695 6.80444
1837 1 7.25921 9.34868 5.51393
7807 2 6.34989 10.9291 6.79565
7836 2 9.07735 9.35695 6.80444
1602 1 9.988 10.92 5.50512
7542 2 11.8061 10.9291 6.79565
1309 1 15.4442 10.92 5.50512
1627 1 12.7154 9.34868 5.51393
7541 2 14.5336 9.35695 6.80444
1308 1 18.1717 9.34868 5.51393
7202 2 17.2624 10.9291 6.79565
951 1 20.9005 10.92 5.50512
7219 2 19.9898 9.35695 6.80444
1963 1 1.80438 12.4914 5.49525
7991 2 0.89519 14.0733 6.77488
1812 1 4.53331 14.0628 5.48431
8016 2 3.62251 12.5012 6.78579
1840 1 7.26062 12.4914 5.49525
7805 2 9.07875 12.5012 6.78579
7806 2 6.35143 14.0733 6.77488
1601 1 9.98955 14.0628 5.48431
7513 2 11.8077 14.0733 6.77488
1286 1 15.4458 14.0628 5.48431
1600 1 12.7169 12.4914 5.49525
7544 2 14.535 12.5012 6.78579
1311 1 18.1731 12.4914 5.49525
7201 2 17.2639 14.0733 6.77488
950 1 20.902 14.0628 5.48431
7200 2 19.9912 12.5012 6.78579
1964 1 1.80607 15.6343 5.4723
7990 2 0.896997 17.2176 6.74987
1811 1 4.53513 17.2057 5.45923
7989 2 3.62418 15.6454 6.7629
1810 1 7.26231 15.6343 5.4723
7772 2 6.35324 17.2176 6.74987
7808 2 9.08042 15.6454 6.7629
1570 1 9.99137 17.2057 5.45923
7512 2 11.8095 17.2176 6.74987
1285 1 15.4476 17.2057 5.45923
1603 1 12.7185 15.6343 5.4723
7511 2 14.5367 15.6454 6.7629
1284 1 18.1748 15.6343 5.4723
7178 2 17.2657 17.2176 6.74987
935 1 20.9038 17.2057 5.45923
7203 2 19.9929 15.6454 6.7629
1947 1 1.80802 18.7772 5.44509
7967 2 0.899071 20.3619 6.72064
1784 1 4.53721 20.3488 5.4299
7992 2 3.62612 18.7897 6.73578
1813 1 7.26426 18.7772 5.44509
7770 2 9.08236 18.7897 6.73578
7771 2 6.35531 20.3619 6.72064
1569 1 9.99345 20.3488 5.4299
7475 2 11.8115 20.3619 6.72064
1254 1 15.4497 20.3488 5.4299
1568 1 12.7205 18.7772 5.44509
7514 2 14.5386 18.7897 6.73578
1287 1 18.1767 18.7772 5.44509
7177 2 17.2678 20.3619 6.72064
934 1 20.9059 20.3488 5.4299
7176 2 19.9948 18.7897 6.73578
1948 1 1.81023 21.9204 5.41367
7966 2 0.901405 23.5064 6.68727
1783 1 4.53955 23.4921 5.39641
7965 2 3.62833 21.9341 6.70447
1782 1 7.26647 21.9204 5.41367
7736 2 6.35764 23.5064 6.68727
7773 2 9.08456 21.9341 6.70447
1531 1 9.99578 23.4921 5.39641
7474 2 11.8139 23.5064 6.68727
1253 1 15.452 23.4921 5.39641
1571 1 12.7227 21.9204 5.41367
7473 2 14.5408 21.9341 6.70447
1252 1 18.1789 21.9204 5.41367
7146 2 17.2701 23.5064 6.68727
911 1 20.9083 23.4921 5.39641
7179 2 19.997 21.9341 6.70447
1931 1 1.81268 25.0639 5.37814
7968 2 3.63078 25.0786 6.66906
1785 1 7.26892 25.0639 5.37814
7734 2 9.08702 25.0786 6.66906
1529 1 12.7252 25.0639 5.37814
7476 2 14.5433 25.0786 6.66906
1255 1 18.1814 25.0639 5.37814
7144 2 19.9995 25.0786 6.66906
1932 1 1.81534 28.2078 5.33866
7943 2 0.903982 26.651 6.64987
1756 1 4.54211 26.6358 5.35888
7941 2 3.63347 28.2234 6.62972
1754 1 7.27158 28.2078 5.33866
7735 2 6.36022 26.651 6.64987
7737 2 9.08971 28.2234 6.62972
1530 1 9.99834 26.6358 5.35888
7430 2 11.8165 26.651 6.64987
1214 1 15.4546 26.6358 5.35888
1532 1 12.7278 28.2078 5.33866
7428 2 14.5459 28.2234 6.62972
1212 1 18.1841 28.2078 5.33866
7145 2 17.2727 26.651 6.64987
910 1 20.9108 26.6358 5.35888
7147 2 20.0022 28.2234 6.62972
1915 1 1.81817 31.3522 5.29549
7942 2 0.90677 29.7959 6.60865
1755 1 4.54486 29.7799 5.31751
7944 2 3.63635 31.3685 6.58671
1757 1 7.27441 31.3522 5.29549
7698 2 9.09259 31.3685 6.58671
7700 2 6.36301 29.7959 6.60865
1491 1 10.0011 29.7799 5.31751
7429 2 11.8192 29.7959 6.60865
1213 1 15.4573 29.7799 5.31751
1489 1 12.7306 31.3522 5.29549
7431 2 14.5488 31.3685 6.58671
1215 1 18.1869 31.3522 5.29549
7106 2 17.2755 29.7959 6.60865
879 1 20.9136 29.7799 5.31751
7104 2 20.0051 31.3685 6.58671
1916 1 1.82111 34.4974 5.24903
7920 2 0.909722 32.9412 6.56393
1728 1 4.54775 32.9247 5.27264
7918 2 3.63936 34.5141 6.54038
1726 1 7.27735 34.4974 5.24903
7699 2 6.36596 32.9412 6.56393
7701 2 9.0956 34.5141 6.54038
1490 1 10.004 32.9247 5.27264
7384 2 11.8222 32.9412 6.56393
1167 1 15.4602 32.9247 5.27264
1492 1 12.7336 34.4974 5.24903
7382 2 14.5518 34.5141 6.54038
1165 1 18.1898 34.4974 5.24903
7105 2 17.2784 32.9412 6.56393
878 1 20.9165 32.9247 5.27264
7107 2 20.0081 34.5141 6.54038
1900 1 1.82409 37.6436 5.19982
7919 2 0.912776 36.0871 6.51614
1727 1 4.55072 36.0704 5.22472
7921 2 3.64244 37.6603 6.49129
1729 1 7.28032 37.6436 5.19982
7666 2 9.09868 37.6603 6.49129
7668 2 6.36901 36.0871 6.51614
1452 1 10.007 36.0704 5.22472
7383 2 11.8253 36.0871 6.51614
1166 1 15.4632 36.0704 5.22472
1450 1 12.7366 37.6436 5.19982
7385 2 14.5549 37.6603 6.49129
1168 1 18.1928 37.6436 5.19982
7059 2 17.2815 36.0871 6.51614
839 1 20.9194 36.0704 5.22472
7057 2 20.0112 37.6603 6.49129
1901 1 1.82702 40.7911 5.1486
7904 2 0.915857 39.2338 6.46591
1704 1 4.55368 39.2172 5.17441
7902 2 3.6455 40.8076 6.44013
1702 1 7.28326 40.7911 5.1486
7667 2 6.37209 39.2338 6.46591
7669 2 9.10174 40.8076 6.44013
1451 1 10.0099 39.2172 5.17441
7344 2 11.8283 39.2338 6.46591
1120 1 15.4662 39.2172 5.17441
1453 1 12.7395 40.7911 5.1486
7342 2 14.558 40.8076 6.44013
1118 1 18.1957 40.7911 5.1486
7058 2 17.2846 39.2338 6.46591
838 1 20.9224 39.2172 5.17441
7060 2 20.0142 40.8076 6.44013
1892 1 1.82984 43.9402 5.09631
7903 2 0.918878 42.3817 6.41406
1703 1 4.55657 42.3655 5.12252
7905 2 3.64846 43.9561 6.38783
1705 1 7.28607 43.9402 5.09631
7642 2 9.1047 43.9561 6.38783
7644 2 6.37512 42.3817 6.41406
1420 1 10.0128 42.3655 5.12252
7343 2 11.8314 42.3817 6.41406
1119 1 15.469 42.3655 5.12252
1418 1 12.7423 43.9402 5.09631
7345 2 14.5609 43.9561 6.38783
1121 1 18.1986 43.9402 5.09631
7012 2 17.2876 42.3817 6.41406
793 1 20.9253 42.3655 5.12252
7010 2 20.0172 43.9561 6.38783
1893 1 1.83246 47.0912 5.04408
7896 2 0.921755 45.5309 6.36159
1688 1 4.5593 45.5154 5.07011
7894 2 3.65124 47.1062 6.33551
1686 1 7.2887 47.0912 5.04408
7643 2 6.37799 45.5309 6.36159
7645 2 9.10747 47.1062 6.33551
1419 1 10.0155 45.5154 5.07011
7312 2 11.8342 45.5309 6.36159
1080 1 15.4718 45.5154 5.07011
1421 1 12.7449 47.0912 5.04408
7310 2 14.5637 47.1062 6.33551
1078 1 18.2012 47.0912 5.04408
7011 2 17.2905 45.5309 6.36159
792 1 20.928 45.5154 5.07011
7013 2 20.02 47.1062 6.33551
7895 2 0.924417 48.6819 6.30974
4042 1 1.83484 50.2442 4.99324
1687 1 4.5618 48.6674 5.0184
10232 2 3.65377 50.2582 6.28447
7625 2 6.38066 48.6819 6.30974
3921 1 7.29108 50.2442 4.99324
10030 2 9.11001 50.2582 6.28447
1393 1 10.018 48.6674 5.0184
7311 2 11.8369 48.6819 6.30974
1079 1 15.4743 48.6674 5.0184
3689 1 12.7473 50.2442 4.99324
9757 2 14.5662 50.2582 6.28447
6969 2 17.2931 48.6819 6.30974
3384 1 18.2036 50.2442 4.99324
747 1 20.9305 48.6674 5.0184
9401 2 20.0225 50.2582 6.28447
1855 1 2.70847 1.50063 8.11872
8034 2 1.79838 -0.0688437 9.40785
1854 1 5.43633 -0.072299 8.1212
7831 2 4.52675 1.50487 9.40537
1622 1 8.16471 1.50063 8.11872
7853 2 7.25462 -0.0688437 9.40785
1640 1 10.8926 -0.072299 8.1212
7561 2 9.98299 1.50487 9.40537
1322 1 13.6209 1.50063 8.11872
7214 2 15.4392 1.50487 9.40537
7560 2 12.7109 -0.0688437 9.40785
1321 1 16.3488 -0.072299 8.1212
7224 2 18.1671 -0.0688437 9.40785
1993 1 21.805 -0.072299 8.1212
957 1 19.0772 1.50063 8.11872
6848 2 20.8955 1.50487 9.40537
1835 1 2.70919 4.64648 8.11061
8035 2 1.79895 3.07858 9.40186
1856 1 5.43692 3.07356 8.11518
7830 2 4.52745 4.65227 9.3973
1621 1 8.16543 4.64648 8.11061
7829 2 7.25519 3.07858 9.40186
1620 1 10.8932 3.07356 8.11518
7539 2 9.98369 4.65227 9.3973
1306 1 13.6217 4.64648 8.11061
7213 2 15.4399 4.65227 9.3973
7562 2 12.7114 3.07858 9.40186
1323 1 16.3494 3.07356 8.11518
7212 2 18.1677 3.07858 9.40186
1977 1 21.8056 3.07356 8.11518
956 1 19.0779 4.64648 8.11061
6847 2 20.8962 4.65227 9.3973
1834 1 2.71018 7.79228 8.09831
8011 2 1.79978 6.22594 9.39169
1833 1 5.43777 6.21938 8.10498
7803 2 4.52841 7.7996 9.38504
1598 1 8.16642 7.79228 8.09831
7832 2 7.25602 6.22594 9.39169
1623 1 10.894 6.21938 8.10498
7538 2 9.98465 7.7996 9.38504
1305 1 13.6227 7.79228 8.09831
7198 2 15.4409 7.7996 9.38504
7537 2 12.7123 6.22594 9.39169
1304 1 16.3502 6.21938 8.10498
7215 2 18.1685 6.22594 9.39169
1978 1 21.8065 6.21938 8.10498
949 1 19.0789 7.79228 8.09831
6846 2 20.8971 7.7996 9.38504
1808 1 2.71144 10.938 8.08179
8012 2 1.80087 9.37324 9.37734
1836 1 5.43889 9.36517 8.09058
7802 2 4.52964 10.9469 9.36859
1597 1 8.16768 10.938 8.08179
7801 2 7.25711 9.37324 9.37734
1596 1 10.8951 9.36517 8.09058
7509 2 9.98588 10.9469 9.36859
1282 1 13.6239 10.938 8.08179
7197 2 15.4421 10.9469 9.36859
7540 2 12.7133 9.37324 9.37734
1307 1 16.3514 9.36517 8.09058
7196 2 18.1696 9.37324 9.37734
1961 1 21.8076 9.36517 8.09058
948 1 19.0802 10.938 8.08179
6839 2 20.8984 10.9469 9.36859
1807 1 2.71298 14.0838 8.06103
7987 2 1.80224 12.5205 9.35879
1806 1 5.4403 12.5109 8.07194
7768 2 4.53114 14.094 9.34793
1566 1 8.16922 14.0838 8.06103
7804 2 7.25847 12.5205 9.35879
1599 1 10.8965 12.5109 8.07194
7508 2 9.98738 14.094 9.34793
1281 1 13.6255 14.0838 8.06103
7174 2 15.4436 14.094 9.34793
7507 2 12.7147 12.5205 9.35879
1280 1 16.3528 12.5109 8.07194
7199 2 18.171 12.5205 9.35879
1962 1 21.809 12.5109 8.07194
933 1 19.0817 14.0838 8.06103
6838 2 20.8999 14.094 9.34793
1780 1 2.71481 17.2295 8.03603
7988 2 1.80388 15.6676 9.33602
1809 1 5.44198 15.6566 8.04906
7767 2 4.53292 17.2411 9.32305
1565 1 8.17104 17.2295 8.03603
7766 2 7.26012 15.6676 9.33602
1564 1 10.8982 15.6566 8.04906
7471 2 9.98916 17.2411 9.32305
1250 1 13.6273 17.2295 8.03603
7173 2 15.4454 17.2411 9.32305
7510 2 12.7164 15.6676 9.33602
1283 1 16.3545 15.6566 8.04906
7172 2 18.1726 15.6676 9.33602
1945 1 21.8107 15.6566 8.04906
932 1 19.0835 17.2295 8.03603
6823 2 20.9016 17.2411 9.32305
1779 1 2.71691 20.3751 8.00679
7963 2 1.8058 18.8146 9.30904
1778 1 5.44394 18.8023 8.02194
7732 2 4.53499 20.388 9.29398
1527 1 8.17315 20.3751 8.00679
7769 2 7.26204 18.8146 9.30904
1567 1 10.9002 18.8023 8.02194
7470 2 9.99123 20.388 9.29398
1249 1 13.6294 20.3751 8.00679
7142 2 15.4475 20.388 9.29398
7469 2 12.7183 18.8146 9.30904
1248 1 16.3564 18.8023 8.02194
7175 2 18.1745 18.8146 9.30904
1946 1 21.8127 18.8023 8.02194
909 1 19.0856 20.3751 8.00679
6822 2 20.9037 20.388 9.29398
1752 1 2.7193 23.5208 7.97338
7964 2 1.80801 21.9614 9.27789
1781 1 5.44619 21.948 7.9906
7731 2 4.53734 23.5348 9.26077
1526 1 8.17553 23.5208 7.97338
7730 2 7.26425 21.9614 9.27789
1525 1 10.9024 21.948 7.9906
7426 2 9.99358 23.5348 9.26077
1210 1 13.6318 23.5208 7.97338
7141 2 15.4498 23.5348 9.26077
7472 2 12.7205 21.9614 9.27789
1251 1 16.3587 21.948 7.9906
7140 2 18.1767 21.9614 9.27789
1929 1 21.8149 21.948 7.9906
908 1 19.088 23.5208 7.97338
6799 2 20.9061 23.5348 9.26077
7939 2 1.8105 25.1081 9.24265
1750 1 5.44871 25.0936 7.95514
7733 2 7.26674 25.1081 9.24265
1528 1 10.9049 25.0936 7.95514
7424 2 12.723 25.1081 9.24265
1208 1 16.3612 25.0936 7.95514
7143 2 18.1792 25.1081 9.24265
1930 1 21.8174 25.0936 7.95514
1751 1 2.72195 26.6664 7.9359
7940 2 1.81326 28.2547 9.20345
1753 1 5.45149 28.2393 7.91569
7696 2 4.53997 26.6814 9.22353
1487 1 8.17819 26.6664 7.9359
7694 2 7.2695 28.2547 9.20345
1485 1 10.9077 28.2393 7.91569
7425 2 9.9962 26.6814 9.22353
1209 1 13.6344 26.6664 7.9359
7102 2 15.4524 26.6814 9.22353
7427 2 12.7257 28.2547 9.20345
1211 1 16.364 28.2393 7.91569
7100 2 18.182 28.2547 9.20345
1913 1 21.8202 28.2393 7.91569
877 1 19.0907 26.6664 7.9359
6798 2 20.9087 26.6814 9.22353
1724 1 2.72485 29.8121 7.89454
7916 2 1.81627 31.4011 9.16052
1722 1 5.45449 31.385 7.87249
7695 2 4.54286 29.8279 9.18243
1486 1 8.18108 29.8121 7.89454
7697 2 7.27251 31.4011 9.16052
1488 1 10.9107 31.385 7.87249
7380 2 9.9991 29.8279 9.18243
1163 1 13.6373 29.8121 7.89454
7101 2 15.4553 29.8279 9.18243
7378 2 12.7287 31.4011 9.16052
1161 1 16.367 31.385 7.87249
7103 2 18.185 31.4011 9.16052
1914 1 21.8232 31.385 7.87249
876 1 19.0936 29.8121 7.89454
6767 2 20.9116 29.8279 9.18243
1723 1 2.72794 32.958 7.84959
7917 2 1.81948 34.5476 9.11418
1725 1 5.45766 34.5311 7.82589
7664 2 4.54598 32.9743 9.13775
1448 1 8.18418 32.958 7.84959
7662 2 7.27572 34.5476 9.11418
1446 1 10.9139 34.5311 7.82589
7379 2 10.0022 32.9743 9.13775
1162 1 13.6404 32.958 7.84959
7055 2 15.4585 32.9743 9.13775
7381 2 12.732 34.5476 9.11418
1164 1 16.3701 34.5311 7.82589
7053 2 18.1882 34.5476 9.11418
1898 1 21.8264 34.5311 7.82589
837 1 19.0967 32.958 7.84959
6766 2 20.9147 32.9743 9.13775
1700 1 2.73117 36.1042 7.80147
1899 1 0.00469299 37.6775 7.7764
7900 2 1.82283 37.6941 9.06491
1698 1 5.46093 37.6775 7.7764
7663 2 4.54927 36.1208 9.08988
1447 1 8.18741 36.1042 7.80147
7665 2 7.27907 37.6941 9.06491
1449 1 10.9172 37.6775 7.7764
7340 2 10.0055 36.1208 9.08988
1116 1 13.6436 36.1042 7.80147
7054 2 15.4617 36.1208 9.08988
7338 2 12.7353 37.6941 9.06491
1114 1 16.3734 37.6775 7.7764
7056 2 18.1915 37.6941 9.06491
836 1 19.0999 36.1042 7.80147
6728 2 20.918 36.1208 9.08988
1699 1 2.73446 39.2509 7.75077
1890 1 0.00797345 40.8245 7.7247
7901 2 1.82623 40.841 9.01338
1701 1 5.46421 40.8245 7.7247
7640 2 4.55265 39.2675 9.03938
1416 1 8.1907 39.2509 7.75077
7638 2 7.28247 40.841 9.01338
1414 1 10.9205 40.8245 7.7247
7339 2 10.0089 39.2675 9.03938
1115 1 13.6469 39.2509 7.75077
7008 2 15.4651 39.2675 9.03938
7341 2 12.7387 40.841 9.01338
1117 1 16.3767 40.8245 7.7247
7006 2 18.1949 40.841 9.01338
791 1 19.1032 39.2509 7.75077
6727 2 20.9214 39.2675 9.03938
1684 1 2.73771 42.3984 7.69829
1891 1 0.0111637 43.9725 7.6717
7892 2 1.82958 43.9884 8.96046
1682 1 5.4674 43.9725 7.6717
7639 2 4.55604 42.4146 8.98703
1415 1 8.19394 42.3984 7.69829
7641 2 7.28582 43.9884 8.96046
1417 1 10.9236 43.9725 7.6717
7308 2 10.0123 42.4146 8.98703
1076 1 13.6502 42.3984 7.69829
7007 2 15.4685 42.4146 8.98703
7306 2 12.7421 43.9884 8.96046
1074 1 16.3799 43.9725 7.6717
7009 2 18.1983 43.9884 8.96046
790 1 19.1064 42.3984 7.69829
6688 2 20.9248 42.4146 8.98703
1683 1 2.74081 45.547 7.64507
1889 1 0.0141685 47.1218 7.61856
7893 2 1.83277 47.1368 8.90726
1685 1 5.47041 47.1218 7.61856
7624 2 4.55932 45.5625 8.93382
1392 1 8.19705 45.547 7.64507
7622 2 7.28901 47.1368 8.90726
1390 1 10.9266 47.1218 7.61856
7307 2 10.0156 45.5625 8.93382
1075 1 13.6533 45.547 7.64507
6968 2 15.4718 45.5625 8.93382
7309 2 12.7453 47.1368 8.90726
1077 1 16.3829 47.1218 7.61856
6966 2 18.2015 47.1368 8.90726
746 1 19.1095 45.547 7.64507
6687 2 20.928 45.5625 8.93382
1673 1 2.7437 48.697 7.59234
4041 1 0.0169177 50.2727 7.56661
10210 2 1.83574 50.2866 8.85511
7623 2 4.56241 48.7115 8.88096
3902 1 5.47316 50.2727 7.56661
3901 1 3.65494 50.3004 10.1392
1391 1 8.19994 48.697 7.59234
3665 1 9.11118 50.3004 10.1392
10029 2 7.29198 50.2866 8.85511
7281 2 10.0186 48.7115 8.88096
3688 1 10.9294 50.2727 7.56661
1041 1 13.6562 48.697 7.59234
6967 2 15.4749 48.7115 8.88096
3368 1 14.5674 50.3004 10.1392
9736 2 12.7482 50.2866 8.85511
3369 1 16.3856 50.2727 7.56661
9400 2 18.2045 50.2866 8.85511
745 1 19.1124 48.697 7.59234
6648 2 20.9311 48.7115 8.88096
3001 1 20.0237 50.3004 10.1392
1831 1 0.88846 1.50917 10.6928
7827 2 2.7069 1.51334 11.978
1853 1 3.61633 -0.0653453 10.6953
7826 2 5.43478 -0.0619409 11.9804
1617 1 9.07257 -0.0653453 10.6953
1618 1 6.3447 1.50917 10.6928
7535 2 8.16313 1.51334 11.978
1302 1 11.8009 1.50917 10.6928
7559 2 10.891 -0.0619409 11.9804
1320 1 14.5288 -0.0653453 10.6953
7210 2 13.6194 1.51334 11.978
954 1 17.2572 1.50917 10.6928
7209 2 16.3473 -0.0619409 11.9804
953 1 19.985 -0.0653453 10.6953
8033 2 21.8035 -0.0619409 11.9804
6845 2 19.0756 1.51334 11.978
1830 1 0.889145 4.65814 10.6848
7799 2 2.70755 4.66386 11.97
1829 1 3.61689 3.08367 10.6893
7828 2 5.43531 3.08861 11.9745
1594 1 6.34538 4.65814 10.6848
1619 1 9.07313 3.08367 10.6893
7534 2 8.16379 4.66386 11.97
1301 1 11.8016 4.65814 10.6848
7533 2 10.8916 3.08861 11.9745
1300 1 14.5294 3.08367 10.6893
7194 2 13.62 4.66386 11.97
946 1 17.2579 4.65814 10.6848
7211 2 16.3478 3.08861 11.9745
955 1 19.9856 3.08367 10.6893
8009 2 21.804 3.08861 11.9745
6844 2 19.0763 4.66386 11.97
1804 1 0.89009 7.80704 10.6725
7798 2 2.70846 7.81426 11.9578
1832 1 3.6177 6.2326 10.6792
7797 2 5.43609 6.23907 11.9644
1592 1 9.07394 6.2326 10.6792
1593 1 6.34633 7.80704 10.6725
7505 2 8.1647 7.81426 11.9578
1278 1 11.8026 7.80704 10.6725
7536 2 10.8923 6.23907 11.9644
1303 1 14.5302 6.2326 10.6792
7193 2 13.6209 7.81426 11.9578
945 1 17.2588 7.80704 10.6725
7192 2 16.3486 6.23907 11.9644
944 1 19.9864 6.2326 10.6792
8010 2 21.8048 6.23907 11.9644
6837 2 19.0772 7.81426 11.9578
1803 1 0.891301 10.9558 10.6561
7764 2 2.70962 10.9645 11.9415
1802 1 3.61878 9.38144 10.6649
7800 2 5.43712 9.38941 11.9502
1562 1 6.34754 10.9558 10.6561
1595 1 9.07502 9.38144 10.6649
7504 2 8.16585 10.9645 11.9415
1277 1 11.8038 10.9558 10.6561
7503 2 10.8934 9.38941 11.9502
1276 1 14.5313 9.38144 10.6649
7170 2 13.6221 10.9645 11.9415
930 1 17.26 10.9558 10.6561
7195 2 16.3496 9.38941 11.9502
947 1 19.9875 9.38144 10.6649
7985 2 21.8058 9.38941 11.9502
6836 2 19.0783 10.9645 11.9415
1776 1 0.892787 14.1045 10.6355
7763 2 2.71104 14.1146 11.921
1805 1 3.62013 12.5302 10.6463
7762 2 5.43841 12.5396 11.9318
1560 1 9.07637 12.5302 10.6463
1561 1 6.34903 14.1045 10.6355
7467 2 8.16728 14.1146 11.921
1246 1 11.8053 14.1045 10.6355
7506 2 10.8947 12.5396 11.9318
1279 1 14.5326 12.5302 10.6463
7169 2 13.6235 14.1146 11.921
929 1 17.2615 14.1045 10.6355
7168 2 16.3509 12.5396 11.9318
928 1 19.9888 12.5302 10.6463
7986 2 21.8071 12.5396 11.9318
6821 2 19.0798 14.1146 11.921
1775 1 0.894555 17.2529 10.6107
7728 2 2.71274 17.2644 11.8964
1774 1 3.62175 15.6787 10.6236
7765 2 5.43997 15.6895 11.9092
1523 1 6.35079 17.2529 10.6107
1563 1 9.07799 15.6787 10.6236
7466 2 8.16897 17.2644 11.8964
1245 1 11.807 17.2529 10.6107
7465 2 10.8962 15.6895 11.9092
1244 1 14.5342 15.6787 10.6236
7138 2 13.6252 17.2644 11.8964
906 1 17.2633 17.2529 10.6107
7171 2 16.3524 15.6895 11.9092
931 1 19.9905 15.6787 10.6236
7961 2 21.8087 15.6895 11.9092
6820 2 19.0815 17.2644 11.8964
1748 1 0.896616 20.4011 10.5817
7727 2 2.71472 20.4139 11.8676
1777 1 3.62367 18.827 10.5967
7726 2 5.44181 18.8392 11.8825
1521 1 9.07991 18.827 10.5967
1522 1 6.35285 20.4011 10.5817
7422 2 8.17096 20.4139 11.8676
1206 1 11.8091 20.4011 10.5817
7468 2 10.898 18.8392 11.8825
1247 1 14.5361 18.827 10.5967
7137 2 13.6272 20.4139 11.8676
905 1 17.2653 20.4011 10.5817
7136 2 16.3543 18.8392 11.8825
904 1 19.9924 18.827 10.5967
7962 2 21.8105 18.8392 11.8825
6797 2 19.0834 20.4139 11.8676
1747 1 0.898978 23.5491 10.5485
7692 2 2.71701 23.563 11.8347
1746 1 3.62588 21.9751 10.5656
7729 2 5.44394 21.9885 11.8516
1483 1 6.35522 23.5491 10.5485
1524 1 9.08212 21.9751 10.5656
7421 2 8.17324 23.563 11.8347
1205 1 11.8115 23.5491 10.5485
7420 2 10.9002 21.9885 11.8516
1204 1 14.5384 21.9751 10.5656
7098 2 13.6295 23.563 11.8347
874 1 17.2677 23.5491 10.5485
7139 2 16.3564 21.9885 11.8516
907 1 19.9946 21.9751 10.5656
7937 2 21.8127 21.9885 11.8516
6796 2 19.0857 23.563 11.8347
1749 1 3.62839 25.1229 10.5304
7690 2 5.44638 25.1374 11.8167
1481 1 9.08463 25.1229 10.5304
7423 2 10.9026 25.1374 11.8167
1207 1 14.5409 25.1229 10.5304
7096 2 16.3589 25.1374 11.8167
872 1 19.9971 25.1229 10.5304
7938 2 21.8151 25.1374 11.8167
1720 1 0.901642 26.6967 10.5113
7691 2 2.7196 26.7116 11.7978
1718 1 3.6312 28.2703 10.4912
7693 2 5.44913 28.2857 11.7779
1482 1 6.35788 26.6967 10.5113
1484 1 9.08744 28.2703 10.4912
7376 2 8.17584 26.7116 11.7978
1159 1 11.8141 26.6967 10.5113
7374 2 10.9054 28.2857 11.7779
1157 1 14.5437 28.2703 10.4912
7097 2 13.6321 26.7116 11.7978
873 1 17.2704 26.6967 10.5113
7099 2 16.3616 28.2857 11.7779
875 1 19.9999 28.2703 10.4912
7914 2 21.8178 28.2857 11.7779
6765 2 19.0883 26.7116 11.7978
1719 1 0.904596 29.8439 10.4701
1692 1 1.8138 31.4499 13.0237
7660 2 2.7225 29.8597 11.757
1721 1 3.63429 31.4174 10.4482
7658 2 5.45218 31.4336 11.7352
1442 1 9.09053 31.4174 10.4482
1444 1 6.36083 29.8439 10.4701
1441 1 7.27004 31.4499 13.0237
7375 2 8.17874 29.8597 11.757
1158 1 11.8171 29.8439 10.4701
7377 2 10.9084 31.4336 11.7352
1160 1 14.5468 31.4174 10.4482
1106 1 12.7263 31.4499 13.0237
7051 2 13.635 29.8597 11.757
834 1 17.2733 29.8439 10.4701
831 1 18.1825 31.4499 13.0237
7049 2 16.3647 31.4336 11.7352
832 1 20.003 31.4174 10.4482
7915 2 21.8209 31.4336 11.7352
6764 2 19.0912 29.8597 11.757
1696 1 0.907813 32.9909 10.4253
1693 1 1.8172 34.5975 12.9775
7659 2 2.72569 33.0073 11.7126
1694 1 3.63763 34.5642 10.4017
1408 1 4.54358 33.0238 13.001
7661 2 5.45551 34.5809 11.6891
1443 1 6.36405 32.9909 10.4253
1445 1 9.09386 34.5642 10.4017
1406 1 7.27344 34.5975 12.9775
7336 2 8.18193 33.0073 11.7126
1112 1 11.8203 32.9909 10.4253
1107 1 9.99982 33.0238 13.001
7334 2 10.9117 34.5809 11.6891
1110 1 14.5501 34.5642 10.4017
784 1 15.4561 33.0238 13.001
1109 1 12.7297 34.5975 12.9775
7050 2 13.6382 33.0073 11.7126
833 1 17.2765 32.9909 10.4253
782 1 18.1859 34.5975 12.9775
7052 2 16.368 34.5809 11.6891
835 1 20.0063 34.5642 10.4017
7898 2 21.8242 34.5809 11.6891
510 1 20.9123 33.0238 13.001
6726 2 19.0944 33.0073 11.7126
1695 1 0.911244 36.1375 10.3772
1676 1 1.82088 37.7443 12.9281
7636 2 2.72914 36.1543 11.6648
1697 1 3.64114 37.7108 10.3521
1407 1 4.54713 36.171 12.9531
7634 2 5.45906 37.7276 11.6398
1410 1 9.09738 37.7108 10.3521
1412 1 6.36748 36.1375 10.3772
1409 1 7.27712 37.7443 12.9281
7335 2 8.18538 36.1543 11.6648
1111 1 11.8237 36.1375 10.3772
1068 1 10.0034 36.171 12.9531
7337 2 10.9153 37.7276 11.6398
1113 1 14.5536 37.7108 10.3521
783 1 15.4596 36.171 12.9531
1066 1 12.7334 37.7443 12.9281
7004 2 13.6416 36.1543 11.6648
788 1 17.28 36.1375 10.3772
785 1 18.1896 37.7443 12.9281
7002 2 16.3715 37.7276 11.6398
786 1 20.0099 37.7108 10.3521
7899 2 21.8278 37.7276 11.6398
475 1 20.9158 36.171 12.9531
6725 2 19.0979 36.1543 11.6648
1680 1 0.914813 39.2841 10.3263
1677 1 1.82475 40.8905 12.8759
7635 2 2.73278 39.3009 11.6142
7890 2 0.00651891 40.8741 11.5881
1678 1 3.64474 40.8574 10.3001
1384 1 4.55092 39.3175 12.9023
7637 2 5.46276 40.8741 11.5881
1411 1 6.37105 39.2841 10.3263
1413 1 9.10097 40.8574 10.3001
1382 1 7.28099 40.8905 12.8759
7304 2 8.18902 39.3009 11.6142
1072 1 11.8273 39.2841 10.3263
1067 1 10.0072 39.3175 12.9023
7302 2 10.919 40.8741 11.5881
1070 1 14.5572 40.8574 10.3001
739 1 15.4634 39.3175 12.9023
1069 1 12.7372 40.8905 12.8759
7003 2 13.6453 39.3009 11.6142
787 1 17.2835 39.2841 10.3263
737 1 18.1935 40.8905 12.8759
7005 2 16.3752 40.8741 11.5881
789 1 20.0135 40.8574 10.3001
474 1 20.9196 39.3175 12.9023
6686 2 19.1015 39.3009 11.6142
1679 1 0.918415 42.4307 10.2734
1668 1 1.82871 44.0362 12.8218
7620 2 2.73651 42.4473 11.5615
7891 2 0.0102497 44.0205 11.5346
1681 1 3.64831 44.0042 10.2465
1383 1 4.55485 42.4634 12.849
7618 2 5.46649 44.0205 11.5346
1386 1 9.10455 44.0042 10.2465
1388 1 6.37465 42.4307 10.2734
1385 1 7.28495 44.0362 12.8218
7303 2 8.19275 42.4473 11.5615
1071 1 11.8309 42.4307 10.2734
1036 1 10.0111 42.4634 12.849
7305 2 10.9227 44.0205 11.5346
1073 1 14.5608 44.0042 10.2465
738 1 15.4673 42.4634 12.849
1034 1 12.7412 44.0362 12.8218
6964 2 13.649 42.4473 11.5615
743 1 17.2871 42.4307 10.2734
740 1 18.1974 44.0362 12.8218
6962 2 16.379 44.0205 11.5346
741 1 20.017 44.0042 10.2465
439 1 20.9236 42.4634 12.849
6685 2 19.1052 42.4473 11.5615
1672 1 0.921933 45.5779 10.2194
1669 1 1.83261 47.1819 12.7668
7619 2 2.74021 45.5938 11.5075
7889 2 0.0138937 47.1672 11.4805
1670 1 3.65174 47.1517 10.1924
1368 1 4.5588 45.609 12.7943
7621 2 5.47013 47.1672 11.4805
1387 1 6.37817 45.5779 10.2194
1389 1 9.10798 47.1517 10.1924
1366 1 7.28885 47.1819 12.7668
7280 2 8.19645 45.5938 11.5075
1040 1 11.8344 45.5779 10.2194
1035 1 10.015 45.609 12.7943
7278 2 10.9264 47.1672 11.4805
1038 1 14.5642 47.1517 10.1924
701 1 15.4713 45.609 12.7943
1037 1 12.7451 47.1819 12.7668
6963 2 13.6527 45.5938 11.5075
742 1 17.2906 45.5779 10.2194
699 1 18.2013 47.1819 12.7668
6965 2 16.3826 47.1672 11.4805
744 1 20.0205 47.1517 10.1924
438 1 20.9275 45.609 12.7943
6647 2 19.1089 45.5938 11.5075
1671 1 0.925257 48.7259 10.1656
7609 2 2.74377 48.7408 11.4536
3875 1 1.83633 50.3281 12.7122
10209 2 0.0173458 50.3146 11.4271
1367 1 4.56262 48.7549 12.7393
10002 2 5.47358 50.3146 11.4271
1369 1 6.38149 48.7259 10.1656
7279 2 8.20001 48.7408 11.4536
3664 1 7.29257 50.3281 12.7122
1039 1 11.8377 48.7259 10.1656
1009 1 10.0189 48.7549 12.7393
9735 2 10.9298 50.3146 11.4271
700 1 15.4751 48.7549 12.7393
6929 2 13.6562 48.7408 11.4536
3345 1 12.7488 50.3281 12.7122
702 1 17.294 48.7259 10.1656
3000 1 18.205 50.3281 12.7122
9385 2 16.3861 50.3146 11.4271
403 1 20.9313 48.7549 12.7393
6646 2 19.1125 48.7408 11.4536
1827 1 1.79664 -0.0584232 13.268
7795 2 0.887355 1.5218 14.55
1586 1 2.7056 1.52611 15.8374
1590 1 4.52499 1.51765 13.2656
7825 2 3.61526 -0.0550361 14.5524
1585 1 5.43351 -0.0515097 15.8398
1616 1 7.25288 -0.0584232 13.268
7530 2 9.07149 -0.0550361 14.5524
7531 2 6.34359 1.5218 14.55
1270 1 8.16184 1.52611 15.8374
1298 1 9.98123 1.51765 13.2656
7190 2 11.7998 1.5218 14.55
1296 1 10.8898 -0.0515097 15.8398
942 1 15.4375 1.51765 13.2656
1297 1 12.7091 -0.0584232 13.268
7208 2 14.5277 -0.0550361 14.5524
938 1 13.6181 1.52611 15.8374
952 1 18.1654 -0.0584232 13.268
6842 2 17.2561 1.5218 14.55
937 1 16.346 -0.0515097 15.8398
592 1 20.8937 1.51765 13.2656
6841 2 19.984 -0.0550361 14.5524
1826 1 21.8022 -0.0515097 15.8398
589 1 19.0743 1.52611 15.8374
1828 1 1.79716 3.09371 13.2621
7794 2 0.887955 4.6754 14.5421
1554 1 2.70617 4.68127 15.8296
1589 1 4.52563 4.66973 13.2576
7793 2 3.61575 3.09862 14.5466
1587 1 5.43398 3.10371 15.834
1588 1 7.2534 3.09371 13.2621
7501 2 6.34419 4.6754 14.5421
7532 2 9.07199 3.09862 14.5466
1269 1 8.16241 4.68127 15.8296
1274 1 9.98187 4.66973 13.2576
7189 2 11.8004 4.6754 14.5421
1268 1 10.8902 3.10371 15.834
941 1 15.4381 4.66973 13.2576
1299 1 12.7096 3.09371 13.2621
7188 2 14.5282 3.09862 14.5466
922 1 13.6186 4.68127 15.8296
940 1 18.1659 3.09371 13.2621
6834 2 17.2567 4.6754 14.5421
939 1 16.3465 3.10371 15.834
591 1 20.8943 4.66973 13.2576
6843 2 19.9845 3.09862 14.5466
1798 1 21.8027 3.10371 15.834
588 1 19.0749 4.68127 15.8296
1800 1 1.79791 6.24573 13.2521
7760 2 0.888776 7.82885 14.5301
1553 1 2.70695 7.83626 15.8176
1558 1 4.5265 7.82168 13.2455
7796 2 3.61646 6.25215 14.5366
1552 1 5.43465 6.25879 15.8241
1591 1 7.25415 6.24573 13.2521
7499 2 9.07269 6.25215 14.5366
7500 2 6.34501 7.82885 14.5301
1238 1 8.16319 7.83626 15.8176
1273 1 9.98274 7.82168 13.2455
7166 2 11.8013 7.82885 14.5301
1271 1 10.8909 6.25879 15.8241
926 1 15.439 7.82168 13.2455
1272 1 12.7104 6.24573 13.2521
7191 2 14.5289 6.25215 14.5366
921 1 13.6194 7.83626 15.8176
943 1 18.1666 6.24573 13.2521
6833 2 17.2575 7.82885 14.5301
920 1 16.3471 6.25879 15.8241
590 1 20.8952 7.82168 13.2455
6832 2 19.9852 6.25215 14.5366
1799 1 21.8034 6.25879 15.8241
581 1 19.0757 7.83626 15.8176
1801 1 1.79891 9.39759 13.2379
7759 2 0.889828 10.9821 14.514
1515 1 2.70794 10.991 15.8016
1557 1 4.52762 10.9734 13.2293
7758 2 3.61739 9.4055 14.5225
1555 1 5.43554 9.41366 15.8101
1556 1 7.25515 9.39759 13.2379
7463 2 6.34607 10.9821 14.514
7502 2 9.07363 9.4055 14.5225
1237 1 8.16418 10.991 15.8016
1242 1 9.98386 10.9734 13.2293
7165 2 11.8023 10.9821 14.514
1236 1 10.8918 9.41366 15.8101
925 1 15.4401 10.9734 13.2293
1275 1 12.7114 9.39759 13.2379
7164 2 14.5299 9.4055 14.5225
898 1 13.6204 10.991 15.8016
924 1 18.1676 9.39759 13.2379
6818 2 17.2585 10.9821 14.514
923 1 16.348 9.41366 15.8101
583 1 20.8963 10.9734 13.2293
6835 2 19.9861 9.4055 14.5225
1770 1 21.8043 9.41366 15.8101
580 1 19.0767 10.991 15.8016
1772 1 1.80016 12.5492 13.2196
7724 2 0.891124 14.135 14.4938
1514 1 2.70917 14.1454 15.7815
1519 1 4.529 14.125 13.2089
7761 2 3.61856 12.5586 14.5044
1513 1 5.43665 12.5683 15.7921
1559 1 7.2564 12.5492 13.2196
7461 2 9.0748 12.5586 14.5044
7462 2 6.34736 14.135 14.4938
1198 1 8.16541 14.1454 15.7815
1241 1 9.98524 14.125 13.2089
7134 2 11.8036 14.135 14.4938
1239 1 10.8929 12.5683 15.7921
902 1 15.4415 14.125 13.2089
1240 1 12.7126 12.5492 13.2196
7167 2 14.531 12.5586 14.5044
897 1 13.6216 14.1454 15.7815
927 1 18.1689 12.5492 13.2196
6817 2 17.2598 14.135 14.4938
896 1 16.3491 12.5683 15.7921
582 1 20.8977 14.125 13.2089
6816 2 19.9873 12.5586 14.5044
1771 1 21.8054 12.5683 15.7921
565 1 19.0779 14.1454 15.7815
1773 1 1.80167 15.7006 13.1971
7723 2 0.892678 17.2876 14.4694
1475 1 2.71065 17.2994 15.7574
1518 1 4.53066 17.2762 13.1844
7722 2 3.61999 15.7114 14.4821
1516 1 5.438 15.7225 15.77
1517 1 7.25791 15.7006 13.1971
7418 2 6.34892 17.2876 14.4694
7464 2 9.07622 15.7114 14.4821
1197 1 8.16689 17.2994 15.7574
1202 1 9.98689 17.2762 13.1844
7133 2 11.8052 17.2876 14.4694
1196 1 10.8942 15.7225 15.77
901 1 15.4431 17.2762 13.1844
1243 1 12.7142 15.7006 13.1971
7132 2 14.5325 15.7114 14.4821
866 1 13.6231 17.2994 15.7574
900 1 18.1704 15.7006 13.1971
6794 2 17.2614 17.2876 14.4694
899 1 16.3505 15.7225 15.77
567 1 20.8994 17.2762 13.1844
6819 2 19.9887 15.7114 14.4821
1742 1 21.8067 15.7225 15.77
564 1 19.0794 17.2994 15.7574
1744 1 1.80347 18.8516 13.1705
7688 2 0.894512 20.4397 14.4411
1474 1 2.7124 20.4528 15.7292
1479 1 4.5326 20.4269 13.1557
7725 2 3.62168 18.8637 14.4558
1473 1 5.43961 18.8762 15.7438
1520 1 7.25971 18.8516 13.1705
7416 2 9.07792 18.8637 14.4558
7417 2 6.35075 20.4397 14.4411
1151 1 8.16864 20.4528 15.7292
1201 1 9.98884 20.4269 13.1557
7094 2 11.807 20.4397 14.4411
1199 1 10.8958 18.8762 15.7438
870 1 15.4451 20.4269 13.1557
1200 1 12.7159 18.8516 13.1705
7135 2 14.5342 18.8637 14.4558
865 1 13.6249 20.4528 15.7292
903 1 18.1722 18.8516 13.1705
6793 2 17.2632 20.4397 14.4411
864 1 16.3521 18.8762 15.7438
566 1 20.9013 20.4269 13.1557
6792 2 19.9904 18.8637 14.4558
1743 1 21.8083 18.8762 15.7438
541 1 19.0811 20.4528 15.7292
1745 1 1.80557 22.0021 13.1398
7687 2 0.896648 23.5912 14.4086
1436 1 2.71446 23.6054 15.697
1478 1 4.53485 23.5772 13.1229
7686 2 3.62366 22.0155 14.4253
1476 1 5.44151 22.0292 15.7136
1477 1 7.2618 22.0021 13.1398
7372 2 6.35289 23.5912 14.4086
7419 2 9.0799 22.0155 14.4253
1150 1 8.1707 23.6054 15.697
1155 1 9.99109 23.5772 13.1229
7093 2 11.8091 23.5912 14.4086
1149 1 10.8978 22.0292 15.7136
869 1 15.4473 23.5772 13.1229
1203 1 12.718 22.0021 13.1398
7092 2 14.5361 22.0155 14.4253
826 1 13.6269 23.6054 15.697
868 1 18.1743 22.0021 13.1398
6762 2 17.2654 23.5912 14.4086
867 1 16.354 22.0292 15.7136
543 1 20.9036 23.5772 13.1229
6795 2 19.9924 22.0155 14.4253
1714 1 21.8102 22.0292 15.7136
540 1 19.0832 23.6054 15.697
1716 1 1.80798 25.1521 13.105
7689 2 3.62596 25.1666 14.3909
1434 1 5.44373 25.1814 15.6794
1480 1 7.26422 25.1521 13.105
7370 2 9.08219 25.1666 14.3909
1152 1 10.9 25.1814 15.6794
1153 1 12.7205 25.1521 13.105
7095 2 14.5384 25.1666 14.3909
871 1 18.1767 25.1521 13.105
824 1 16.3562 25.1814 15.6794
6760 2 19.9947 25.1666 14.3909
1715 1 21.8124 25.1814 15.6794
1717 1 1.81072 28.3014 13.0663
7656 2 0.899109 26.7419 14.3722
1435 1 2.71685 26.7572 15.6608
1440 1 4.53743 26.7268 13.0861
7654 2 3.62859 28.3169 14.3526
1437 1 5.4463 28.3327 15.6412
1438 1 7.26696 28.3014 13.0663
7371 2 6.35535 26.7419 14.3722
7373 2 9.08483 28.3169 14.3526
1104 1 8.17309 26.7572 15.6608
1154 1 9.99367 26.7268 13.0861
7047 2 11.8116 26.7419 14.3722
1102 1 10.9025 28.3327 15.6412
830 1 15.4499 26.7268 13.0861
1156 1 12.7232 28.3014 13.0663
7045 2 14.5411 28.3169 14.3526
825 1 13.6293 26.7572 15.6608
828 1 18.1794 28.3014 13.0663
6761 2 17.2678 26.7419 14.3722
827 1 16.3588 28.3327 15.6412
542 1 20.9061 26.7268 13.0861
6763 2 19.9973 28.3169 14.3526
1690 1 21.815 28.3327 15.6412
509 1 19.0856 26.7572 15.6608
7655 2 0.901916 29.8917 14.332
1404 1 2.71961 29.9079 15.6207
1439 1 4.54034 29.8757 13.0454
7657 2 3.63157 31.4662 14.3104
1402 1 5.44925 31.4828 15.5993
7330 2 9.08781 31.4662 14.3104
7332 2 6.35815 29.8917 14.332
1103 1 8.17585 29.9079 15.6207
1108 1 9.99658 29.8757 13.0454
7046 2 11.8144 29.8917 14.332
1105 1 10.9055 31.4828 15.5993
829 1 15.4528 29.8757 13.0454
7048 2 14.544 31.4662 14.3104
780 1 13.6321 29.9079 15.6207
6723 2 17.2706 29.8917 14.332
778 1 16.3617 31.4828 15.5993
511 1 20.9091 29.8757 13.0454
6721 2 20.0003 31.4662 14.3104
1691 1 21.818 31.4828 15.5993
508 1 19.0883 29.9079 15.6207
7632 2 0.905077 33.0405 14.288
1403 1 2.72276 33.0573 15.5769
7630 2 3.63491 34.6145 14.2647
1405 1 5.4526 34.6315 15.5537
7331 2 6.36132 33.0405 14.288
7333 2 9.09115 34.6145 14.2647
1064 1 8.179 33.0573 15.5769
7000 2 11.8176 33.0405 14.288
1062 1 10.9088 34.6315 15.5537
6998 2 14.5474 34.6145 14.2647
779 1 13.6352 33.0573 15.5769
6722 2 17.2738 33.0405 14.288
781 1 16.3651 34.6315 15.5537
6724 2 20.0036 34.6145 14.2647
1674 1 21.8213 34.6315 15.5537
473 1 19.0915 33.0573 15.5769
7631 2 0.908583 36.1883 14.2406
1380 1 2.7263 36.2053 15.5296
7633 2 3.63857 37.7617 14.2157
1378 1 5.45634 37.7788 15.5046
7298 2 9.09481 37.7617 14.2157
7300 2 6.36482 36.1883 14.2406
1063 1 8.18254 36.2053 15.5296
6999 2 11.8211 36.1883 14.2406
1065 1 10.9126 37.7788 15.5046
7001 2 14.5511 37.7617 14.2157
735 1 13.6388 36.2053 15.5296
6683 2 17.2773 36.1883 14.2406
733 1 16.3688 37.7788 15.5046
6681 2 20.0073 37.7617 14.2157
1675 1 21.8251 37.7788 15.5046
472 1 19.095 36.2053 15.5296
7616 2 0.912394 39.3349 14.1901
1379 1 2.73022 39.3519 15.479
1666 1 0.00417584 40.9247 15.4526
7614 2 3.64251 40.9079 14.1639
1381 1 5.46041 40.9247 15.4526
7299 2 6.36863 39.3349 14.1901
7301 2 9.09875 40.9079 14.1639
1032 1 8.18646 39.3519 15.479
6960 2 11.8249 39.3349 14.1901
1030 1 10.9167 40.9247 15.4526
6958 2 14.555 40.9079 14.1639
734 1 13.6427 39.3519 15.479
6682 2 17.2811 39.3349 14.1901
736 1 16.3729 40.9247 15.4526
6684 2 20.0112 40.9079 14.1639
437 1 19.0989 39.3519 15.479
7615 2 0.916426 42.4806 14.1372
1364 1 2.73443 42.4972 15.4256
1667 1 0.00849161 44.0694 15.3982
7617 2 3.64661 44.0532 14.11
1362 1 5.46473 44.0694 15.3982
7274 2 9.10285 44.0532 14.11
7276 2 6.37266 42.4806 14.1372
1031 1 8.19067 42.4972 15.4256
6959 2 11.8289 42.4806 14.1372
1033 1 10.921 44.0694 15.3982
6961 2 14.5591 44.0532 14.11
697 1 13.6469 42.4972 15.4256
6644 2 17.2851 42.4806 14.1372
695 1 16.3772 44.0694 15.3982
6642 2 20.0153 44.0532 14.11
436 1 19.1031 42.4972 15.4256
7608 2 0.920557 45.6257 14.0826
1363 1 2.73881 45.6414 15.3703
1665 1 0.0128973 47.2133 15.3422
7606 2 3.65073 47.1982 14.055
1365 1 5.46914 47.2133 15.3422
7275 2 6.3768 45.6257 14.0826
7277 2 9.10697 47.1982 14.055
1008 1 8.19505 45.6414 15.3703
6928 2 11.833 45.6257 14.0826
1006 1 10.9254 47.2133 15.3422
6926 2 14.5632 47.1982 14.055
696 1 13.6513 45.6414 15.3703
6643 2 17.2893 45.6257 14.0826
698 1 16.3816 47.2133 15.3422
6645 2 20.0194 47.1982 14.055
402 1 19.1075 45.6414 15.3703
7607 2 0.924644 48.7707 14.0274
1353 1 2.7432 48.7852 15.3141
7257 2 6.38088 48.7707 14.0274
1007 1 8.19944 48.7852 15.3141
6927 2 11.8371 48.7707 14.0274
664 1 13.6557 48.7852 15.3141
6609 2 17.2934 48.7707 14.0274
401 1 19.1119 48.7852 15.3141
7791 2 1.79606 -0.0481256 17.1238
1550 1 0.886542 1.53457 18.4085
7497 2 4.52438 1.53026 17.1214
1584 1 3.61448 -0.0445926 18.4108
7529 2 7.2523 -0.0481256 17.1238
1265 1 9.07072 -0.0445926 18.4108
1266 1 6.34278 1.53457 18.4085
7186 2 9.98061 1.53026 17.1214
918 1 11.799 1.53457 18.4085
6830 2 15.4369 1.53026 17.1214
7185 2 12.7085 -0.0481256 17.1238
936 1 14.527 -0.0445926 18.4108
6840 2 18.1648 -0.0481256 17.1238
586 1 17.2553 1.53457 18.4085
6528 2 20.8931 1.53026 17.1214
585 1 19.9832 -0.0445926 18.4108
7792 2 1.7965 3.10861 17.118
1549 1 0.887031 4.69278 18.4007
7496 2 4.5249 4.68692 17.1136
1548 1 3.61488 3.11369 18.4051
7495 2 7.25274 3.10861 17.118
1234 1 6.34327 4.69278 18.4007
1267 1 9.07112 3.11369 18.4051
7162 2 9.98114 4.68692 17.1136
917 1 11.7995 4.69278 18.4007
6829 2 15.4374 4.68692 17.1136
7187 2 12.709 3.10861 17.118
916 1 14.5274 3.11369 18.4051
6828 2 18.1652 3.10861 17.118
578 1 17.2557 4.69278 18.4007
6527 2 20.8936 4.68692 17.1136
587 1 19.9836 3.11369 18.4051
7756 2 1.79712 6.26519 17.1082
1511 1 0.887692 7.8508 18.389
7459 2 4.52562 7.8434 17.1017
1551 1 3.61546 6.27182 18.3953
7498 2 7.25336 6.26519 17.1082
1232 1 9.0717 6.27182 18.3953
1233 1 6.34393 7.8508 18.389
7161 2 9.98186 7.8434 17.1017
894 1 11.8002 7.8508 18.389
6814 2 15.4381 7.8434 17.1017
7160 2 12.7096 6.26519 17.1082
919 1 14.5279 6.27182 18.3953
6831 2 18.1658 6.26519 17.1082
577 1 17.2564 7.8508 18.389
6526 2 20.8943 7.8434 17.1017
576 1 19.9842 6.27182 18.3953
7757 2 1.79793 9.42155 17.0943
1510 1 0.888532 11.0085 18.3732
7458 2 4.52653 10.9996 17.0859
1509 1 3.61621 9.4297 18.3816
7457 2 7.25417 9.42155 17.0943
1194 1 6.34477 11.0085 18.3732
1235 1 9.07245 9.4297 18.3816
7130 2 9.98277 10.9996 17.0859
893 1 11.801 11.0085 18.3732
6813 2 15.439 10.9996 17.0859
7163 2 12.7104 9.42155 17.0943
892 1 14.5287 9.4297 18.3816
6812 2 18.1666 9.42155 17.0943
562 1 17.2572 11.0085 18.3732
6519 2 20.8952 10.9996 17.0859
579 1 19.9849 9.4297 18.3816
7720 2 1.79895 12.5776 17.0764
1471 1 0.889568 14.1658 18.3535
7414 2 4.52766 14.1555 17.066
1512 1 3.61714 12.5872 18.3639
7460 2 7.25519 12.5776 17.0764
1192 1 9.07338 12.5872 18.3639
1193 1 6.34581 14.1658 18.3535
7129 2 9.9839 14.1555 17.066
862 1 11.802 14.1658 18.3535
6790 2 15.4401 14.1555 17.066
7128 2 12.7114 12.5776 17.0764
895 1 14.5296 12.5872 18.3639
6815 2 18.1677 12.5776 17.0764
561 1 17.2583 14.1658 18.3535
6518 2 20.8964 14.1555 17.066
560 1 19.9859 12.5872 18.3639
7721 2 1.80019 15.7332 17.0545
1470 1 0.890819 17.3226 18.3298
7413 2 4.52901 17.3108 17.0421
1469 1 3.61828 15.7443 18.3421
7412 2 7.25643 15.7332 17.0545
1147 1 6.34706 17.3226 18.3298
1195 1 9.07452 15.7443 18.3421
7090 2 9.98525 17.3108 17.0421
861 1 11.8033 17.3226 18.3298
6789 2 15.4415 17.3108 17.0421
7131 2 12.7127 15.7332 17.0545
860 1 14.5308 15.7443 18.3421
6788 2 18.1689 15.7332 17.0545
538 1 17.2595 17.3226 18.3298
6503 2 20.8977 17.3108 17.0421
563 1 19.987 15.7443 18.3421
7684 2 1.80167 18.8883 17.0286
1432 1 0.892315 20.4787 18.3022
7368 2 4.53063 20.4656 17.0142
1472 1 3.61965 18.9008 18.3165
7415 2 7.25791 18.8883 17.0286
1145 1 9.07589 18.9008 18.3165
1146 1 6.34855 20.4787 18.3022
7089 2 9.98687 20.4656 17.0142
822 1 11.8048 20.4787 18.3022
6758 2 15.4431 20.4656 17.0142
7088 2 12.7141 18.8883 17.0286
863 1 14.5321 18.9008 18.3165
6791 2 18.1704 18.8883 17.0286
537 1 17.261 20.4787 18.3022
6502 2 20.8993 20.4656 17.0142
536 1 19.9884 18.9008 18.3165
7685 2 1.80342 22.0427 16.9988
1431 1 0.894092 23.6339 18.2706
7367 2 4.53253 23.6195 16.9824
1430 1 3.62129 22.0565 18.2869
7366 2 7.25966 22.0427 16.9988
1100 1 6.35033 23.6339 18.2706
1148 1 9.07752 22.0565 18.2869
7043 2 9.98877 23.6195 16.9824
821 1 11.8066 23.6339 18.2706
6757 2 15.445 23.6195 16.9824
7091 2 12.7159 22.0427 16.9988
820 1 14.5338 22.0565 18.2869
6756 2 18.1721 22.0427 16.9988
506 1 17.2628 23.6339 18.2706
6479 2 20.9012 23.6195 16.9824
539 1 19.99 22.0565 18.2869
7652 2 1.80548 25.1961 16.965
1433 1 3.62322 25.2111 18.2534
7369 2 7.26172 25.1961 16.965
1098 1 9.07946 25.2111 18.2534
7041 2 12.718 25.1961 16.965
823 1 14.5357 25.2111 18.2534
6759 2 18.1742 25.1961 16.965
504 1 19.9919 25.2111 18.2534
7653 2 1.80789 28.3485 16.9273
1400 1 0.896196 26.788 18.2352
7328 2 4.53476 26.7725 16.9466
1398 1 3.62551 28.3646 18.2161
7326 2 7.26413 28.3485 16.9273
1099 1 6.35243 26.788 18.2352
1101 1 9.08174 28.3646 18.2161
7042 2 9.991 26.7725 16.9466
776 1 11.8087 26.788 18.2352
6719 2 15.4472 26.7725 16.9466
7044 2 12.7204 28.3485 16.9273
774 1 14.538 28.3646 18.2161
6717 2 18.1766 28.3485 16.9273
505 1 17.2649 26.788 18.2352
6478 2 20.9035 26.7725 16.9466
507 1 19.9942 28.3646 18.2161
7628 2 1.81069 31.4996 16.8859
1399 1 0.898679 29.9408 18.196
7327 2 4.53736 29.9242 16.9071
1401 1 3.6282 31.5165 18.175
7329 2 7.26693 31.4996 16.8859
1058 1 9.08444 31.5165 18.175
1060 1 6.35492 29.9408 18.196
6996 2 9.9936 29.9242 16.9071
775 1 11.8112 29.9408 18.196
6718 2 15.4498 29.9242 16.9071
6994 2 12.7232 31.4996 16.8859
777 1 14.5407 31.5165 18.175
6720 2 18.1794 31.4996 16.8859
470 1 17.2674 29.9408 18.196
6451 2 20.9061 29.9242 16.9071
468 1 19.9969 31.5165 18.175
7629 2 1.81391 34.6491 16.8408
1376 1 0.901598 33.0918 18.153
7296 2 4.54036 33.0745 16.8638
1374 1 3.63136 34.6667 18.1302
7294 2 7.27015 34.6491 16.8408
1059 1 6.35784 33.0918 18.153
1061 1 9.0876 34.6667 18.1302
6995 2 9.9966 33.0745 16.8638
731 1 11.8141 33.0918 18.153
6679 2 15.4528 33.0745 16.8638
6997 2 12.7264 34.6491 16.8408
729 1 14.5438 34.6667 18.1302
6677 2 18.1826 34.6491 16.8408
469 1 17.2703 33.0918 18.153
6450 2 20.9091 33.0745 16.8638
471 1 20.0001 34.6667 18.1302
7612 2 1.81757 37.797 16.7924
1375 1 0.905003 36.241 18.1064
7295 2 4.5438 36.2232 16.817
1377 1 3.63501 37.8149 18.0819
7297 2 7.27381 37.797 16.7924
1026 1 9.09125 37.8149 18.0819
1028 1 6.36124 36.241 18.1064
6956 2 10 36.2232 16.817
730 1 11.8175 36.241 18.1064
6678 2 15.4563 36.2232 16.817
6954 2 12.73 37.797 16.7924
732 1 14.5475 37.8149 18.0819
6680 2 18.1863 37.797 16.7924
434 1 17.2737 36.241 18.1064
6423 2 20.9125 36.2232 16.817
432 1 20.0037 37.8149 18.0819
7613 2 1.82165 40.9431 16.7408
1360 1 0.908914 39.3882 18.0564
7272 2 4.54768 39.3703 16.7669
1358 1 3.63917 40.9609 18.0302
7270 2 7.27788 40.9431 16.7408
1027 1 6.36515 39.3882 18.0564
1029 1 9.09541 40.9609 18.0302
6955 2 10.0039 39.3703 16.7669
693 1 11.8214 39.3882 18.0564
6640 2 15.4602 39.3703 16.7669
6957 2 12.7341 40.9431 16.7408
691 1 14.5517 40.9609 18.0302
6638 2 18.1904 40.9431 16.7408
433 1 17.2776 39.3882 18.0564
6422 2 20.9164 39.3703 16.7669
435 1 20.0079 40.9609 18.0302
7604 2 1.82607 44.0877 16.6866
1359 1 0.913307 42.5331 18.0033
7271 2 4.55194 42.5156 16.714
1361 1 3.64378 44.1049 17.9757
7273 2 7.2823 44.0877 16.6866
1002 1 9.10002 44.1049 17.9757
1004 1 6.36955 42.5331 18.0033
6924 2 10.0082 42.5156 16.714
692 1 11.8258 42.5331 18.0033
6639 2 15.4644 42.5156 16.714
6922 2 12.7385 44.0877 16.6866
694 1 14.5563 44.1049 17.9757
6641 2 18.1948 44.0877 16.6866
399 1 17.282 42.5331 18.0033
6395 2 20.9207 42.5156 16.714
397 1 20.0125 44.1049 17.9757
7605 2 1.83069 47.231 16.6308
1352 1 0.918088 45.6762 17.9476
7256 2 4.55648 45.6595 16.6589
1350 1 3.64869 47.2471 17.919
7254 2 7.28693 47.231 16.6308
1003 1 6.37433 45.6762 17.9476
1005 1 9.10493 47.2471 17.919
6923 2 10.0127 45.6595 16.6589
663 1 11.8306 45.6762 17.9476
6608 2 15.469 45.6595 16.6589
6925 2 12.7432 47.231 16.6308
661 1 14.5612 47.2471 17.919
6606 2 18.1994 47.231 16.6308
398 1 17.2868 45.6762 17.9476
6394 2 20.9252 45.6595 16.6589
400 1 20.0174 47.2471 17.919
1351 1 0.92308 48.8178 17.8902
7255 2 4.56115 48.8023 16.6026
985 1 6.37932 48.8178 17.8902
6897 2 10.0174 48.8023 16.6026
662 1 11.8356 48.8178 17.8902
6607 2 15.4736 48.8023 16.6026
368 1 17.2918 48.8178 17.8902
6367 2 20.9299 48.8023 16.6026
1546 1 1.7958 -0.0376632 20.9811
7493 2 2.7055 1.53871 19.692
1230 1 4.52407 1.54303 20.9787
7492 2 5.43345 -0.0412038 19.6944
1264 1 7.25204 -0.0376632 20.9811
7158 2 8.16174 1.53871 19.692
914 1 9.98031 1.54303 20.9787
7184 2 10.8897 -0.0412038 19.6944
574 1 15.4365 1.54303 20.9787
913 1 12.7083 -0.0376632 20.9811
6826 2 13.618 1.53871 19.692
584 1 18.1645 -0.0376632 20.9811
6825 2 16.3459 -0.0412038 19.6944
7790 2 21.8022 -0.0412038 19.6944
304 1 20.8928 1.54303 20.9787
6525 2 19.0742 1.53871 19.692
1547 1 1.79614 3.12368 20.9754
7455 2 2.70594 4.69843 19.6844
1229 1 4.52447 4.70429 20.9711
7494 2 5.43382 3.11859 19.6887
1228 1 7.25238 3.12368 20.9754
7157 2 8.16218 4.69843 19.6844
890 1 9.98071 4.70429 20.9711
7156 2 10.8901 3.11859 19.6887
573 1 15.4369 4.70429 20.9711
915 1 12.7086 3.12368 20.9754
6810 2 13.6184 4.69843 19.6844
572 1 18.1649 3.12368 20.9754
6827 2 16.3463 3.11859 19.6887
7754 2 21.8025 3.11859 19.6887
303 1 20.8932 4.70429 20.9711
6524 2 19.0747 4.69843 19.6844
1507 1 1.7966 6.28484 20.9659
7454 2 2.70653 7.85794 19.6727
1190 1 4.525 7.86533 20.9596
7453 2 5.43434 6.27821 19.679
1231 1 7.25284 6.28484 20.9659
7126 2 8.16277 7.85794 19.6727
889 1 9.98124 7.86533 20.9596
7159 2 10.8906 6.27821 19.679
558 1 15.4375 7.86533 20.9596
888 1 12.7091 6.28484 20.9659
6809 2 13.619 7.85794 19.6727
575 1 18.1653 6.28484 20.9659
6808 2 16.3468 6.27821 19.679
7755 2 21.8031 6.27821 19.679
302 1 20.8937 7.86533 20.9596
6517 2 19.0752 7.85794 19.6727
1508 1 1.79719 9.44574 20.9524
7410 2 2.70728 11.0171 19.6571
1189 1 4.52566 11.0261 20.9442
7456 2 5.43501 9.43758 19.6654
1188 1 7.25343 9.44574 20.9524
7125 2 8.16352 11.0171 19.6571
858 1 9.9819 11.0261 20.9442
7124 2 10.8912 9.43758 19.6654
557 1 15.4381 11.0261 20.9442
891 1 12.7097 9.44574 20.9524
6786 2 13.6198 11.0171 19.6571
556 1 18.1659 9.44574 20.9524
6811 2 16.3475 9.43758 19.6654
7718 2 21.8037 9.43758 19.6654
295 1 20.8944 11.0261 20.9442
6516 2 19.076 11.0171 19.6571
1467 1 1.79793 12.6063 20.935
7409 2 2.7082 14.1759 19.6376
1143 1 4.52647 14.1863 20.9248
7408 2 5.43584 12.5966 19.6479
1191 1 7.25416 12.6063 20.935
7086 2 8.16444 14.1759 19.6376
857 1 9.98271 14.1863 20.9248
7127 2 10.8921 12.5966 19.6479
534 1 15.4389 14.1863 20.9248
856 1 12.7104 12.6063 20.935
6785 2 13.6207 14.1759 19.6376
559 1 18.1666 12.6063 20.935
6784 2 16.3483 12.5966 19.6479
7719 2 21.8046 12.5966 19.6479
294 1 20.8952 14.1863 20.9248
6501 2 19.0769 14.1759 19.6376
1468 1 1.79882 15.7663 20.9137
7364 2 2.70931 17.3341 19.6142
1142 1 4.52745 17.346 20.9016
7411 2 5.43685 15.7551 19.6264
1141 1 7.25506 15.7663 20.9137
7085 2 8.16555 17.3341 19.6142
818 1 9.98369 17.346 20.9016
7084 2 10.8931 15.7551 19.6264
533 1 15.4399 17.346 20.9016
859 1 12.7113 15.7663 20.9137
6754 2 13.6218 17.3341 19.6142
532 1 18.1675 15.7663 20.9137
6787 2 16.3493 15.7551 19.6264
7682 2 21.8056 15.7551 19.6264
279 1 20.8962 17.346 20.9016
6500 2 19.078 17.3341 19.6142
1428 1 1.7999 18.9256 20.8886
7363 2 2.71065 20.4916 19.5869
1096 1 4.52863 20.5049 20.8746
7362 2 5.43807 18.913 19.601
1144 1 7.25614 18.9256 20.8886
7039 2 8.16689 20.4916 19.5869
817 1 9.98487 20.5049 20.8746
7087 2 10.8943 18.913 19.601
502 1 15.4411 20.5049 20.8746
816 1 12.7124 18.9256 20.8886
6753 2 13.6231 20.4916 19.5869
535 1 18.1686 18.9256 20.8886
6752 2 16.3505 18.913 19.601
7683 2 21.8068 18.913 19.601
278 1 20.8973 20.5049 20.8746
6477 2 19.0794 20.4916 19.5869
1429 1 1.80119 22.084 20.8597
7324 2 2.71224 23.6482 19.5557
1095 1 4.53006 23.6628 20.8438
7365 2 5.43953 22.0701 19.5718
1094 1 7.25743 22.084 20.8597
7038 2 8.16848 23.6482 19.5557
772 1 9.9863 23.6628 20.8438
7037 2 10.8958 22.0701 19.5718
501 1 15.4425 23.6628 20.8438
819 1 12.7137 22.084 20.8597
6715 2 13.6247 23.6482 19.5557
500 1 18.1699 22.084 20.8597
6755 2 16.352 22.0701 19.5718
7650 2 21.8082 22.0701 19.5718
256 1 20.8988 23.6628 20.8438
6476 2 19.081 23.6482 19.5557
1396 1 1.80276 25.2413 20.827
7322 2 5.44127 25.2261 19.5388
1097 1 7.259 25.2413 20.827
7040 2 10.8975 25.2261 19.5388
770 1 12.7152 25.2413 20.827
503 1 18.1715 25.2413 20.827
6713 2 16.3537 25.2261 19.5388
7651 2 21.81 25.2261 19.5388
1397 1 1.80465 28.3973 20.7906
7323 2 2.71414 26.8036 19.5208
1056 1 4.53178 26.8195 20.8093
7325 2 5.44334 28.3808 19.5019
1054 1 7.26089 28.3973 20.7906
6992 2 8.17038 26.8036 19.5208
771 1 9.98802 26.8195 20.8093
6990 2 10.8996 28.3808 19.5019
466 1 15.4443 26.8195 20.8093
773 1 12.7171 28.3973 20.7906
6714 2 13.6266 26.8036 19.5208
464 1 18.1734 28.3973 20.7906
6716 2 16.3558 28.3808 19.5019
7626 2 21.8121 28.3808 19.5019
255 1 20.9005 26.8195 20.8093
6449 2 19.0829 26.8036 19.5208
1372 1 1.80696 31.5514 20.7505
7292 2 2.71641 29.9575 19.4821
1055 1 4.53387 29.9746 20.771
7290 2 5.44583 31.5338 19.4614
1057 1 7.2632 31.5514 20.7505
6991 2 8.17265 29.9575 19.4821
727 1 9.99011 29.9746 20.771
6993 2 10.9021 31.5338 19.4614
465 1 15.4463 29.9746 20.771
725 1 12.7194 31.5514 20.7505
6675 2 13.6289 29.9575 19.4821
467 1 18.1757 31.5514 20.7505
6673 2 16.3583 31.5338 19.4614
7627 2 21.8145 31.5338 19.4614
232 1 20.9026 29.9746 20.771
6448 2 19.0851 29.9575 19.4821
1373 1 1.80977 34.7035 20.7068
7291 2 2.71912 33.1097 19.4398
1024 1 4.53641 33.1277 20.7291
7293 2 5.44878 34.685 19.4173
1022 1 7.266 34.7035 20.7068
6952 2 8.17536 33.1097 19.4398
726 1 9.99265 33.1277 20.7291
6950 2 10.905 34.685 19.4173
430 1 15.4489 33.1277 20.7291
728 1 12.7222 34.7035 20.7068
6674 2 13.6316 33.1097 19.4398
428 1 18.1785 34.7035 20.7068
6676 2 16.3613 34.685 19.4173
7610 2 21.8175 34.685 19.4173
231 1 20.9051 33.1277 20.7291
6421 2 19.0878 33.1097 19.4398
1356 1 1.81316 37.853 20.6595
7268 2 2.72234 36.2598 19.3939
1023 1 4.53951 36.2786 20.6836
7266 2 5.45228 37.834 19.3696
1025 1 7.2694 37.853 20.6595
6951 2 8.17858 36.2598 19.3939
689 1 9.99574 36.2786 20.6836
6953 2 10.9085 37.834 19.3696
429 1 15.452 36.2786 20.6836
687 1 12.7256 37.853 20.6595
6636 2 13.6348 36.2598 19.3939
431 1 18.1819 37.853 20.6595
6634 2 16.3648 37.834 19.3696
7611 2 21.821 37.834 19.3696
208 1 20.9082 36.2786 20.6836
6420 2 19.0911 36.2598 19.3939
1357 1 1.81723 40.9998 20.6087
7267 2 2.72612 39.4076 19.3445
1000 1 4.54323 39.4268 20.6346
7269 2 5.45635 40.9806 19.3186
998 1 7.27347 40.9998 20.6087
6920 2 8.18236 39.4076 19.3445
688 1 9.99947 39.4268 20.6346
6918 2 10.9126 40.9806 19.3186
395 1 15.4557 39.4268 20.6346
690 1 12.7297 40.9998 20.6087
6635 2 13.6386 39.4076 19.3445
393 1 18.1859 40.9998 20.6087
6637 2 16.3688 40.9806 19.3186
7602 2 21.8251 40.9806 19.3186
207 1 20.9119 39.4268 20.6346
6393 2 19.0948 39.4076 19.3445
1348 1 1.82198 44.1436 20.5545
7252 2 2.73049 42.553 19.2919
7603 2 0.00474981 44.1248 19.2645
999 1 4.54764 42.5721 20.582
7250 2 5.46099 44.1248 19.2645
1001 1 7.27822 44.1436 20.5545
6919 2 8.18672 42.553 19.2919
659 1 10.0039 42.5721 20.582
6921 2 10.9172 44.1248 19.2645
394 1 15.4601 42.5721 20.582
657 1 12.7345 44.1436 20.5545
6604 2 13.643 42.553 19.2919
396 1 18.1907 44.1436 20.5545
6602 2 16.3735 44.1248 19.2645
184 1 20.9164 42.5721 20.582
6392 2 19.0992 42.553 19.2919
1349 1 1.82733 47.2845 20.4974
7251 2 2.73537 45.696 19.2365
7601 2 0.00984386 47.2667 19.208
984 1 4.55271 45.7144 20.5263
7253 2 5.46608 47.2667 19.208
982 1 7.28357 47.2845 20.4974
6896 2 8.19161 45.696 19.2365
658 1 10.0089 45.7144 20.5263
6894 2 10.9223 47.2667 19.208
367 1 15.4652 45.7144 20.5263
660 1 12.7398 47.2845 20.4974
6603 2 13.6478 45.696 19.2365
365 1 18.1961 47.2845 20.4974
6605 2 16.3786 47.2667 19.208
183 1 20.9214 45.7144 20.5263
6366 2 19.1041 45.696 19.2365
7241 2 2.74063 48.837 19.1791
983 1 4.5583 48.8541 20.4679
6895 2 8.19686 48.837 19.1791
634 1 10.0145 48.8541 20.4679
366 1 15.4708 48.8541 20.4679
6577 2 13.6531 48.837 19.1791
160 1 20.927 48.8541 20.4679
6365 2 19.1093 48.837 19.1791
1226 1 2.70574 1.5515 23.5483
7451 2 0.886988 1.54718 22.262
1225 1 5.43374 -0.0307149 23.5505
7491 2 3.61497 -0.0342647 22.2643
886 1 8.16198 1.5515 23.5483
7153 2 9.07121 -0.0342647 22.2643
7154 2 6.34323 1.54718 22.262
912 1 10.89 -0.0307149 23.5505
6806 2 11.7995 1.54718 22.262
570 1 13.6182 1.5515 23.5483
6824 2 14.5274 -0.0342647 22.2643
569 1 16.3462 -0.0307149 23.5505
6522 2 17.2557 1.54718 22.262
1545 1 21.8025 -0.0307149 23.5505
301 1 19.0745 1.5515 23.5483
6521 2 19.9837 -0.0342647 22.2643
1186 1 2.70604 4.71581 23.5408
7450 2 0.887337 4.70994 22.2544
1227 1 5.434 3.13368 23.545
7449 2 3.61527 3.12858 22.2587
885 1 8.16228 4.71581 23.5408
7122 2 6.34358 4.70994 22.2544
7155 2 9.07151 3.12858 22.2587
884 1 10.8902 3.13368 23.545
6805 2 11.7998 4.70994 22.2544
554 1 13.6185 4.71581 23.5408
6804 2 14.5277 3.12858 22.2587
571 1 16.3465 3.13368 23.545
6514 2 17.2561 4.70994 22.2544
1505 1 21.8027 3.13368 23.545
300 1 19.0748 4.71581 23.5408
6523 2 19.984 3.12858 22.2587
1185 1 2.70642 7.87988 23.5295
7406 2 0.88779 7.87248 22.243
1184 1 5.43434 6.29788 23.5356
7452 2 3.61567 6.29124 22.2492
854 1 8.16266 7.87988 23.5295
7120 2 9.07191 6.29124 22.2492
7121 2 6.34403 7.87248 22.243
887 1 10.8906 6.29788 23.5356
6782 2 11.8003 7.87248 22.243
553 1 13.6189 7.87988 23.5295
6807 2 14.5281 6.29124 22.2492
552 1 16.3468 6.29788 23.5356
6513 2 17.2565 7.87248 22.243
1506 1 21.8031 6.29788 23.5356
293 1 19.0751 7.87988 23.5295
6512 2 19.9844 6.29124 22.2492
1139 1 2.70689 11.0436 23.5143
7405 2 0.888354 11.0347 22.2277
1187 1 5.43477 9.4618 23.5224
7404 2 3.61618 9.45363 22.2358
853 1 8.16313 11.0436 23.5143
7082 2 6.34459 11.0347 22.2277
7123 2 9.07241 9.45363 22.2358
852 1 10.891 9.4618 23.5224
6781 2 11.8008 11.0347 22.2277
530 1 13.6194 11.0436 23.5143
6780 2 14.5287 9.45363 22.2358
555 1 16.3472 9.4618 23.5224
6498 2 17.2571 11.0347 22.2277
1465 1 21.8035 9.4618 23.5224
292 1 19.0756 11.0436 23.5143
6515 2 19.9849 9.45363 22.2358
1138 1 2.70746 14.2069 23.4954
7360 2 0.889043 14.1964 22.2086
1137 1 5.43528 12.6253 23.5053
7407 2 3.6168 12.6156 22.2186
814 1 8.1637 14.2069 23.4954
7080 2 9.07304 12.6156 22.2186
7081 2 6.34528 14.1964 22.2086
855 1 10.8915 12.6253 23.5053
6750 2 11.8015 14.1964 22.2086
529 1 13.6199 14.2069 23.4954
6783 2 14.5293 12.6156 22.2186
528 1 16.3478 12.6253 23.5053
6497 2 17.2578 14.1964 22.2086
1466 1 21.804 12.6253 23.5053
277 1 19.0762 14.2069 23.4954
6496 2 19.9855 12.6156 22.2186
1092 1 2.70814 17.3696 23.4727
7359 2 0.889875 17.3576 22.1857
1140 1 5.4359 15.7883 23.4845
7358 2 3.61756 15.7771 22.1976
813 1 8.16438 17.3696 23.4727
7035 2 6.34611 17.3576 22.1857
7083 2 9.0738 15.7771 22.1976
812 1 10.8921 15.7883 23.4845
6749 2 11.8024 17.3576 22.1857
498 1 13.6206 17.3696 23.4727
6748 2 14.53 15.7771 22.1976
531 1 16.3484 15.7883 23.4845
6474 2 17.2586 17.3576 22.1857
1426 1 21.8046 15.7883 23.4845
276 1 19.0769 17.3696 23.4727
6499 2 19.9863 15.7771 22.1976
1091 1 2.70897 20.5314 23.4464
7320 2 0.890879 20.518 22.159
1090 1 5.43665 18.9506 23.46
7361 2 3.61847 18.9379 22.1728
768 1 8.16521 20.5314 23.4464
7033 2 9.07471 18.9379 22.1728
7034 2 6.34712 20.518 22.159
815 1 10.8929 18.9506 23.46
6711 2 11.8034 20.518 22.159
497 1 13.6214 20.5314 23.4464
6751 2 14.5309 18.9379 22.1728
496 1 16.3491 18.9506 23.46
6473 2 17.2596 20.518 22.159
1427 1 21.8054 18.9506 23.46
254 1 19.0777 20.5314 23.4464
6472 2 19.9872 18.9379 22.1728
1093 1 5.43757 22.112 23.4318
7318 2 3.61958 22.0978 22.1443
7036 2 9.07582 22.0978 22.1443
766 1 10.8938 22.112 23.4318
6709 2 14.5321 22.0978 22.1443
499 1 16.35 22.112 23.4318
1394 1 21.8063 22.112 23.4318
6475 2 19.9883 22.0978 22.1443
1052 1 2.70998 23.6922 23.4164
7319 2 0.892096 23.6773 22.1286
1050 1 5.4387 25.2721 23.4
7321 2 3.62092 25.2565 22.112
767 1 8.16622 23.6922 23.4164
6988 2 6.34833 23.6773 22.1286
6986 2 9.07716 25.2565 22.112
6710 2 11.8046 23.6773 22.1286
769 1 10.8949 25.2721 23.4
462 1 13.6225 23.6922 23.4164
6712 2 14.5334 25.2565 22.112
6446 2 17.2608 23.6773 22.1286
460 1 16.3512 25.2721 23.4
253 1 19.0787 23.6922 23.4164
1395 1 21.8074 25.2721 23.4
6444 2 19.9896 25.2565 22.112
1051 1 2.71124 26.8517 23.3828
7288 2 0.893584 26.8354 22.0946
1053 1 5.44011 28.4308 23.3646
7286 2 3.62257 28.4139 22.0762
723 1 8.16748 26.8517 23.3828
6987 2 6.34982 26.8354 22.0946
6989 2 9.07881 28.4139 22.0762
721 1 10.8963 28.4308 23.3646
6671 2 11.8061 26.8354 22.0946
461 1 13.6237 26.8517 23.3828
6669 2 14.535 28.4139 22.0762
463 1 16.3526 28.4308 23.3646
6445 2 17.2623 26.8354 22.0946
1370 1 21.8088 28.4308 23.3646
230 1 19.08 26.8517 23.3828
6447 2 19.9913 28.4139 22.0762
1020 1 2.71283 30.0095 23.3456
7287 2 0.895416 29.9919 22.0569
1018 1 5.4419 31.5876 23.3258
7289 2 3.62461 31.5694 22.0367
722 1 8.16907 30.0095 23.3456
6946 2 9.08085 31.5694 22.0367
6948 2 6.35165 29.9919 22.0569
724 1 10.8981 31.5876 23.3258
6670 2 11.8079 29.9919 22.0569
426 1 13.6253 30.0095 23.3456
6672 2 14.5371 31.5694 22.0367
424 1 16.3544 31.5876 23.3258
6418 2 17.2641 29.9919 22.0569
1371 1 21.8106 31.5876 23.3258
229 1 19.0815 30.0095 23.3456
6416 2 19.9933 31.5694 22.0367
1019 1 2.71485 33.1652 23.305
7264 2 0.897688 33.1463 22.0157
1021 1 5.44419 34.7421 23.2833
7262 2 3.62714 34.7227 21.9937
685 1 8.17109 33.1652 23.305
6947 2 6.35393 33.1463 22.0157
6949 2 9.08338 34.7227 21.9937
683 1 10.9004 34.7421 23.2833
6632 2 11.8102 33.1463 22.0157
425 1 13.6273 33.1652 23.305
6630 2 14.5396 34.7227 21.9937
427 1 16.3567 34.7421 23.2833
6417 2 17.2664 33.1463 22.0157
1354 1 21.8129 34.7421 23.2833
206 1 19.0836 33.1652 23.305
6419 2 19.9959 34.7227 21.9937
996 1 2.71744 36.3183 23.2608
7263 2 0.900511 36.2984 21.9709
994 1 5.44712 37.8938 23.2374
7265 2 3.63029 37.8734 21.9471
684 1 8.17368 36.3183 23.2608
6914 2 9.08652 37.8734 21.9471
6916 2 6.35675 36.2984 21.9709
686 1 10.9034 37.8938 23.2374
6631 2 11.813 36.2984 21.9709
391 1 13.6299 36.3183 23.2608
6633 2 14.5428 37.8734 21.9471
389 1 16.3596 37.8938 23.2374
6390 2 17.2692 36.2984 21.9709
1355 1 21.8158 37.8938 23.2374
205 1 19.0862 36.3183 23.2608
6388 2 19.999 37.8734 21.9471
995 1 2.72075 39.4684 23.213
7248 2 0.904002 39.4477 21.9225
997 1 5.45085 41.0421 23.1877
7246 2 3.63415 41.0211 21.897
655 1 8.17699 39.4684 23.213
6915 2 6.36024 39.4477 21.9225
6917 2 9.09039 41.0211 21.897
653 1 10.9071 41.0421 23.1877
6600 2 11.8165 39.4477 21.9225
390 1 13.6332 39.4684 23.213
6598 2 14.5466 41.0211 21.897
392 1 16.3633 41.0421 23.1877
6389 2 17.2727 39.4477 21.9225
1346 1 21.8196 41.0421 23.1877
182 1 19.0895 39.4684 23.213
6391 2 20.0029 41.0211 21.897
980 1 2.72493 42.6148 23.1615
7247 2 0.908258 42.5938 21.8707
7236 2 1.81574 44.2108 24.4232
978 1 5.4555 44.1865 23.1344
7249 2 3.63881 44.1655 21.8434
654 1 8.18117 42.6148 23.1615
6890 2 9.09505 44.1655 21.8434
6892 2 6.3645 42.5938 21.8707
6889 2 7.27198 44.2108 24.4232
656 1 10.9117 44.1865 23.1344
6599 2 11.8207 42.5938 21.8707
363 1 13.6374 42.6148 23.1615
6601 2 14.5513 44.1655 21.8434
6570 2 12.7282 44.2108 24.4232
361 1 16.368 44.1865 23.1344
6363 2 17.277 42.5938 21.8707
6360 2 18.1845 44.2108 24.4232
1347 1 21.8242 44.1865 23.1344
181 1 19.0936 42.6148 23.1615
6361 2 20.0075 44.1655 21.8434
979 1 2.73007 45.7572 23.1063
1345 1 0.0048801 47.3269 23.0773
7240 2 0.913319 45.7365 21.8154
7237 2 1.82127 47.352 24.3668
981 1 5.46112 47.3269 23.0773
7238 2 3.64425 47.3066 21.7867
6872 2 4.54648 45.782 24.3955
633 1 8.18631 45.7572 23.1063
6891 2 6.36956 45.7365 21.8154
6893 2 9.10049 47.3066 21.7867
6870 2 7.27751 47.352 24.3668
631 1 10.9174 47.3269 23.0773
6576 2 11.8258 45.7365 21.8154
6571 2 10.0027 45.782 24.3955
362 1 13.6425 45.7572 23.1063
6574 2 14.5567 47.3066 21.7867
6339 2 15.459 45.782 24.3955
6573 2 12.7337 47.352 24.3668
364 1 16.3736 47.3269 23.0773
6362 2 17.282 45.7365 21.8154
6337 2 18.19 47.352 24.3668
159 1 19.0988 45.7572 23.1063
6364 2 20.013 47.3066 21.7867
6215 2 20.9152 45.782 24.3955
969 1 2.73614 48.8956 23.0475
7239 2 0.919104 48.876 21.7573
6871 2 4.55258 48.9209 24.3372
632 1 8.19238 48.8956 23.0475
6873 2 6.37534 48.876 21.7573
6575 2 11.8316 48.876 21.7573
6553 2 10.0088 48.9209 24.3372
340 1 13.6486 48.8956 23.0475
6338 2 15.4651 48.9209 24.3372
6340 2 17.2878 48.876 21.7573
158 1 19.1049 48.8956 23.0475
6200 2 20.9213 48.9209 24.3372
1182 1 0.887821 1.55999 26.117
7447 2 1.79688 -0.0273026 24.8334
1224 1 3.61585 -0.0237416 26.1192
7118 2 4.52511 1.55566 24.8311
881 1 9.07209 -0.0237416 26.1192
882 1 6.34406 1.55999 26.117
7152 2 7.25312 -0.0273026 24.8334
550 1 11.8003 1.55999 26.117
6802 2 9.98135 1.55566 24.8311
568 1 14.5283 -0.0237416 26.1192
6510 2 15.4376 1.55566 24.8311
6801 2 12.7094 -0.0273026 24.8334
298 1 17.2565 1.55999 26.117
6520 2 18.1656 -0.0273026 24.8334
297 1 19.9846 -0.0237416 26.1192
6304 2 20.8938 1.55566 24.8311
1181 1 0.888021 4.72735 26.1097
7448 2 1.79711 3.13859 24.8279
1180 1 3.61604 3.14369 26.1138
7117 2 4.52536 4.72147 24.8237
850 1 6.34426 4.72735 26.1097
883 1 9.07227 3.14369 26.1138
7116 2 7.25334 3.13859 24.8279
549 1 11.8005 4.72735 26.1097
6778 2 9.9816 4.72147 24.8237
548 1 14.5285 3.14369 26.1138
6509 2 15.4378 4.72147 24.8237
6803 2 12.7096 3.13859 24.8279
290 1 17.2567 4.72735 26.1097
6508 2 18.1658 3.13859 24.8279
299 1 19.9848 3.14369 26.1138
6303 2 20.8941 4.72147 24.8237
1135 1 0.888254 7.89447 26.0986
7402 2 1.79739 6.3043 24.8186
1183 1 3.61625 6.31094 26.1046
7078 2 4.52567 7.88705 24.8125
848 1 9.07249 6.31094 26.1046
849 1 6.34449 7.89447 26.0986
7119 2 7.25362 6.3043 24.8186
526 1 11.8007 7.89447 26.0986
6777 2 9.9819 7.88705 24.8125
551 1 14.5287 6.31094 26.1046
6494 2 15.4381 7.88705 24.8125
6776 2 12.7099 6.3043 24.8186
289 1 17.257 7.89447 26.0986
6511 2 18.1661 6.3043 24.8186
288 1 19.985 6.31094 26.1046
6302 2 20.8944 7.88705 24.8125
1134 1 0.888523 11.0613 26.0837
7403 2 1.79772 9.46972 24.8055
1133 1 3.6165 9.47791 26.0916
7077 2 4.52604 11.0523 24.7975
810 1 6.34476 11.0613 26.0837
851 1 9.07274 9.47791 26.0916
7076 2 7.25396 9.46972 24.8055
525 1 11.801 11.0613 26.0837
6746 2 9.98228 11.0523 24.7975
524 1 14.529 9.47791 26.0916
6493 2 15.4385 11.0523 24.7975
6779 2 12.7102 9.46972 24.8055
274 1 17.2572 11.0613 26.0837
6492 2 18.1664 9.46972 24.8055
291 1 19.9852 9.47791 26.0916
6295 2 20.8948 11.0523 24.7975
1088 1 0.888836 14.2276 26.0652
7356 2 1.79813 12.6347 24.7886
1136 1 3.61679 12.6445 26.0749
7031 2 4.52648 14.2171 24.7788
808 1 9.07303 12.6445 26.0749
809 1 6.34507 14.2276 26.0652
7079 2 7.25437 12.6347 24.7886
494 1 11.8013 14.2276 26.0652
6745 2 9.98272 14.2171 24.7788
527 1 14.5293 12.6445 26.0749
6470 2 15.439 14.2171 24.7788
6744 2 12.7106 12.6347 24.7886
273 1 17.2576 14.2276 26.0652
6495 2 18.1668 12.6347 24.7886
272 1 19.9855 12.6445 26.0749
6294 2 20.8952 14.2171 24.7788
1087 1 0.889205 17.3933 26.043
7357 2 1.79861 15.7992 24.768
6980 2 2.70832 17.4051 27.3263
1086 1 3.61713 15.8105 26.0546
7030 2 4.52701 17.3812 24.7564
764 1 6.34544 17.3933 26.043
811 1 9.07337 15.8105 26.0546
7029 2 7.25485 15.7992 24.768
6702 2 8.16456 17.4051 27.3263
493 1 11.8017 17.3933 26.043
6707 2 9.98325 17.3812 24.7564
492 1 14.5296 15.8105 26.0546
6469 2 15.4395 17.3812 24.7564
6747 2 12.7111 15.7992 24.768
6438 2 13.6208 17.4051 27.3263
251 1 17.2579 17.3933 26.043
6468 2 18.1673 15.7992 24.768
275 1 19.9858 15.8105 26.0546
6280 2 20.8957 17.3812 24.7564
6277 2 19.077 17.4051 27.3263
1048 1 0.889653 20.5582 26.0173
7316 2 1.7992 18.963 24.7438
6979 2 2.70859 20.5716 27.3008
1089 1 3.61754 18.9759 26.0306
6984 2 4.52765 20.5446 24.7304
6978 2 5.43657 18.9885 27.314
762 1 9.07377 18.9759 26.0306
763 1 6.34589 20.5582 26.0173
7032 2 7.25543 18.963 24.7438
6663 2 8.16483 20.5716 27.3008
458 1 11.8021 20.5582 26.0173
6706 2 9.98389 20.5446 24.7304
6704 2 10.8928 18.9885 27.314
495 1 14.53 18.9759 26.0306
6442 2 15.4401 20.5446 24.7304
6705 2 12.7117 18.963 24.7438
6437 2 13.6211 20.5716 27.3008
250 1 17.2584 20.5582 26.0173
6471 2 18.1679 18.963 24.7438
6436 2 16.349 18.9885 27.314
249 1 19.9863 18.9759 26.0306
6279 2 20.8964 20.5446 24.7304
7315 2 21.8053 18.9885 27.314
6262 2 19.0773 20.5716 27.3008
7317 2 1.79991 22.1259 24.716
1046 1 3.61804 22.1403 26.0032
6981 2 5.43687 22.1545 27.2868
765 1 9.07428 22.1403 26.0032
6982 2 7.25615 22.1259 24.716
6661 2 10.8931 22.1545 27.2868
456 1 14.5305 22.1403 26.0032
6708 2 12.7124 22.1259 24.716
6440 2 18.1686 22.1259 24.716
6439 2 16.3493 22.1545 27.2868
252 1 19.9868 22.1403 26.0032
7282 2 21.8056 22.1545 27.2868
1047 1 0.890222 23.7221 25.9881
7284 2 1.8008 25.2877 24.6846
6940 2 2.70894 23.7371 27.272
6983 2 4.52845 23.707 24.7007
1049 1 3.61869 25.3036 25.9722
6938 2 5.43729 25.3194 27.2563
719 1 6.34646 23.7221 25.9881
717 1 9.07492 25.3036 25.9722
6985 2 7.25704 25.2877 24.6846
6662 2 8.16518 23.7371 27.272
457 1 11.8027 23.7221 25.9881
6667 2 9.98469 23.707 24.7007
6664 2 10.8935 25.3194 27.2563
6441 2 15.4409 23.707 24.7007
459 1 14.5312 25.3036 25.9722
6665 2 12.7133 25.2877 24.6846
6410 2 13.6214 23.7371 27.272
227 1 17.2589 23.7221 25.9881
6443 2 18.1695 25.2877 24.6846
6408 2 16.3498 25.3194 27.2563
6264 2 20.8972 23.707 24.7007
225 1 19.9874 25.3036 25.9722
6261 2 19.0777 23.7371 27.272
7283 2 21.806 25.3194 27.2563
1016 1 0.890964 26.8847 25.9555
7285 2 1.80194 28.4479 24.6498
6939 2 2.70943 26.9014 27.2398
1014 1 3.61954 28.4654 25.9379
6944 2 4.52946 26.868 24.6676
6941 2 5.43787 28.4829 27.2225
718 1 6.3472 26.8847 25.9555
720 1 9.07578 28.4654 25.9379
6942 2 7.25818 28.4479 24.6498
6624 2 8.16567 26.9014 27.2398
422 1 11.8034 26.8847 25.9555
6666 2 9.98569 26.868 24.6676
6622 2 10.8941 28.4829 27.2225
420 1 14.532 28.4654 25.9379
6414 2 15.4419 26.868 24.6676
6668 2 12.7144 28.4479 24.6498
6409 2 13.6219 26.9014 27.2398
226 1 17.2597 26.8847 25.9555
6412 2 18.1707 28.4479 24.6498
6411 2 16.3503 28.4829 27.2225
228 1 19.9883 28.4654 25.9379
6263 2 20.8982 26.868 24.6676
7258 2 21.8066 28.4829 27.2225
6246 2 19.0781 26.9014 27.2398
1015 1 0.891964 30.0456 25.9195
7260 2 1.80343 31.6063 24.6115
6908 2 2.71013 30.064 27.2043
1017 1 3.62071 31.6253 25.9002
6943 2 4.53075 30.0273 24.6311
6906 2 5.43871 31.6446 27.1854
679 1 9.07695 31.6253 25.9002
681 1 6.3482 30.0456 25.9195
6945 2 7.25967 31.6063 24.6115
6623 2 8.16637 30.064 27.2043
421 1 11.8044 30.0456 25.9195
6628 2 9.98699 30.0273 24.6311
6625 2 10.895 31.6446 27.1854
423 1 14.5332 31.6253 25.9002
6413 2 15.4432 30.0273 24.6311
6626 2 12.7159 31.6063 24.6115
6382 2 13.6226 30.064 27.2043
203 1 17.2607 30.0456 25.9195
6415 2 18.1721 31.6063 24.6115
6380 2 16.3512 31.6446 27.1854
201 1 19.9894 31.6253 25.9002
6248 2 20.8995 30.0273 24.6311
7259 2 21.8074 31.6446 27.1854
6245 2 19.0788 30.064 27.2043
992 1 0.893337 33.2044 25.8802
7261 2 1.80538 34.7623 24.5698
6907 2 2.71115 33.2246 27.1656
990 1 3.62233 34.7828 25.8592
6912 2 4.53245 33.1846 24.5911
6909 2 5.43995 34.8039 27.145
680 1 6.34958 33.2044 25.8802
682 1 9.07857 34.7828 25.8592
6910 2 7.26162 34.7623 24.5698
6592 2 8.16739 33.2246 27.1656
387 1 11.8058 33.2044 25.8802
6627 2 9.98869 33.1846 24.5911
6590 2 10.8962 34.8039 27.145
385 1 14.5348 34.7828 25.8592
6386 2 15.4449 33.1846 24.5911
6629 2 12.7179 34.7623 24.5698
6381 2 13.6236 33.2246 27.1656
202 1 17.2621 33.2044 25.8802
6384 2 18.1741 34.7623 24.5698
6383 2 16.3524 34.8039 27.145
204 1 19.991 34.7828 25.8592
6247 2 20.9012 33.1846 24.5911
7242 2 21.8087 34.8039 27.145
6230 2 19.0799 33.2246 27.1656
991 1 0.895243 36.3605 25.8375
7244 2 1.80796 37.9155 24.5246
6884 2 2.71266 36.3826 27.1236
993 1 3.62458 37.9374 25.8148
6911 2 4.5347 36.3393 24.5476
6882 2 5.44177 37.9604 27.1014
649 1 9.08082 37.9374 25.8148
651 1 6.35148 36.3605 25.8375
6913 2 7.2642 37.9155 24.5246
6591 2 8.16889 36.3826 27.1236
386 1 11.8077 36.3605 25.8375
6596 2 9.99094 36.3393 24.5476
6593 2 10.898 37.9604 27.1014
388 1 14.5371 37.9374 25.8148
6385 2 15.4472 36.3393 24.5476
6594 2 12.7204 37.9155 24.5246
6355 2 13.6251 36.3826 27.1236
179 1 17.264 36.3605 25.8375
6387 2 18.1767 37.9155 24.5246
6353 2 16.3542 37.9604 27.1014
177 1 19.9933 37.9374 25.8148
6232 2 20.9034 36.3393 24.5476
7243 2 21.8105 37.9604 27.1014
6229 2 19.0814 36.3826 27.1236
976 1 0.897885 39.5133 25.7913
7245 2 1.81135 41.0652 24.4758
6883 2 2.71485 39.5373 27.0782
974 1 3.62768 41.0882 25.7668
6888 2 4.53766 39.4908 24.5006
6885 2 5.4444 41.1131 27.0542
650 1 6.35412 39.5133 25.7913
652 1 9.08391 41.0882 25.7668
6886 2 7.26759 41.0652 24.4758
6568 2 8.17108 39.5373 27.0782
359 1 11.8104 39.5133 25.7913
6595 2 9.9939 39.4908 24.5006
6566 2 10.9006 41.1131 27.0542
357 1 14.5402 41.0882 25.7668
6359 2 15.4501 39.4908 24.5006
6597 2 12.7238 41.0652 24.4758
6354 2 13.6273 39.5373 27.0782
178 1 17.2666 39.5133 25.7913
6357 2 18.1801 41.0652 24.4758
6356 2 16.3569 41.1131 27.0542
180 1 19.9964 41.0882 25.7668
6231 2 20.9064 39.4908 24.5006
7234 2 21.8131 41.1131 27.0542
6214 2 19.0836 39.5373 27.0782
975 1 0.901506 42.662 25.7413
6868 2 2.71799 42.6879 27.0292
977 1 3.63188 44.2345 25.7149
6887 2 4.54153 42.6385 24.45
6866 2 5.44814 44.2613 27.0032
627 1 9.08812 44.2345 25.7149
629 1 6.35774 42.662 25.7413
6567 2 8.17423 42.6879 27.0292
358 1 11.814 42.662 25.7413
6572 2 9.99777 42.6385 24.45
6569 2 10.9044 44.2613 27.0032
360 1 14.5444 44.2345 25.7149
6358 2 15.454 42.6385 24.45
6335 2 13.6305 42.6879 27.0292
156 1 17.2702 42.662 25.7413
6333 2 16.3606 44.2613 27.0032
154 1 20.0006 44.2345 25.7149
6216 2 20.9102 42.6385 24.45
7235 2 21.8169 44.2613 27.0032
6213 2 19.0867 42.6879 27.0292
968 1 0.906354 45.8058 25.6873
6867 2 2.72241 45.8334 26.9761
966 1 3.63742 47.3756 25.6587
628 1 6.36259 45.8058 25.6873
630 1 9.09365 47.3756 25.6587
6552 2 8.17865 45.8334 26.9761
339 1 11.8188 45.8058 25.6873
337 1 14.5499 47.3756 25.6587
6334 2 13.6349 45.8334 26.9761
155 1 17.2751 45.8058 25.6873
157 1 20.0061 47.3756 25.6587
6199 2 19.0911 45.8334 26.9761
967 1 0.912591 48.9441 25.6289
6857 2 2.7284 48.9732 26.9185
6869 2 5.45331 47.4041 26.9479
612 1 6.36883 48.9441 25.6289
6551 2 8.18464 48.9732 26.9185
338 1 11.8251 48.9441 25.6289
6550 2 10.9096 47.4041 26.9479
6320 2 13.6409 48.9732 26.9185
137 1 17.2813 48.9441 25.6289
6336 2 16.3658 47.4041 26.9479
7233 2 21.822 47.4041 26.9479
6198 2 19.0971 48.9732 26.9185
1178 1 1.7984 -0.0167381 28.6871
7070 2 0.890172 1.57273 29.967
7114 2 2.70741 1.56418 27.3995
846 1 4.52658 1.56852 28.6849
7112 2 3.61825 -0.0132886 29.9692
7113 2 5.43546 -0.0203122 27.4017
880 1 7.25464 -0.0167381 28.6871
6769 2 9.07449 -0.0132886 29.9692
6770 2 6.34641 1.57273 29.967
6774 2 8.16365 1.56418 27.3995
546 1 9.98281 1.56852 28.6849
6486 2 11.8026 1.57273 29.967
6800 2 10.8917 -0.0203122 27.4017
286 1 15.4391 1.56852 28.6849
545 1 12.7109 -0.0167381 28.6871
6504 2 14.5307 -0.0132886 29.9692
6506 2 13.6199 1.56418 27.3995
296 1 18.1671 -0.0167381 28.6871
6298 2 17.2589 1.57273 29.967
6505 2 16.3479 -0.0203122 27.4017
7446 2 21.8042 -0.0203122 27.4017
112 1 20.8953 1.56852 28.6849
6297 2 19.987 -0.0132886 29.9692
6301 2 19.0761 1.56418 27.3995
1179 1 1.79851 3.15375 28.6818
7069 2 0.890233 4.74465 29.9599
7074 2 2.70757 4.73304 27.3922
845 1 4.52668 4.73893 28.6777
7068 2 3.61833 3.15871 29.9639
7115 2 5.43561 3.14863 27.3963
844 1 7.25475 3.15375 28.6818
6738 2 6.34647 4.74465 29.9599
6771 2 9.07456 3.15871 29.9639
6773 2 8.1638 4.73304 27.3922
522 1 9.98292 4.73893 28.6777
6485 2 11.8027 4.74465 29.9599
6772 2 10.8918 3.14863 27.3963
285 1 15.4392 4.73893 28.6777
547 1 12.711 3.15375 28.6818
6484 2 14.5308 3.15871 29.9639
6490 2 13.62 4.73304 27.3922
284 1 18.1672 3.15375 28.6818
6290 2 17.2589 4.74465 29.9599
6507 2 16.3481 3.14863 27.3963
7400 2 21.8043 3.14863 27.3963
111 1 20.8954 4.73893 28.6777
6299 2 19.987 3.15871 29.9639
6300 2 19.0763 4.73304 27.3922
1131 1 1.79861 6.32405 28.6728
7023 2 0.890258 7.91635 29.9491
7073 2 2.70773 7.90167 27.3812
806 1 4.52677 7.90911 28.6668
7071 2 3.61837 6.33053 29.9549
7072 2 5.43576 6.31739 27.3872
847 1 7.25484 6.32405 28.6728
6736 2 9.07461 6.33053 29.9549
6737 2 6.3465 7.91635 29.9491
6742 2 8.16397 7.90167 27.3812
521 1 9.98301 7.90911 28.6668
6462 2 11.8027 7.91635 29.9491
6775 2 10.892 6.31739 27.3872
270 1 15.4392 7.90911 28.6668
520 1 12.7111 6.32405 28.6728
6487 2 14.5308 6.33053 29.9549
6489 2 13.6202 7.90167 27.3812
287 1 18.1673 6.32405 28.6728
6289 2 17.259 7.91635 29.9491
6488 2 16.3482 6.31739 27.3872
7401 2 21.8045 6.31739 27.3872
110 1 20.8955 7.90911 28.6668
6288 2 19.9871 6.33053 29.9549
6293 2 19.0764 7.90167 27.3812
1132 1 1.79869 9.49408 28.66
7022 2 0.890247 11.0878 29.9346
7027 2 2.7079 11.07 27.3665
805 1 4.52684 11.079 28.6523
7021 2 3.61838 9.5021 29.9423
7075 2 5.43593 9.48587 27.3743
804 1 7.25492 9.49408 28.66
6699 2 6.34649 11.0878 29.9346
6739 2 9.07461 9.5021 29.9423
6741 2 8.16414 11.07 27.3665
490 1 9.98308 11.079 28.6523
6461 2 11.8027 11.0878 29.9346
6740 2 10.8922 9.48587 27.3743
269 1 15.4393 11.079 28.6523
523 1 12.7112 9.49408 28.66
6460 2 14.5309 9.5021 29.9423
6466 2 13.6204 11.07 27.3665
268 1 18.1674 9.49408 28.66
6275 2 17.259 11.0878 29.9346
6491 2 16.3484 9.48587 27.3743
7354 2 21.8046 9.48587 27.3743
103 1 20.8956 11.079 28.6523
6291 2 19.9871 9.5021 29.9423
6292 2 19.0766 11.07 27.3665
1084 1 1.79876 12.6637 28.6437
6976 2 0.890202 14.2587 29.9166
7026 2 2.7081 14.2378 27.3482
760 1 4.5269 14.2484 28.6341
7024 2 3.61835 12.6733 29.9261
7025 2 5.43612 12.654 27.3578
807 1 7.25499 12.6637 28.6437
6697 2 9.07459 12.6733 29.9261
6698 2 6.34644 14.2587 29.9166
6703 2 8.16434 14.2378 27.3482
489 1 9.98314 14.2484 28.6341
6434 2 11.8027 14.2587 29.9166
6743 2 10.8924 12.654 27.3578
247 1 15.4394 14.2484 28.6341
488 1 12.7112 12.6637 28.6437
6463 2 14.5308 12.6733 29.9261
6465 2 13.6206 14.2378 27.3482
271 1 18.1675 12.6637 28.6437
6274 2 17.2589 14.2587 29.9166
6464 2 16.3486 12.654 27.3578
7355 2 21.8048 12.654 27.3578
102 1 20.8956 14.2484 28.6341
6273 2 19.9871 12.6733 29.9261
6278 2 19.0768 14.2378 27.3482
1085 1 1.79881 15.8329 28.6237
6975 2 0.890125 17.4292 29.8952
759 1 4.52696 17.4172 28.6125
6974 2 3.61829 15.844 29.9063
7028 2 5.43632 15.8216 27.3377
758 1 7.25505 15.8329 28.6237
6659 2 6.34636 17.4292 29.8952
6700 2 9.07452 15.844 29.9063
454 1 9.9832 17.4172 28.6125
6433 2 11.8026 17.4292 29.8952
6701 2 10.8926 15.8216 27.3377
246 1 15.4394 17.4172 28.6125
491 1 12.7113 15.8329 28.6237
6432 2 14.5308 15.844 29.9063
245 1 18.1675 15.8329 28.6237
6259 2 17.2588 17.4292 29.8952
6467 2 16.3488 15.8216 27.3377
7314 2 21.805 15.8216 27.3377
91 1 20.8957 17.4172 28.6125
6276 2 19.987 15.844 29.9063
1044 1 1.79887 19.0014 28.6003
6936 2 0.890032 20.5989 29.8703
715 1 4.52703 20.5854 28.5873
6977 2 3.6182 19.0142 29.8832
761 1 7.25511 19.0014 28.6003
6657 2 9.07444 19.0142 29.8832
6658 2 6.34627 20.5989 29.8703
453 1 9.98327 20.5854 28.5873
6406 2 11.8025 20.5989 29.8703
223 1 15.4395 20.5854 28.5873
452 1 12.7114 19.0014 28.6003
6435 2 14.5307 19.0142 29.8832
248 1 18.1676 19.0014 28.6003
6258 2 17.2587 20.5989 29.8703
90 1 20.8957 20.5854 28.5873
6257 2 19.9869 19.0142 29.8832
1045 1 1.79896 22.1691 28.5735
6934 2 3.61811 22.1835 29.8566
713 1 7.2552 22.1691 28.5735
6660 2 9.07434 22.1835 29.8566
455 1 12.7114 22.1691 28.5735
6404 2 14.5306 22.1835 29.8566
221 1 18.1677 22.1691 28.5735
6260 2 19.9868 22.1835 29.8566
6935 2 0.889947 23.7678 29.8421
1012 1 1.79911 25.3357 28.5434
714 1 4.52714 23.7525 28.5589
6937 2 3.61804 25.3518 29.8269
6620 2 6.34619 23.7678 29.8421
716 1 7.25535 25.3357 28.5434
6618 2 9.07428 25.3518 29.8269
418 1 9.98338 23.7525 28.5589
6405 2 11.8024 23.7678 29.8421
222 1 15.4396 23.7525 28.5589
416 1 12.7116 25.3357 28.5434
6407 2 14.5305 25.3518 29.8269
6243 2 17.2587 23.7678 29.8421
224 1 18.1678 25.3357 28.5434
79 1 20.8959 23.7525 28.5589
6241 2 19.9868 25.3518 29.8269
1013 1 1.79938 28.5009 28.5101
6904 2 0.889911 26.9355 29.8108
677 1 4.52735 26.9185 28.5271
6902 2 3.61805 28.5188 29.7939
675 1 7.25562 28.5009 28.5101
6619 2 6.34615 26.9355 29.8108
6621 2 9.07429 28.5188 29.7939
417 1 9.98359 26.9185 28.5271
6378 2 11.8024 26.9355 29.8108
199 1 15.4398 26.9185 28.5271
419 1 12.7119 28.5009 28.5101
6376 2 14.5305 28.5188 29.7939
197 1 18.1681 28.5009 28.5101
6242 2 17.2586 26.9355 29.8108
78 1 20.8961 26.9185 28.5271
6244 2 19.9868 28.5188 29.7939
988 1 1.79987 31.6643 28.4736
6903 2 0.889987 30.1018 29.7763
676 1 4.52771 30.0828 28.4923
6905 2 3.61822 31.6842 29.758
678 1 7.2561 31.6643 28.4736
6586 2 9.07445 31.6842 29.758
6588 2 6.34623 30.1018 29.7763
383 1 9.98395 30.0828 28.4923
6377 2 11.8025 30.1018 29.7763
198 1 15.4402 30.0828 28.4923
381 1 12.7123 31.6643 28.4736
6379 2 14.5307 31.6842 29.758
200 1 18.1686 31.6643 28.4736
6227 2 17.2587 30.1018 29.7763
67 1 20.8964 30.0828 28.4923
6225 2 19.9869 31.6842 29.758
989 1 1.8007 34.8255 28.4341
6880 2 0.890276 33.2662 29.7389
647 1 4.52835 33.2452 28.4542
6878 2 3.61866 34.8475 29.719
645 1 7.25693 34.8255 28.4341
6587 2 6.34651 33.2662 29.7389
6589 2 9.0749 34.8475 29.719
382 1 9.98458 33.2452 28.4542
6351 2 11.8028 33.2662 29.7389
175 1 15.4408 33.2452 28.4542
384 1 12.7132 34.8255 28.4341
6349 2 14.5311 34.8475 29.719
173 1 18.1694 34.8255 28.4341
6226 2 17.259 33.2662 29.7389
66 1 20.8971 33.2452 28.4542
6228 2 19.9874 34.8475 29.719
972 1 1.80206 37.9838 28.3913
6879 2 0.890925 36.4282 29.6983
646 1 4.52942 36.4051 28.4131
6881 2 3.61957 38.008 29.6769
648 1 7.2583 37.9838 28.3913
6562 2 9.0758 38.008 29.6769
6564 2 6.34716 36.4282 29.6983
355 1 9.98565 36.4051 28.4131
6350 2 11.8034 36.4282 29.6983
174 1 15.4419 36.4051 28.4131
353 1 12.7145 37.9838 28.3913
6352 2 14.532 38.008 29.6769
176 1 18.1708 37.9838 28.3913
6211 2 17.2596 36.4282 29.6983
55 1 20.8981 36.4051 28.4131
6209 2 19.9883 38.008 29.6769
973 1 1.80423 41.1383 28.3452
6864 2 0.892145 39.587 29.6546
625 1 4.53115 39.5616 28.3687
6862 2 3.62118 41.165 29.6315
623 1 7.26047 41.1383 28.3452
6563 2 6.34838 39.587 29.6546
6565 2 9.07742 41.165 29.6315
354 1 9.98738 39.5616 28.3687
6331 2 11.8046 39.587 29.6546
152 1 15.4436 39.5616 28.3687
356 1 12.7167 41.1383 28.3452
6329 2 14.5337 41.165 29.6315
150 1 18.1729 41.1383 28.3452
6210 2 17.2609 39.587 29.6546
54 1 20.8999 39.5616 28.3687
6212 2 19.9899 41.165 29.6315
964 1 1.80756 44.2881 28.2952
6863 2 0.894239 42.7419 29.6075
624 1 4.53384 42.7139 28.3207
6865 2 3.62386 44.3174 29.5825
626 1 7.2638 44.2881 28.2952
6546 2 9.0801 44.3174 29.5825
6548 2 6.35048 42.7419 29.6075
335 1 9.99008 42.7139 28.3207
6330 2 11.8067 42.7419 29.6075
151 1 15.4463 42.7139 28.3207
333 1 12.72 44.2881 28.2952
6332 2 14.5363 44.3174 29.5825
153 1 18.1763 44.2881 28.2952
6196 2 17.263 42.7419 29.6075
43 1 20.9026 42.7139 28.3207
6194 2 19.9926 44.3174 29.5825
6856 2 0.897623 45.8914 29.5564
611 1 4.53791 45.8608 28.2687
6547 2 6.35386 45.8914 29.5564
334 1 9.99414 45.8608 28.2687
6319 2 11.8101 45.8914 29.5564
136 1 15.4504 45.8608 28.2687
6195 2 17.2663 45.8914 29.5564
42 1 20.9066 45.8608 28.2687
965 1 1.81246 47.4318 28.2409
6855 2 0.902817 49.0342 29.5005
6854 2 3.62808 47.4637 29.5291
610 1 4.54375 49.001 28.2118
609 1 7.2687 47.4318 28.2409
6549 2 9.08432 47.4637 29.5291
6537 2 6.35906 49.0342 29.5005
320 1 9.99999 49.001 28.2118
6318 2 11.8153 49.0342 29.5005
336 1 12.7249 47.4318 28.2409
6317 2 14.5406 47.4637 29.5291
135 1 15.4562 49.001 28.2118
134 1 18.1812 47.4318 28.2409
6185 2 17.2715 49.0342 29.5005
6197 2 19.9968 47.4637 29.5291
31 1 20.9125 49.001 28.2118
842 1 2.70956 1.57709 31.2521
7066 2 1.80152 -0.00622744 32.5359
841 1 5.43766 -0.00969943 31.2542
6734 2 4.52966 1.58132 32.5337
518 1 8.1658 1.57709 31.2521
6768 2 7.25776 -0.00622744 32.5359
544 1 10.8939 -0.00969943 31.2542
6482 2 9.9859 1.58132 32.5337
282 1 13.622 1.57709 31.2521
6286 2 15.4421 1.58132 32.5337
6481 2 12.714 -0.00622744 32.5359
281 1 16.3501 -0.00969943 31.2542
6296 2 18.1702 -0.00622744 32.5359
1177 1 21.8064 -0.00969943 31.2542
109 1 19.0783 1.57709 31.2521
6176 2 20.8984 1.58132 32.5337
802 1 2.70958 4.75055 31.245
7067 2 1.80154 3.16884 32.5307
843 1 5.4377 3.16384 31.249
6733 2 4.52963 4.75631 32.5267
517 1 8.16582 4.75055 31.245
6732 2 7.25778 3.16884 32.5307
516 1 10.8939 3.16384 31.249
6458 2 9.98587 4.75631 32.5267
266 1 13.6221 4.75055 31.245
6285 2 15.4421 4.75631 32.5267
6483 2 12.714 3.16884 32.5307
283 1 16.3502 3.16384 31.249
6284 2 18.1703 3.16884 32.5307
1129 1 21.8064 3.16384 31.249
108 1 19.0783 4.75055 31.245
6175 2 20.8984 4.75631 32.5267
801 1 2.70953 7.92381 31.2343
7019 2 1.80147 6.34374 32.5218
800 1 5.43768 6.33722 31.2401
6695 2 4.52953 7.93111 32.516
486 1 8.16577 7.92381 31.2343
6735 2 7.25771 6.34374 32.5218
519 1 10.8939 6.33722 31.2401
6457 2 9.98577 7.93111 32.516
265 1 13.622 7.92381 31.2343
6271 2 15.442 7.93111 32.516
6456 2 12.714 6.34374 32.5218
264 1 16.3502 6.33722 31.2401
6287 2 18.1702 6.34374 32.5218
1130 1 21.8064 6.33722 31.2401
101 1 19.0782 7.92381 31.2343
6174 2 20.8982 7.93111 32.516
756 1 2.70942 11.0968 31.22
7020 2 1.80133 9.51842 32.5094
803 1 5.4376 9.51034 31.2276
6694 2 4.52935 11.1056 32.5018
485 1 8.16566 11.0968 31.22
6693 2 7.25757 9.51842 32.5094
484 1 10.8938 9.51034 31.2276
6430 2 9.98559 11.1056 32.5018
243 1 13.6219 11.0968 31.22
6270 2 15.4418 11.1056 32.5018
6459 2 12.7138 9.51842 32.5094
267 1 16.3501 9.51034 31.2276
6269 2 18.17 9.51842 32.5094
1082 1 21.8063 9.51034 31.2276
100 1 19.0781 11.0968 31.22
6171 2 20.8981 11.1056 32.5018
755 1 2.70925 14.2694 31.2021
6972 2 1.80111 12.6928 32.4934
754 1 5.43747 12.6831 31.2115
6655 2 4.52909 14.2798 32.4841
450 1 8.16549 14.2694 31.2021
6696 2 7.25735 12.6928 32.4934
487 1 10.8937 12.6831 31.2115
6429 2 9.98533 14.2798 32.4841
242 1 13.6217 14.2694 31.2021
6255 2 15.4416 14.2798 32.4841
6428 2 12.7136 12.6928 32.4934
241 1 16.3499 12.6831 31.2115
6272 2 18.1698 12.6928 32.4934
1083 1 21.8062 12.6831 31.2115
89 1 19.078 14.2694 31.2021
6170 2 20.8978 14.2798 32.4841
711 1 2.70902 17.4414 31.1809
6973 2 1.80081 15.8667 32.474
757 1 5.43726 15.8555 31.1919
6654 2 4.52874 17.4535 32.463
449 1 8.16525 17.4414 31.1809
6653 2 7.25704 15.8667 32.474
448 1 10.8935 15.8555 31.1919
6402 2 9.98498 17.4535 32.463
219 1 13.6215 17.4414 31.1809
6254 2 15.4412 17.4535 32.463
6431 2 12.7133 15.8667 32.474
244 1 16.3497 15.8555 31.1919
6253 2 18.1695 15.8667 32.474
1042 1 21.806 15.8555 31.1919
88 1 19.0777 17.4414 31.1809
6167 2 20.8975 17.4535 32.463
710 1 2.70873 20.6128 31.1563
6932 2 1.80042 19.0401 32.4512
709 1 5.437 19.0272 31.169
6616 2 4.52831 20.6266 32.4386
414 1 8.16496 20.6128 31.1563
6656 2 7.25665 19.0401 32.4512
451 1 10.8932 19.0272 31.169
6401 2 9.98455 20.6266 32.4386
218 1 13.6212 20.6128 31.1563
6239 2 15.4408 20.6266 32.4386
6400 2 12.7129 19.0401 32.4512
217 1 16.3495 19.0272 31.169
6256 2 18.1691 19.0401 32.4512
1043 1 21.8057 19.0272 31.169
77 1 19.0774 20.6128 31.1563
6166 2 20.897 20.6266 32.4386
6933 2 1.79995 22.2129 32.4252
712 1 5.43669 22.1983 31.1427
6614 2 7.25619 22.2129 32.4252
412 1 10.8929 22.1983 31.1427
6403 2 12.7124 22.2129 32.4252
220 1 16.3492 22.1983 31.1427
6237 2 18.1687 22.2129 32.4252
1010 1 21.8054 22.1983 31.1427
673 1 2.7084 23.7834 31.1284
6900 2 1.79944 25.3848 32.3961
6615 2 4.52782 23.7989 32.411
671 1 5.43636 25.3683 31.1133
413 1 8.16464 23.7834 31.1284
6617 2 7.25568 25.3848 32.3961
6374 2 9.98406 23.7989 32.411
415 1 10.8926 25.3683 31.1133
195 1 13.6209 23.7834 31.1284
6238 2 15.4403 23.7989 32.411
6372 2 12.7119 25.3848 32.3961
193 1 16.3488 25.3683 31.1133
6240 2 18.1682 25.3848 32.3961
76 1 19.0771 23.7834 31.1284
6163 2 20.8965 23.7989 32.411
1011 1 21.8051 25.3683 31.1133
672 1 2.70808 26.953 31.0975
6901 2 1.79891 28.5556 32.3639
674 1 5.43605 28.5372 31.0809
6584 2 4.52729 26.9703 32.3804
379 1 8.16432 26.953 31.0975
6582 2 7.25514 28.5556 32.3639
377 1 10.8923 28.5372 31.0809
6373 2 9.98353 26.9703 32.3804
194 1 13.6206 26.953 31.0975
6223 2 15.4398 26.9703 32.3804
6375 2 12.7114 28.5556 32.3639
196 1 16.3485 28.5372 31.0809
6221 2 18.1676 28.5556 32.3639
986 1 21.8048 28.5372 31.0809
65 1 19.0768 26.953 31.0975
6162 2 20.896 26.9703 32.3804
643 1 2.7078 30.1211 31.0636
6876 2 1.79841 31.7251 32.3289
641 1 5.43583 31.7046 31.0455
6583 2 4.52677 30.1405 32.3468
378 1 8.16404 30.1211 31.0636
6585 2 7.25465 31.7251 32.3289
380 1 10.8921 31.7046 31.0455
6347 2 9.98301 30.1405 32.3468
171 1 13.6203 30.1211 31.0636
6222 2 15.4392 30.1405 32.3468
6345 2 12.7109 31.7251 32.3289
169 1 16.3483 31.7046 31.0455
6224 2 18.1671 31.7251 32.3289
987 1 21.8045 31.7046 31.0455
64 1 19.0765 30.1211 31.0636
6159 2 20.8955 30.1405 32.3468
642 1 2.70767 33.2876 31.0268
6877 2 1.79806 34.8928 32.2911
644 1 5.43582 34.8701 31.0073
6560 2 4.52633 33.3092 32.3104
351 1 8.16391 33.2876 31.0268
6558 2 7.2543 34.8928 32.2911
349 1 10.8921 34.8701 31.0073
6346 2 9.98257 33.3092 32.3104
170 1 13.6201 33.2876 31.0268
6207 2 15.4388 33.3092 32.3104
6348 2 12.7105 34.8928 32.2911
172 1 16.3483 34.8701 31.0073
6205 2 18.1668 34.8928 32.2911
970 1 21.8045 34.8701 31.0073
53 1 19.0764 33.2876 31.0268
6158 2 20.895 33.3092 32.3104
621 1 2.70783 36.4518 30.9871
6860 2 1.79799 38.0582 32.2505
619 1 5.43619 38.0329 30.9662
6559 2 4.5261 36.4758 32.2711
350 1 8.16406 36.4518 30.9871
6561 2 7.25423 38.0582 32.2505
352 1 10.8924 38.0329 30.9662
6327 2 9.98233 36.4758 32.2711
148 1 13.6203 36.4518 30.9871
6206 2 15.4386 36.4758 32.2711
6325 2 12.7105 38.0582 32.2505
146 1 16.3487 38.0329 30.9662
6208 2 18.1667 38.0582 32.2505
971 1 21.8049 38.0329 30.9662
52 1 19.0765 36.4518 30.9871
6155 2 20.8948 36.4758 32.2711
620 1 2.70847 39.6131 30.9445
6861 2 1.79842 41.2206 32.2069
622 1 5.43719 41.1924 30.922
6544 2 4.52624 39.6398 32.2291
331 1 8.16471 39.6131 30.9445
6542 2 7.25466 41.2206 32.2069
329 1 10.8934 41.1924 30.922
6326 2 9.98248 39.6398 32.2291
147 1 13.6209 39.6131 30.9445
6192 2 15.4387 39.6398 32.2291
6328 2 12.7109 41.2206 32.2069
149 1 16.3497 41.1924 30.922
6190 2 18.1671 41.2206 32.2069
962 1 21.8059 41.1924 30.922
41 1 19.0772 39.6131 30.9445
6154 2 20.895 39.6398 32.2291
607 1 2.70992 42.7705 30.8987
6852 2 1.79971 44.3788 32.16
605 1 5.43921 44.3473 30.8744
6543 2 4.52705 42.8003 32.1839
330 1 8.16616 42.7705 30.8987
6545 2 7.25595 44.3788 32.16
332 1 10.8954 44.3473 30.8744
6315 2 9.98329 42.8003 32.1839
132 1 13.6224 42.7705 30.8987
6191 2 15.4395 42.8003 32.1839
6313 2 12.7122 44.3788 32.16
130 1 16.3517 44.3473 30.8744
6193 2 18.1684 44.3788 32.16
963 1 21.8079 44.3473 30.8744
40 1 19.0786 42.7705 30.8987
6151 2 20.8958 42.8003 32.1839
606 1 2.71265 45.9226 30.8492
6536 2 4.52895 45.9558 32.1351
319 1 8.16889 45.9226 30.8492
6314 2 9.98518 45.9558 32.1351
131 1 13.6251 45.9226 30.8492
6184 2 15.4414 45.9558 32.1351
30 1 19.0814 45.9226 30.8492
6150 2 20.8977 45.9558 32.1351
6853 2 1.80237 47.5312 32.109
598 1 2.71731 49.0676 30.7949
608 1 5.44281 47.4961 30.8227
6535 2 4.53256 49.1045 32.0816
6534 2 7.25861 47.5312 32.109
318 1 8.17355 49.0676 30.7949
317 1 10.899 47.4961 30.8227
6308 2 9.9888 49.1045 32.0816
6316 2 12.7148 47.5312 32.109
121 1 13.6298 49.0676 30.7949
6183 2 15.445 49.1045 32.0816
133 1 16.3553 47.4961 30.8227
6182 2 18.1711 47.5312 32.109
961 1 21.8115 47.4961 30.8227
29 1 19.086 49.0676 30.7949
6147 2 20.9013 49.1045 32.0816
798 1 0.893056 1.5857 33.8183
6730 2 2.71343 1.58996 35.0996
840 1 3.62117 -0.00262117 33.8205
6729 2 5.44155 0.000875442 35.1017
513 1 9.07741 -0.00262117 33.8205
514 1 6.34929 1.5857 33.8183
6454 2 8.16966 1.58996 35.0996
262 1 11.8055 1.5857 33.8183
6480 2 10.8978 0.000875441 35.1017
280 1 14.5337 -0.00262117 33.8205
6282 2 13.6259 1.58996 35.0996
106 1 17.2618 1.5857 33.8183
6281 2 16.354 0.000875442 35.1017
7065 2 21.8103 0.000875441 35.1017
105 1 19.9899 -0.00262117 33.8205
6173 2 19.0821 1.58996 35.0996
797 1 0.892988 4.76224 33.8114
6691 2 2.71333 4.76805 35.0926
796 1 3.62115 3.17399 33.8153
6731 2 5.44151 3.17902 35.0966
482 1 6.34923 4.76224 33.8114
515 1 9.07739 3.17399 33.8153
6453 2 8.16957 4.76805 35.0926
261 1 11.8055 4.76224 33.8114
6452 2 10.8977 3.17902 35.0966
260 1 14.5336 3.17399 33.8153
6267 2 13.6258 4.76805 35.0926
98 1 17.2617 4.76224 33.8114
6283 2 16.354 3.17902 35.0966
7017 2 21.8102 3.17902 35.0966
107 1 19.9899 3.17399 33.8153
6172 2 19.082 4.76805 35.0926
752 1 0.892821 7.9386 33.8008
6690 2 2.71312 7.94596 35.0821
799 1 3.62104 6.35045 33.8065
6689 2 5.44136 6.35703 35.0878
480 1 9.07727 6.35045 33.8065
481 1 6.34906 7.9386 33.8008
6426 2 8.16936 7.94596 35.0821
239 1 11.8053 7.9386 33.8008
6455 2 10.8976 6.35703 35.0878
263 1 14.5335 6.35045 33.8065
6266 2 13.6256 7.94596 35.0821
97 1 17.2615 7.9386 33.8008
6265 2 16.3538 6.35703 35.0878
7018 2 21.8101 6.35703 35.0878
96 1 19.9898 6.35045 33.8065
6169 2 19.0818 7.94596 35.0821
751 1 0.892553 11.1147 33.7867
6651 2 2.71279 11.1236 35.0681
750 1 3.62082 9.52669 33.7942
6692 2 5.44109 9.53484 35.0755
446 1 6.34879 11.1147 33.7867
483 1 9.07706 9.52669 33.7942
6425 2 8.16903 11.1236 35.0681
238 1 11.805 11.1147 33.7867
6424 2 10.8973 9.53484 35.0755
237 1 14.5333 9.52669 33.7942
6251 2 13.6253 11.1236 35.0681
86 1 17.2613 11.1147 33.7867
6268 2 16.3536 9.53484 35.0755
6970 2 21.8098 9.53484 35.0755
99 1 19.9895 9.52669 33.7942
6168 2 19.0815 11.1236 35.0681
707 1 0.892175 14.2905 33.7691
6650 2 2.71234 14.301 35.0506
753 1 3.6205 12.7026 33.7783
6649 2 5.4407 12.7124 35.0598
444 1 9.07674 12.7026 33.7783
445 1 6.34841 14.2905 33.7691
6398 2 8.16858 14.301 35.0506
215 1 11.8047 14.2905 33.7691
6427 2 10.8969 12.7124 35.0598
240 1 14.533 12.7026 33.7783
6250 2 13.6248 14.301 35.0506
85 1 17.2609 14.2905 33.7691
6249 2 16.3532 12.7124 35.0598
6971 2 21.8094 12.7124 35.0598
84 1 19.9892 12.7026 33.7783
6165 2 19.0811 14.301 35.0506
706 1 0.891679 17.4658 33.7482
6612 2 2.71175 17.478 35.0298
705 1 3.62006 15.8782 33.7591
6652 2 5.44018 15.8896 35.0406
410 1 6.34792 17.4658 33.7482
447 1 9.0763 15.8782 33.7591
6397 2 8.16799 17.478 35.0298
214 1 11.8042 17.4658 33.7482
6396 2 10.8964 15.8896 35.0406
213 1 14.5325 15.8782 33.7591
6235 2 13.6242 17.478 35.0298
74 1 17.2604 17.4658 33.7482
6252 2 16.3527 15.8896 35.0406
6930 2 21.8089 15.8896 35.0406
87 1 19.9888 15.8782 33.7591
6164 2 19.0805 17.478 35.0298
669 1 0.89107 20.6406 33.724
6611 2 2.71104 20.6545 35.0057
708 1 3.61951 19.0533 33.7365
6610 2 5.43953 19.0663 35.0181
408 1 9.07575 19.0533 33.7365
409 1 6.34731 20.6406 33.724
6370 2 8.16728 20.6545 35.0057
191 1 11.8035 20.6406 33.724
6399 2 10.8958 19.0663 35.0181
216 1 14.532 19.0533 33.7365
6234 2 13.6235 20.6545 35.0057
73 1 17.2598 20.6406 33.724
6233 2 16.352 19.0663 35.0181
6931 2 21.8082 19.0663 35.0181
72 1 19.9882 19.0533 33.7365
6161 2 19.0798 20.6545 35.0057
667 1 3.61884 22.2278 33.7107
6613 2 5.43875 22.2426 34.9925
411 1 9.07508 22.2278 33.7107
6368 2 10.895 22.2426 34.9925
189 1 14.5313 22.2278 33.7107
6236 2 16.3512 22.2426 34.9925
6898 2 21.8075 22.2426 34.9925
75 1 19.9876 22.2278 33.7107
668 1 0.890356 23.8148 33.6967
6580 2 2.7102 23.8305 34.9785
670 1 3.61808 25.4015 33.6819
6578 2 5.43785 25.4182 34.9638
375 1 6.34659 23.8148 33.6967
6369 2 8.16643 23.8305 34.9785
373 1 9.07432 25.4015 33.6819
190 1 11.8028 23.8148 33.6967
6371 2 10.8941 25.4182 34.9638
6219 2 13.6227 23.8305 34.9785
192 1 14.5306 25.4015 33.6819
62 1 17.2591 23.8148 33.6967
6217 2 16.3503 25.4182 34.9638
6160 2 19.0789 23.8305 34.9785
6899 2 21.8066 25.4182 34.9638
60 1 19.9868 25.4015 33.6819
639 1 0.889553 26.9881 33.6664
6579 2 2.70924 27.0057 34.9484
637 1 3.61725 28.5744 33.6501
6581 2 5.43684 28.593 34.9322
374 1 6.34579 26.9881 33.6664
376 1 9.07348 28.5744 33.6501
6343 2 8.16548 27.0057 34.9484
167 1 11.802 26.9881 33.6664
6341 2 10.8931 28.593 34.9322
165 1 14.5297 28.5744 33.6501
6218 2 13.6217 27.0057 34.9484
61 1 17.2583 26.9881 33.6664
6220 2 16.3493 28.593 34.9322
6874 2 21.8056 28.593 34.9322
63 1 19.986 28.5744 33.6501
6157 2 19.078 27.0057 34.9484
638 1 0.888693 30.1603 33.6332
6556 2 2.70819 30.1801 34.9154
640 1 3.61638 31.746 33.6156
6554 2 5.43577 31.7669 34.8979
345 1 9.07262 31.746 33.6156
347 1 6.34493 30.1603 33.6332
6342 2 8.16443 30.1801 34.9154
166 1 11.8012 30.1603 33.6332
6344 2 10.892 31.7669 34.8979
168 1 14.5289 31.746 33.6156
6203 2 13.6207 30.1801 34.9154
50 1 17.2574 30.1603 33.6332
6201 2 16.3482 31.7669 34.8979
6875 2 21.8045 31.7669 34.8979
48 1 19.9851 31.746 33.6156
6156 2 19.0769 30.1801 34.9154
617 1 0.887836 33.3313 33.5974
6555 2 2.7071 33.3533 34.8797
615 1 3.61556 34.9161 33.5785
6557 2 5.43468 34.9395 34.8609
346 1 6.34407 33.3313 33.5974
348 1 9.0718 34.9161 33.5785
6323 2 8.16334 33.3533 34.8797
144 1 11.8003 33.3313 33.5974
6321 2 10.8909 34.9395 34.8609
142 1 14.528 34.9161 33.5785
6202 2 13.6196 33.3533 34.8797
49 1 17.2566 33.3313 33.5974
6204 2 16.3472 34.9395 34.8609
6858 2 21.8034 34.9395 34.8609
51 1 19.9843 34.9161 33.5785
6153 2 19.0758 33.3533 34.8797
616 1 0.887085 36.5005 33.5589
6540 2 2.70605 36.5252 34.8415
618 1 3.61491 38.0843 33.5387
6538 2 5.4337 38.1104 34.8214
325 1 9.07115 38.0843 33.5387
327 1 6.34332 36.5005 33.5589
6322 2 8.16229 36.5252 34.8415
143 1 11.7996 36.5005 33.5589
6324 2 10.8899 38.1104 34.8214
145 1 14.5274 38.0843 33.5387
6188 2 13.6185 36.5252 34.8415
38 1 17.2558 36.5005 33.5589
6186 2 16.3462 38.1104 34.8214
6859 2 21.8024 38.1104 34.8214
36 1 19.9836 38.0843 33.5387
6152 2 19.0748 36.5252 34.8415
603 1 0.886593 39.6675 33.5179
6539 2 2.70516 39.6951 34.8007
601 1 3.61464 41.2498 33.4963
6541 2 5.43296 41.2791 34.7793
326 1 6.34283 39.6675 33.5179
328 1 9.07088 41.2498 33.4963
6311 2 8.1614 39.6951 34.8007
128 1 11.7991 39.6675 33.5179
6309 2 10.8892 41.2791 34.7793
126 1 14.5271 41.2498 33.4963
6187 2 13.6176 39.6951 34.8007
37 1 17.2553 39.6675 33.5179
6189 2 16.3454 41.2791 34.7793
6850 2 21.8017 41.2791 34.7793
39 1 19.9834 41.2498 33.4963
6149 2 19.0739 39.6951 34.8007
602 1 0.886616 42.8313 33.4741
6532 2 2.70464 42.8624 34.7571
604 1 3.61506 44.4117 33.4511
6530 2 5.43274 44.4448 34.7342
313 1 9.0713 44.4117 33.4511
315 1 6.34285 42.8313 33.4741
6310 2 8.16088 42.8624 34.7571
127 1 11.7991 42.8313 33.4741
6312 2 10.889 44.4448 34.7342
129 1 14.5275 44.4117 33.4511
6180 2 13.6171 42.8624 34.7571
27 1 17.2553 42.8313 33.4741
6178 2 16.3452 44.4448 34.7342
6851 2 21.8015 44.4448 34.7342
25 1 19.9838 44.4117 33.4511
6148 2 19.0734 42.8624 34.7571
597 1 0.887579 45.9908 33.4272
6531 2 2.70482 46.026 34.7105
314 1 6.34382 45.9908 33.4272
6307 2 8.16106 46.026 34.7105
120 1 11.8001 45.9908 33.4272
6179 2 13.6173 46.026 34.7105
26 1 17.2563 45.9908 33.4272
6146 2 19.0735 46.026 34.7105
596 1 0.890187 49.144 33.3765
6529 2 2.70628 49.1839 34.6597
595 1 3.61674 47.5684 33.4024
6533 2 5.43346 47.6058 34.6857
316 1 9.07297 47.5684 33.4024
308 1 6.34643 49.144 33.3765
6306 2 8.16251 49.1839 34.6597
6305 2 10.8897 47.6058 34.6857
119 1 11.8027 49.144 33.3765
118 1 14.5292 47.5684 33.4024
6177 2 13.6188 49.1839 34.6597
6181 2 16.3459 47.6058 34.6857
20 1 17.2589 49.144 33.3765
6849 2 21.8022 47.6058 34.6857
28 1 19.9855 47.5684 33.4024
6145 2 19.075 49.1839 34.6597
8318 2 0.897737 1.59866 37.6645
794 1 1.80522 0.00450084 36.3859
8320 2 3.62588 0.00802373 37.6667
478 1 4.53332 1.59436 36.3837
8286 2 9.08212 0.00802373 37.6667
8287 2 6.35397 1.59866 37.6645
512 1 7.26146 0.00450084 36.3859
8254 2 11.8102 1.59866 37.6645
258 1 9.98956 1.59436 36.3837
8256 2 14.5384 0.00802373 37.6667
94 1 15.4458 1.59436 36.3837
257 1 12.7177 0.00450084 36.3859
8223 2 17.2665 1.59866 37.6645
104 1 18.1739 0.00450084 36.3859
8222 2 19.9946 0.00802373 37.6667
16 1 20.902 1.59436 36.3837
8317 2 0.897577 4.77985 37.6577
795 1 1.80515 3.1842 36.3807
8316 2 3.62579 3.18927 37.6615
477 1 4.53318 4.774 36.3768
8284 2 6.35382 4.77985 37.6577
8288 2 9.08203 3.18927 37.6615
476 1 7.26138 3.1842 36.3807
8253 2 11.8101 4.77985 37.6577
235 1 9.98942 4.774 36.3768
8252 2 14.5383 3.18927 37.6615
93 1 15.4457 4.774 36.3768
259 1 12.7176 3.1842 36.3807
8220 2 17.2663 4.77985 37.6577
92 1 18.1739 3.1842 36.3807
8224 2 19.9945 3.18927 37.6615
15 1 20.9019 4.774 36.3768
8314 2 0.897277 7.96091 37.6472
748 1 1.80494 6.36377 36.372
8319 2 3.62556 6.3704 37.6529
442 1 4.53291 7.95349 36.3664
8282 2 9.0818 6.3704 37.6529
8283 2 6.35352 7.96091 37.6472
479 1 7.26118 6.36377 36.372
8250 2 11.8098 7.96091 37.6472
234 1 9.98915 7.95349 36.3664
8255 2 14.538 6.3704 37.6529
82 1 15.4454 7.95349 36.3664
233 1 12.7174 6.36377 36.372
8219 2 17.266 7.96091 37.6472
95 1 18.1737 6.36377 36.372
8218 2 19.9943 6.3704 37.6529
14 1 20.9016 7.95349 36.3664
8313 2 0.89683 11.1418 37.6333
749 1 1.80461 9.54316 36.3598
8312 2 3.62519 9.55137 37.6407
441 1 4.53251 11.1328 36.3524
8280 2 6.35307 11.1418 37.6333
8285 2 9.08143 9.55137 37.6407
440 1 7.26085 9.54316 36.3598
8249 2 11.8093 11.1418 37.6333
211 1 9.98875 11.1328 36.3524
8248 2 14.5377 9.55137 37.6407
81 1 15.445 11.1328 36.3524
236 1 12.7171 9.54316 36.3598
8216 2 17.2655 11.1418 37.6333
80 1 18.1733 9.54316 36.3598
8221 2 19.9939 9.55137 37.6407
13 1 20.9012 11.1328 36.3524
8310 2 0.896227 14.3224 37.616
703 1 1.80413 12.7223 36.3441
8315 2 3.62467 12.7321 37.6251
406 1 4.53196 14.3118 36.335
8278 2 9.08091 12.7321 37.6251
8279 2 6.35246 14.3224 37.616
443 1 7.26037 12.7223 36.3441
8246 2 11.8087 14.3224 37.616
210 1 9.9882 14.3118 36.335
8251 2 14.5371 12.7321 37.6251
70 1 15.4444 14.3118 36.335
209 1 12.7166 12.7223 36.3441
8215 2 17.2649 14.3224 37.616
83 1 18.1728 12.7223 36.3441
8214 2 19.9934 12.7321 37.6251
12 1 20.9007 14.3118 36.335
8309 2 0.895456 17.5028 37.5953
704 1 1.80351 15.9011 36.3251
8308 2 3.62398 15.9126 37.6061
405 1 4.53125 17.4904 36.3143
8276 2 6.35169 17.5028 37.5953
8281 2 9.08022 15.9126 37.6061
404 1 7.25974 15.9011 36.3251
8245 2 11.8079 17.5028 37.5953
187 1 9.98749 17.4904 36.3143
8244 2 14.5365 15.9126 37.6061
69 1 15.4437 17.4904 36.3143
212 1 12.716 15.9011 36.3251
8212 2 17.2642 17.5028 37.5953
68 1 18.1722 15.9011 36.3251
8217 2 19.9927 15.9126 37.6061
11 1 20.9 17.4904 36.3143
8306 2 0.894514 20.6828 37.5715
665 1 1.80271 19.0796 36.3028
8311 2 3.62313 19.0928 37.5838
371 1 4.53038 20.6687 36.2904
8274 2 9.07936 19.0928 37.5838
8275 2 6.35075 20.6828 37.5715
407 1 7.25895 19.0796 36.3028
8242 2 11.807 20.6828 37.5715
186 1 9.98661 20.6687 36.2904
8247 2 14.5356 19.0928 37.5838
58 1 15.4429 20.6687 36.2904
185 1 12.7152 19.0796 36.3028
8211 2 17.2632 20.6828 37.5715
71 1 18.1714 19.0796 36.3028
8210 2 19.9918 19.0928 37.5838
10 1 20.8991 20.6687 36.2904
666 1 1.80176 22.2577 36.2773
8304 2 3.6221 22.2726 37.5584
8277 2 9.07833 22.2726 37.5584
369 1 7.258 22.2577 36.2773
8240 2 14.5346 22.2726 37.5584
188 1 12.7142 22.2577 36.2773
56 1 18.1705 22.2577 36.2773
8213 2 19.9908 22.2726 37.5584
8305 2 0.893396 23.8624 37.5445
635 1 1.80064 25.4352 36.2488
370 1 4.52934 23.8465 36.2634
8307 2 3.62089 25.452 37.5299
8272 2 6.34963 23.8624 37.5445
8270 2 9.07713 25.452 37.5299
372 1 7.25688 25.4352 36.2488
8241 2 11.8059 23.8624 37.5445
163 1 9.98558 23.8465 36.2634
57 1 15.4418 23.8465 36.2634
8243 2 14.5334 25.452 37.5299
161 1 12.7131 25.4352 36.2488
8208 2 17.2621 23.8624 37.5445
59 1 18.1694 25.4352 36.2488
9 1 20.8981 23.8465 36.2634
8206 2 19.9896 25.452 37.5299
8302 2 0.892102 27.0416 37.5146
636 1 1.79937 28.6121 36.2175
8300 2 3.61951 28.631 37.4986
343 1 4.52814 27.0237 36.2335
8271 2 6.34834 27.0416 37.5146
8273 2 9.07575 28.631 37.4986
341 1 7.2556 28.6121 36.2175
8238 2 11.8046 27.0416 37.5146
162 1 9.98438 27.0237 36.2335
8236 2 14.532 28.631 37.4986
46 1 15.4406 27.0237 36.2335
164 1 12.7118 28.6121 36.2175
8207 2 17.2608 27.0416 37.5146
44 1 18.1681 28.6121 36.2175
8209 2 19.9882 28.631 37.4986
8 1 20.8969 27.0237 36.2335
8301 2 0.890642 30.2203 37.482
613 1 1.79795 31.7882 36.1836
8303 2 3.61798 31.8094 37.4647
14522 1 5.43695 31.8311 38.7492
342 1 4.52679 30.2003 36.2009
8266 2 9.07421 31.8094 37.4647
8268 2 6.34688 30.2203 37.482
344 1 7.25419 31.7882 36.1836
8237 2 11.8031 30.2203 37.482
14408 1 10.8932 31.8311 38.7492
140 1 9.98303 30.2003 36.2009
8239 2 14.5305 31.8094 37.4647
45 1 15.4393 30.2003 36.2009
138 1 12.7104 31.7882 36.1836
8204 2 17.2594 30.2203 37.482
14186 1 16.3494 31.8311 38.7492
47 1 18.1667 31.7882 36.1836
14583 1 21.8057 31.8311 38.7492
8202 2 19.9867 31.8094 37.4647
7 1 20.8955 30.2003 36.2009
8298 2 0.889039 33.3983 37.4467
14523 1 2.70785 33.4213 38.7314
614 1 1.79644 34.9634 36.1471
8296 2 3.61632 34.9871 37.4282
14525 1 5.43493 35.0115 38.713
323 1 4.52532 33.376 36.1657
8267 2 6.34528 33.3983 37.4467
8269 2 9.07255 34.9871 37.4282
14383 1 8.16408 33.4213 38.7314
321 1 7.25268 34.9634 36.1471
8234 2 11.8015 33.3983 37.4467
14381 1 10.8912 35.0115 38.713
139 1 9.98156 33.376 36.1657
8232 2 14.5288 34.9871 37.4282
14187 1 13.6203 33.4213 38.7314
34 1 15.4378 33.376 36.1657
141 1 12.7089 34.9634 36.1471
8203 2 17.2578 33.3983 37.4467
14189 1 16.3474 35.0115 38.713
32 1 18.1652 34.9634 36.1471
14580 1 21.8036 35.0115 38.713
8205 2 19.985 34.9871 37.4282
13890 1 19.0766 33.4213 38.7314
6 1 20.894 33.376 36.1657
8297 2 0.887335 36.5757 37.409
14512 1 2.70574 36.6017 38.694
599 1 1.7949 38.1375 36.1083
8299 2 3.61458 38.164 37.3892
322 1 4.52379 36.5506 36.128
14510 1 5.43273 38.1917 38.6745
8262 2 9.07082 38.164 37.3892
8264 2 6.34357 36.5757 37.409
14382 1 8.16197 36.6017 38.694
324 1 7.25114 38.1375 36.1083
8233 2 11.7998 36.5757 37.409
124 1 9.98003 36.5506 36.128
14384 1 10.889 38.1917 38.6745
8235 2 14.5271 38.164 37.3892
14152 1 13.6182 36.6017 38.694
33 1 15.4363 36.5506 36.128
122 1 12.7074 38.1375 36.1083
8200 2 17.2561 36.5757 37.409
35 1 18.1636 38.1375 36.1083
14150 1 16.3452 38.1917 38.6745
8198 2 19.9833 38.164 37.3892
13889 1 19.0745 36.6017 38.694
5 1 20.8925 36.5506 36.128
14581 1 21.8014 38.1917 38.6745
8294 2 0.885599 39.7521 37.3688
14511 1 2.70345 39.7817 38.6544
600 1 1.79344 41.3099 36.0672
8292 2 3.61287 41.3398 37.3478
311 1 4.52227 39.7239 36.088
14513 1 5.43038 41.3717 38.6338
8263 2 6.34184 39.7521 37.3688
8265 2 9.06911 41.3398 37.3478
14359 1 8.15969 39.7817 38.6544
309 1 7.24968 41.3099 36.0672
8230 2 11.7981 39.7521 37.3688
123 1 9.97851 39.7239 36.088
14357 1 10.8866 41.3717 38.6338
8228 2 14.5253 41.3398 37.3478
14151 1 13.6159 39.7817 38.6544
23 1 15.4347 39.7239 36.088
125 1 12.7059 41.3099 36.0672
8199 2 17.2543 39.7521 37.3688
21 1 18.1622 41.3099 36.0672
14153 1 16.3429 41.3717 38.6338
8201 2 19.9816 41.3398 37.3478
13845 1 19.0722 39.7817 38.6544
4 1 20.891 39.7239 36.088
14578 1 21.7991 41.3717 38.6338
8293 2 0.883946 42.9272 37.3262
14500 1 2.70104 42.9615 38.6127
310 1 4.52092 42.8954 36.0457
8260 2 6.34018 42.9272 37.3262
14358 1 8.15728 42.9615 38.6127
8229 2 11.7964 42.9272 37.3262
116 1 9.97716 42.8954 36.0457
14116 1 13.6135 42.9615 38.6127
22 1 15.4334 42.8954 36.0457
8196 2 17.2527 42.9272 37.3262
13844 1 19.0698 42.9615 38.6127
3 1 20.8896 42.8954 36.0457
593 1 1.79226 44.4802 36.0237
8291 2 0.882571 46.1003 37.2808
14499 1 2.69852 46.1412 38.5689
8295 2 3.61133 44.514 37.3039
14498 1 5.42791 44.5514 38.591
307 1 4.51999 46.0643 36.001
8258 2 9.06756 44.514 37.3039
312 1 7.2485 44.4802 36.0237
8259 2 6.33881 46.1003 37.2808
14336 1 8.15476 46.1412 38.5689
8227 2 11.795 46.1003 37.2808
14360 1 10.8842 44.5514 38.591
115 1 9.97622 46.0643 36.001
8231 2 14.5238 44.514 37.3039
114 1 12.7047 44.4802 36.0237
14115 1 13.611 46.1412 38.5689
19 1 15.4325 46.0643 36.001
24 1 18.161 44.4802 36.0237
8195 2 17.2513 46.1003 37.2808
14114 1 16.3404 44.5514 38.591
8194 2 19.98 44.514 37.3039
14579 1 21.7966 44.5514 38.591
13799 1 19.0672 46.1412 38.5689
2 1 20.8887 46.0643 36.001
594 1 1.79169 47.6474 35.9777
8290 2 0.881834 49.2703 37.2319
14489 1 2.69583 49.3213 38.5231
8289 2 3.61021 47.6858 37.2569
14501 1 5.42533 47.7312 38.5462
306 1 4.51993 49.2294 35.9536
8261 2 9.06645 47.6858 37.2569
305 1 7.24793 47.6474 35.9777
8257 2 6.33807 49.2703 37.2319
14335 1 8.15207 49.3213 38.5231
8226 2 11.7943 49.2703 37.2319
14334 1 10.8816 47.7312 38.5462
113 1 9.97617 49.2294 35.9536
8225 2 14.5227 47.6858 37.2569
117 1 12.7042 47.6474 35.9777
14081 1 13.6083 49.3213 38.5231
18 1 15.4324 49.2294 35.9536
17 1 18.1604 47.6474 35.9777
8193 2 17.2505 49.2703 37.2319
14117 1 16.3378 47.7312 38.5462
8197 2 19.9789 47.6858 37.2569
14577 1 21.794 47.7312 38.5462
13798 1 19.0645 49.3213 38.5231
1 1 20.8886 49.2294 35.9536
14575 1 2.7179 1.60308 38.9483
14567 1 0.903051 1.61187 41.5119
20231 2 1.81078 0.0152206 40.2307
14574 1 5.44605 0.0116704 38.9504
14573 1 3.63122 0.0188905 41.514
20198 2 4.53885 1.60742 40.2286
14478 1 8.17413 1.60308 38.9483
14473 1 9.08746 0.0188905 41.514
14474 1 6.35929 1.61187 41.5119
20200 2 7.26702 0.0152206 40.2307
14480 1 10.9023 0.0116704 38.9504
14279 1 11.8155 1.61187 41.5119
20071 2 9.99509 1.60742 40.2286
14287 1 13.6304 1.60308 38.9483
14285 1 14.5437 0.0188905 41.514
19846 2 15.4513 1.60742 40.2286
20070 2 12.7233 0.0152206 40.2307
14286 1 16.3585 0.0116704 38.9504
13997 1 17.2718 1.61187 41.5119
19848 2 18.1795 0.0152206 40.2307
14592 1 21.8148 0.0116704 38.9504
14000 1 19.0866 1.60308 38.9483
13996 1 19.9999 0.0188905 41.514
19528 2 20.9076 1.60742 40.2286
14571 1 2.7177 4.78584 38.9414
14566 1 0.902819 4.79777 41.505
20232 2 1.81065 3.19959 40.2256
14576 1 5.44594 3.19448 38.9453
14565 1 3.63108 3.20483 41.5089
20197 2 4.53865 4.79175 40.2218
14477 1 8.17394 4.78584 38.9414
14466 1 6.35906 4.79777 41.505
14475 1 9.08731 3.20483 41.5089
20196 2 7.26689 3.19959 40.2256
14476 1 10.9022 3.19448 38.9453
14278 1 11.8153 4.79777 41.505
20067 2 9.99488 4.79175 40.2218
14283 1 13.6302 4.78584 38.9414
14277 1 14.5436 3.20483 41.5089
19845 2 15.4511 4.79175 40.2218
20072 2 12.7231 3.19959 40.2256
14288 1 16.3584 3.19448 38.9453
13991 1 17.2715 4.79777 41.505
19844 2 18.1794 3.19959 40.2256
14590 1 21.8147 3.19448 38.9453
13999 1 19.0864 4.78584 38.9414
13998 1 19.9998 3.20483 41.5089
19527 2 20.9074 4.79175 40.2218
14570 1 2.71736 7.96848 38.931
14556 1 0.902415 7.98358 41.4947
20228 2 1.81036 6.38387 40.217
14569 1 5.44567 6.37718 38.9366
14568 1 3.63076 6.39069 41.5003
20190 2 4.53828 7.97597 40.2114
14470 1 8.1736 7.96848 38.931
14464 1 9.087 6.39069 41.5003
14465 1 6.35865 7.98358 41.4947
20199 2 7.2666 6.38387 40.217
14479 1 10.9019 6.37718 38.9366
14267 1 11.8149 7.98358 41.4947
20066 2 9.99452 7.97597 40.2114
14282 1 13.6298 7.96848 38.931
14280 1 14.5432 6.39069 41.5003
19838 2 15.4508 7.97597 40.2114
20065 2 12.7228 6.38387 40.217
14281 1 16.3581 6.37718 38.9366
13990 1 17.2711 7.98358 41.4947
19847 2 18.1791 6.38387 40.217
14591 1 21.8144 6.37718 38.9366
13994 1 19.0861 7.96848 38.931
13989 1 19.9995 6.39069 41.5003
19526 2 20.907 7.97597 40.2114
14560 1 2.71685 11.151 38.9171
14555 1 0.901831 11.1693 41.4808
20229 2 1.80991 9.56803 40.2049
14572 1 5.44524 9.55974 38.9245
14554 1 3.63026 9.57645 41.4882
20189 2 4.53774 11.16 40.1975
14469 1 8.17309 11.151 38.9171
14450 1 6.35807 11.1693 41.4808
14467 1 9.0865 9.57645 41.4882
20188 2 7.26615 9.56803 40.2049
14468 1 10.9015 9.55974 38.9245
14266 1 11.8143 11.1693 41.4808
20055 2 9.99398 11.16 40.1975
14271 1 13.6293 11.151 38.9171
14265 1 14.5427 9.57645 41.4882
19837 2 15.4502 11.16 40.1975
20068 2 12.7224 9.56803 40.2049
14284 1 16.3577 9.55974 38.9245
13977 1 17.2705 11.1693 41.4808
19836 2 18.1786 9.56803 40.2049
14588 1 21.814 9.55974 38.9245
13993 1 19.0856 11.151 38.9171
13992 1 19.999 9.57645 41.4882
19519 2 20.9065 11.16 40.1975
14559 1 2.71617 14.3332 38.8999
14544 1 0.901058 14.3548 41.4636
20224 2 1.80929 12.752 40.1893
14558 1 5.44465 12.7421 38.9089
14557 1 3.62959 12.7621 41.4726
20175 2 4.53703 14.344 40.1803
14454 1 8.1724 14.3332 38.8999
14448 1 9.08583 12.7621 41.4726
14449 1 6.3573 14.3548 41.4636
20191 2 7.26553 12.752 40.1893
14471 1 10.9009 12.7421 38.9089
14247 1 11.8135 14.3548 41.4636
20054 2 9.99327 14.344 40.1803
14270 1 13.6286 14.3332 38.8999
14268 1 14.5421 12.7621 41.4726
19822 2 15.4495 14.344 40.1803
20053 2 12.7218 12.752 40.1893
14269 1 16.3571 12.7421 38.9089
13976 1 17.2698 14.3548 41.4636
19839 2 18.178 12.752 40.1893
14589 1 21.8134 12.7421 38.9089
13980 1 19.0849 14.3332 38.8999
13975 1 19.9983 12.7621 41.4726
19518 2 20.9057 14.344 40.1803
14548 1 2.71529 17.5153 38.8793
14543 1 0.900081 17.5403 41.443
20225 2 1.80848 15.9359 40.1704
14561 1 5.44387 15.9243 38.89
14542 1 3.62871 15.9476 41.4537
20174 2 4.53612 17.5277 40.1597
14453 1 8.17153 17.5153 38.8793
14427 1 6.35632 17.5403 41.443
14451 1 9.08495 15.9476 41.4537
20173 2 7.26472 15.9359 40.1704
14452 1 10.9001 15.9243 38.89
14246 1 11.8126 17.5403 41.443
20035 2 9.99236 17.5277 40.1597
14251 1 13.6278 17.5153 38.8793
14245 1 14.5412 15.9476 41.4537
19821 2 15.4486 17.5277 40.1597
20056 2 12.721 15.9359 40.1704
14272 1 16.3564 15.9243 38.89
13955 1 17.2688 17.5403 41.443
19820 2 18.1772 15.9359 40.1704
14586 1 21.8126 15.9243 38.89
13979 1 19.084 17.5153 38.8793
13978 1 19.9974 15.9476 41.4537
19503 2 20.9048 17.5277 40.1597
14547 1 2.71423 20.697 38.8555
20220 2 1.80748 19.1195 40.1481
14532 1 0.898888 20.7256 41.4192
14546 1 5.4429 19.1062 38.8678
14545 1 3.62763 19.133 41.4315
20159 2 4.53502 20.7112 40.1358
14431 1 8.17046 20.697 38.8555
14425 1 9.08387 19.133 41.4315
20176 2 7.26372 19.1195 40.1481
14426 1 6.35513 20.7256 41.4192
14455 1 10.8991 19.1062 38.8678
14219 1 11.8114 20.7256 41.4192
20034 2 9.99126 20.7112 40.1358
14250 1 13.6267 20.697 38.8555
14248 1 14.5401 19.133 41.4315
20033 2 12.72 19.1195 40.1481
19798 2 15.4475 20.7112 40.1358
14249 1 16.3554 19.1062 38.8678
19823 2 18.1762 19.1195 40.1481
13954 1 17.2676 20.7256 41.4192
14587 1 21.8116 19.1062 38.8678
13958 1 19.0829 20.697 38.8555
13953 1 19.9963 19.133 41.4315
19502 2 20.9037 20.7112 40.1358
20221 2 1.80628 22.3029 40.1228
14549 1 5.44173 22.2878 38.8424
14530 1 3.62633 22.3182 41.4061
14428 1 9.08257 22.3182 41.4061
20157 2 7.26251 22.3029 40.1228
14429 1 10.898 22.2878 38.8424
14217 1 14.5388 22.3182 41.4061
20036 2 12.7188 22.3029 40.1228
14252 1 16.3542 22.2878 38.8424
19796 2 18.175 22.3029 40.1228
14584 1 21.8104 22.2878 38.8424
13956 1 19.995 22.3182 41.4061
14536 1 2.71295 23.8786 38.8287
14531 1 0.89747 23.9109 41.3923
20216 2 1.80486 25.4862 40.0944
14534 1 5.44035 25.4692 38.8141
14533 1 3.62479 25.5035 41.3777
20158 2 4.53371 23.8946 40.1089
14430 1 8.16919 23.8786 38.8287
14401 1 9.08103 25.5035 41.3777
14403 1 6.35371 23.9109 41.3923
20160 2 7.2611 25.4862 40.0944
14432 1 10.8966 25.4692 38.8141
14218 1 11.8099 23.9109 41.3923
20008 2 9.98995 23.8946 40.1089
14223 1 13.6254 23.8786 38.8287
14220 1 14.5373 25.5035 41.3777
19797 2 15.4462 23.8946 40.1089
20006 2 12.7173 25.4862 40.0944
14221 1 16.3528 25.4692 38.8141
13925 1 17.2662 23.9109 41.3923
19799 2 18.1736 25.4862 40.0944
14585 1 21.8091 25.4692 38.8141
13957 1 19.0817 23.8786 38.8287
13923 1 19.9935 25.5035 41.3777
19479 2 20.9024 23.8946 40.1089
14535 1 2.71147 27.0598 38.7989
14520 1 0.895813 27.0961 41.3624
20217 2 1.80324 28.6693 40.0631
14537 1 5.43876 28.6503 38.783
14518 1 3.62301 28.6888 41.3465
20143 2 4.5322 27.0778 40.0791
14407 1 8.1677 27.0598 38.7989
14402 1 6.35205 27.0961 41.3624
14404 1 9.07925 28.6888 41.3465
20141 2 7.25948 28.6693 40.0631
14405 1 10.895 28.6503 38.783
14184 1 11.8083 27.0961 41.3624
20007 2 9.98843 27.0778 40.0791
14222 1 13.6239 27.0598 38.7989
14182 1 14.5355 28.6888 41.3465
19766 2 15.4447 27.0778 40.0791
20009 2 12.7157 28.6693 40.0631
14224 1 16.3512 28.6503 38.783
13924 1 17.2645 27.0961 41.3624
19764 2 18.172 28.6693 40.0631
14582 1 21.8075 28.6503 38.783
13928 1 19.0802 27.0598 38.7989
13926 1 19.9917 28.6888 41.3465
19478 2 20.9009 27.0778 40.0791
14524 1 2.70976 30.2407 38.7664
14519 1 0.893908 30.2815 41.3298
20212 2 1.8014 31.8524 40.0291
14521 1 3.62098 31.8742 41.3125
20142 2 4.53046 30.2609 40.0464
14406 1 8.166 30.2407 38.7664
14377 1 9.07722 31.8742 41.3125
14379 1 6.35015 30.2815 41.3298
20144 2 7.25764 31.8524 40.0291
14183 1 11.8064 30.2815 41.3298
19980 2 9.9867 30.2609 40.0464
14188 1 13.6222 30.2407 38.7664
14185 1 14.5335 31.8742 41.3125
19765 2 15.4429 30.2609 40.0464
19978 2 12.7139 31.8524 40.0291
13887 1 17.2626 30.2815 41.3298
19767 2 18.1701 31.8524 40.0291
13927 1 19.0785 30.2407 38.7664
13885 1 19.9897 31.8742 41.3125
19447 2 20.8992 30.2609 40.0464
14508 1 0.891745 33.4671 41.2945
20213 2 1.79936 35.0354 39.9925
14506 1 3.61869 35.06 41.2759
20127 2 4.52853 33.4439 40.0111
14378 1 6.34798 33.4671 41.2945
14380 1 9.07493 35.06 41.2759
20125 2 7.2556 35.0354 39.9925
14148 1 11.8042 33.4671 41.2945
19979 2 9.98476 33.4439 40.0111
14146 1 14.5312 35.06 41.2759
19727 2 15.441 33.4439 40.0111
19981 2 12.7118 35.0354 39.9925
13886 1 17.2605 33.4671 41.2945
19725 2 18.1681 35.0354 39.9925
13888 1 19.9874 35.06 41.2759
19446 2 20.8972 33.4439 40.0111
14507 1 0.889324 36.6532 41.2568
20208 2 1.79715 38.2184 39.9535
20126 2 4.5264 36.6269 39.9733
14509 1 3.61613 38.2465 41.237
14355 1 6.34556 36.6532 41.2568
14353 1 9.07237 38.2465 41.237
20128 2 7.25339 38.2184 39.9535
14147 1 11.8018 36.6532 41.2568
19952 2 9.98264 36.6269 39.9733
19726 2 15.4389 36.6269 39.9733
14149 1 14.5286 38.2465 41.237
19950 2 12.7096 38.2184 39.9535
13842 1 17.258 36.6532 41.2568
19728 2 18.1659 38.2184 39.9535
19407 2 20.8951 36.6269 39.9733
13840 1 19.9848 38.2465 41.237
14496 1 0.886632 39.8401 41.2167
20209 2 1.79481 41.4016 39.9121
20111 2 4.52411 39.81 39.9331
14494 1 3.6133 41.434 41.1958
14354 1 6.34287 39.8401 41.2167
14356 1 9.06954 41.434 41.1958
20109 2 7.25105 41.4016 39.9121
14112 1 11.7991 39.8401 41.2167
19951 2 9.98035 39.81 39.9331
19687 2 15.4366 39.81 39.9331
14110 1 14.5258 41.434 41.1958
19953 2 12.7073 41.4016 39.9121
13841 1 17.2553 39.8401 41.2167
19685 2 18.1635 41.4016 39.9121
19406 2 20.8928 39.81 39.9331
13843 1 19.982 41.434 41.1958
14495 1 0.883644 43.0284 41.1744
20110 2 4.52173 42.9932 39.8904
14332 1 6.33988 43.0284 41.1744
14111 1 11.7961 43.0284 41.1744
19924 2 9.97797 42.9932 39.8904
19686 2 15.4342 42.9932 39.8904
13796 1 17.2524 43.0284 41.1744
19360 2 20.8904 42.9932 39.8904
14488 1 0.880252 46.2192 41.1298
20204 2 1.79241 44.5849 39.8681
14497 1 3.61013 44.6234 41.1524
20096 2 4.51934 46.1767 39.845
14330 1 9.06637 44.6234 41.1524
14331 1 6.33649 46.2192 41.1298
20112 2 7.24865 44.5849 39.8681
14080 1 11.7927 46.2192 41.1298
19923 2 9.97558 46.1767 39.845
14113 1 14.5226 44.6234 41.1524
19648 2 15.4318 46.1767 39.845
19922 2 12.7049 44.5849 39.8681
13795 1 17.249 46.2192 41.1298
19688 2 18.1611 44.5849 39.8681
13794 1 19.9788 44.6234 41.1524
19359 2 20.8881 46.1767 39.845
14487 1 0.87607 49.4146 41.0828
20205 2 1.79008 47.7685 39.8209
14486 1 3.60642 47.8161 41.1066
20095 2 4.51714 49.3604 39.7959
14313 1 6.33231 49.4146 41.0828
14333 1 9.06266 47.8161 41.1066
20094 2 7.24632 47.7685 39.8209
14079 1 11.7885 49.4146 41.0828
19897 2 9.97338 49.3604 39.7959
14078 1 14.5189 47.8161 41.1066
19647 2 15.4296 49.3604 39.7959
19925 2 12.7026 47.7685 39.8209
13753 1 17.2448 49.4146 41.0828
19646 2 18.1588 47.7685 39.8209
13797 1 19.9751 47.8161 41.1066
19312 2 20.8859 49.3604 39.7959
14563 1 1.81698 0.0261635 44.0766
20194 2 2.72431 1.61624 42.7917
14462 1 4.54503 1.62072 44.0745
20193 2 5.45249 0.0224684 42.7938
14472 1 7.27322 0.0261635 44.0766
20063 2 8.18055 1.61624 42.7917
14275 1 10.0013 1.62072 44.0745
20069 2 10.9087 0.0224684 42.7938
13987 1 15.4575 1.62072 44.0745
14274 1 12.7295 0.0261635 44.0766
19842 2 13.6368 1.61624 42.7917
13995 1 18.1857 0.0261635 44.0766
19841 2 16.365 0.0224684 42.7938
20230 2 21.8212 0.0224684 42.7938
13632 1 20.9138 1.62072 44.0745
19525 2 19.093 1.61624 42.7917
14564 1 1.81681 3.21526 44.0716
20186 2 2.72407 4.80373 42.7849
14461 1 4.54478 4.80979 44.0677
20195 2 5.45233 3.20999 42.7888
14460 1 7.27305 3.21526 44.0716
20062 2 8.18031 4.80373 42.7849
14263 1 10.001 4.80979 44.0677
20061 2 10.9086 3.20999 42.7888
13986 1 15.4573 4.80979 44.0677
14276 1 12.7293 3.21526 44.0716
19834 2 13.6366 4.80373 42.7849
13985 1 18.1855 3.21526 44.0716
19843 2 16.3648 3.20999 42.7888
20226 2 21.821 3.20999 42.7888
13631 1 20.9135 4.80979 44.0677
19524 2 19.0928 4.80373 42.7849
14552 1 1.81646 6.40431 44.063
20185 2 2.72366 7.99114 42.7745
14446 1 4.54434 7.99881 44.0573
20184 2 5.45201 6.39744 42.7802
14463 1 7.2727 6.40431 44.063
20051 2 8.1799 7.99114 42.7745
14262 1 10.0006 7.99881 44.0573
20064 2 10.9082 6.39744 42.7802
13973 1 15.4568 7.99881 44.0573
14261 1 12.7289 6.40431 44.063
19833 2 13.6361 7.99114 42.7745
13988 1 18.1852 6.40431 44.063
19832 2 16.3645 6.39744 42.7802
20227 2 21.8207 6.39744 42.7802
13630 1 20.9131 7.99881 44.0573
19517 2 19.0924 7.99114 42.7745
14553 1 1.81593 9.59329 44.0508
20171 2 2.72306 11.1785 42.7607
14445 1 4.54371 11.1878 44.0435
20187 2 5.4515 9.58481 42.768
14444 1 7.27217 9.59329 44.0508
20050 2 8.1793 11.1785 42.7607
14243 1 9.99995 11.1878 44.0435
20049 2 10.9077 9.58481 42.768
13972 1 15.4562 11.1878 44.0435
14264 1 12.7284 9.59329 44.0508
19818 2 13.6355 11.1785 42.7607
13971 1 18.1846 9.59329 44.0508
19835 2 16.364 9.58481 42.768
20222 2 21.8202 9.58481 42.768
13623 1 20.9124 11.1878 44.0435
19516 2 19.0918 11.1785 42.7607
14540 1 1.8152 12.7822 44.0352
20170 2 2.72228 14.3657 42.7434
14423 1 4.54289 14.3766 44.0262
20169 2 5.45081 12.7721 42.7525
14447 1 7.27144 12.7822 44.0352
20031 2 8.17852 14.3657 42.7434
14242 1 9.99912 14.3766 44.0262
20052 2 10.9071 12.7721 42.7525
13951 1 15.4554 14.3766 44.0262
14241 1 12.7277 12.7822 44.0352
19817 2 13.6348 14.3657 42.7434
13974 1 18.1839 12.7822 44.0352
19816 2 16.3633 12.7721 42.7525
20223 2 21.8195 12.7721 42.7525
13622 1 20.9116 14.3766 44.0262
19501 2 19.091 14.3657 42.7434
14541 1 1.81428 15.9711 44.0162
20155 2 2.7213 17.5528 42.7228
14422 1 4.54186 17.5655 44.0055
20172 2 5.44993 15.9593 42.7335
14421 1 7.27052 15.9711 44.0162
20030 2 8.17753 17.5528 42.7228
14215 1 9.99809 17.5655 44.0055
20029 2 10.9062 15.9593 42.7335
13950 1 15.4543 17.5655 44.0055
14244 1 12.7268 15.9711 44.0162
19794 2 13.6338 17.5528 42.7228
13949 1 18.183 15.9711 44.0162
19819 2 16.3624 15.9593 42.7335
20218 2 21.8186 15.9593 42.7335
13607 1 20.9106 17.5655 44.0055
19500 2 19.09 17.5528 42.7228
14528 1 1.81314 19.1599 43.9939
20154 2 2.72011 20.7399 42.6988
20153 2 5.44885 19.1464 42.7112
14399 1 4.54061 20.7544 43.9815
14424 1 7.26938 19.1599 43.9939
20004 2 8.17634 20.7399 42.6988
20032 2 10.9051 19.1464 42.7112
14214 1 9.99685 20.7544 43.9815
14213 1 12.7256 19.1599 43.9939
13921 1 15.4531 20.7544 43.9815
19793 2 13.6326 20.7399 42.6988
13952 1 18.1819 19.1599 43.9939
19792 2 16.3613 19.1464 42.7112
20219 2 21.8176 19.1464 42.7112
13606 1 20.9093 20.7544 43.9815
19477 2 19.0888 20.7399 42.6988
14529 1 1.81178 22.3488 43.9683
20156 2 5.44755 22.3335 42.6857
14397 1 7.26802 22.3488 43.9683
20002 2 10.9038 22.3335 42.6857
14216 1 12.7243 22.3488 43.9683
13919 1 18.1805 22.3488 43.9683
19795 2 16.36 22.3335 42.6857
20214 2 21.8163 22.3335 42.6857
14516 1 1.8102 25.538 43.9396
20139 2 2.7187 23.927 42.6718
14398 1 4.53914 23.9434 43.9544
20137 2 5.44603 25.5206 42.6571
14400 1 7.26643 25.538 43.9396
20003 2 8.17494 23.927 42.6718
14180 1 9.99538 23.9434 43.9544
20005 2 10.9023 25.5206 42.6571
13920 1 15.4516 23.9434 43.9544
14178 1 12.7227 25.538 43.9396
19762 2 13.6312 23.927 42.6718
13922 1 18.1789 25.538 43.9396
19760 2 16.3585 25.5206 42.6571
20215 2 21.8147 25.5206 42.6571
13583 1 20.9079 23.9434 43.9544
19476 2 19.0874 23.927 42.6718
14517 1 1.80837 28.7274 43.9079
20138 2 2.71707 27.1142 42.6417
14375 1 4.53743 27.1326 43.9241
20140 2 5.44429 28.7079 42.6255
14373 1 7.2646 28.7274 43.9079
19976 2 8.17331 27.1142 42.6417
14179 1 9.99367 27.1326 43.9241
19974 2 10.9005 28.7079 42.6255
13883 1 15.4499 27.1326 43.9241
14181 1 12.7208 28.7274 43.9079
19761 2 13.6295 27.1142 42.6417
13881 1 18.1771 28.7274 43.9079
19763 2 16.3568 28.7079 42.6255
20210 2 21.813 28.7079 42.6255
13582 1 20.9061 27.1326 43.9241
19445 2 19.0858 27.1142 42.6417
14504 1 1.80629 31.9175 43.8733
20123 2 2.71522 30.3017 42.6087
14374 1 4.53548 30.3224 43.891
20121 2 5.44232 31.8956 42.5912
14376 1 7.26252 31.9175 43.8733
19975 2 8.17145 30.3017 42.6087
14144 1 9.99172 30.3224 43.891
19977 2 10.8986 31.8956 42.5912
13882 1 15.448 30.3224 43.891
14142 1 12.7188 31.9175 43.8733
19723 2 13.6277 30.3017 42.6087
13884 1 18.175 31.9175 43.8733
19721 2 16.3548 31.8956 42.5912
20211 2 21.811 31.8956 42.5912
13551 1 20.9042 30.3224 43.891
19444 2 19.0839 30.3017 42.6087
14505 1 1.80395 35.1085 43.836
20122 2 2.71313 33.4896 42.5729
14351 1 4.53327 33.5129 43.855
20124 2 5.44013 35.0838 42.554
14349 1 7.26019 35.1085 43.836
19948 2 8.16937 33.4896 42.5729
14143 1 9.98951 33.5129 43.855
19946 2 10.8964 35.0838 42.554
13838 1 15.4457 33.5129 43.855
14145 1 12.7164 35.1085 43.836
19722 2 13.6256 33.4896 42.5729
13836 1 18.1727 35.1085 43.836
19724 2 16.3526 35.0838 42.554
20206 2 21.8088 35.0838 42.554
13550 1 20.902 33.5129 43.855
19405 2 19.0818 33.4896 42.5729
20107 2 2.71084 36.6782 42.5345
14492 1 1.80135 38.3011 43.796
14350 1 4.5308 36.7046 43.8163
20105 2 5.43773 38.2729 42.5143
19947 2 8.16708 36.6782 42.5345
14352 1 7.25759 38.3011 43.796
14108 1 9.98704 36.7046 43.8163
19949 2 10.894 38.2729 42.5143
13837 1 15.4433 36.7046 43.8163
19683 2 13.6233 36.6782 42.5345
14106 1 12.7138 38.3011 43.796
13839 1 18.1701 38.3011 43.796
19681 2 16.3502 38.2729 42.5143
13511 1 20.8995 36.7046 43.8163
19404 2 19.0796 36.6782 42.5345
20207 2 21.8064 38.2729 42.5143
20106 2 2.70835 39.8679 42.4934
14493 1 1.79846 41.4959 43.7534
14328 1 4.52806 39.8982 43.775
20108 2 5.43516 41.4633 42.4719
19920 2 8.16458 39.8679 42.4934
14326 1 7.2547 41.4959 43.7534
14107 1 9.9843 39.8982 43.775
19918 2 10.8914 41.4633 42.4719
13792 1 15.4405 39.8982 43.775
19682 2 13.6208 39.8679 42.4934
14109 1 12.7109 41.4959 43.7534
13790 1 18.1672 41.4959 43.7534
19684 2 16.3476 41.4633 42.4719
13510 1 20.8968 39.8982 43.775
19358 2 19.0771 39.8679 42.4934
20202 2 21.8039 41.4633 42.4719
20092 2 2.7057 43.0592 42.4496
14327 1 4.52501 43.0946 43.731
19919 2 8.16193 43.0592 42.4496
14076 1 9.98125 43.0946 43.731
13791 1 15.4375 43.0946 43.731
19644 2 13.6182 43.0592 42.4496
13465 1 20.8937 43.0946 43.731
19357 2 19.0744 43.0592 42.4496
14484 1 1.79522 44.6944 43.7079
20091 2 2.70295 46.2528 42.4025
14312 1 4.52153 46.2956 43.6839
20090 2 5.43245 44.6557 42.4265
14329 1 7.25146 44.6944 43.7079
19896 2 8.15919 46.2528 42.4025
14075 1 9.97777 46.2956 43.6839
19921 2 10.8887 44.6557 42.4265
13752 1 15.434 46.2956 43.6839
14074 1 12.7077 44.6944 43.7079
19643 2 13.6154 46.2528 42.4025
13793 1 18.1639 44.6944 43.7079
19642 2 16.3449 44.6557 42.4265
20203 2 21.8012 44.6557 42.4265
13464 1 20.8903 46.2956 43.6839
19311 2 19.0717 46.2528 42.4025
14485 1 1.79141 47.8986 43.6591
20081 2 2.70019 49.4499 42.3511
14311 1 4.51726 49.504 43.6331
20093 2 5.42969 47.8508 42.3774
14310 1 7.24765 47.8986 43.6591
19895 2 8.15642 49.4499 42.3511
14049 1 9.97349 49.504 43.6331
19894 2 10.8859 47.8508 42.3774
13751 1 15.4297 49.504 43.6331
14077 1 12.7039 47.8986 43.6591
19609 2 13.6127 49.4499 42.3511
13750 1 18.1601 47.8986 43.6591
19645 2 16.3422 47.8508 42.3774
20201 2 21.7984 47.8508 42.3774
13419 1 20.886 49.504 43.6331
19310 2 19.0689 49.4499 42.3511
20182 2 0.910373 1.62512 45.3539
14458 1 2.73138 1.62964 46.6363
14562 1 0.00333149 0.0334904 46.6384
20192 2 3.63855 0.0297687 45.356
14457 1 5.45957 0.0334904 46.6384
20058 2 9.09479 0.0297687 45.356
20059 2 6.36661 1.62512 45.3539
14259 1 8.18762 1.62964 46.6363
19830 2 11.8228 1.62512 45.3539
14273 1 10.9158 0.0334904 46.6384
19840 2 14.551 0.0297687 45.356
13983 1 13.6439 1.62964 46.6363
19522 2 17.2791 1.62512 45.3539
13982 1 16.372 0.0334904 46.6384
19521 2 20.0073 0.0297687 45.356
13629 1 19.1001 1.62964 46.6363
20181 2 0.910112 4.8158 45.3471
14442 1 2.73111 4.82191 46.6294
14550 1 0.00315153 3.22578 46.6333
20180 2 3.63838 3.22047 45.351
14459 1 5.45939 3.22578 46.6333
20047 2 6.36635 4.8158 45.3471
20060 2 9.09462 3.22047 45.351
14258 1 8.18735 4.82191 46.6294
19829 2 11.8226 4.8158 45.3471
14257 1 10.9156 3.22578 46.6333
19828 2 14.5509 3.22047 45.351
13969 1 13.6436 4.82191 46.6294
19514 2 17.2788 4.8158 45.3471
13984 1 16.3719 3.22578 46.6333
19523 2 20.0071 3.22047 45.351
13628 1 19.0998 4.82191 46.6294
20167 2 0.90967 8.00643 45.3367
14441 1 2.73065 8.01416 46.619
14551 1 0.002787 6.41804 46.6246
20183 2 3.63803 6.41112 45.3423
14440 1 5.45903 6.41804 46.6246
20045 2 9.09427 6.41112 45.3423
20046 2 6.36591 8.00643 45.3367
14239 1 8.18689 8.01416 46.619
19814 2 11.8221 8.00643 45.3367
14260 1 10.9153 6.41804 46.6246
19831 2 14.5505 6.41112 45.3423
13968 1 13.6431 8.01416 46.619
19513 2 17.2784 8.00643 45.3367
13967 1 16.3715 6.41804 46.6246
19512 2 20.0067 6.41112 45.3423
13621 1 19.0994 8.01416 46.619
20166 2 0.909043 11.197 45.3228
14419 1 2.73001 11.2064 46.605
14538 1 0.00223538 9.61027 46.6125
20165 2 3.6375 9.60173 45.3302
14443 1 5.45847 9.61027 46.6125
20027 2 6.36528 11.197 45.3228
20048 2 9.09374 9.60173 45.3302
14238 1 8.18625 11.2064 46.605
19813 2 11.8215 11.197 45.3228
14237 1 10.9147 9.61027 46.6125
19812 2 14.55 9.60173 45.3302
13947 1 13.6425 11.2064 46.605
19498 2 17.2778 11.197 45.3228
13970 1 16.371 9.61027 46.6125
19515 2 20.0062 9.60173 45.3302
13620 1 19.0987 11.2064 46.605
20151 2 0.908227 14.3876 45.3054
14418 1 2.72917 14.3986 46.5876
14539 1 0.00149481 12.8025 46.5968
20168 2 3.63678 12.7923 45.3145
14417 1 5.45773 12.8025 46.5968
20025 2 9.09302 12.7923 45.3145
20026 2 6.36447 14.3876 45.3054
14211 1 8.18541 14.3986 46.5876
19790 2 11.8207 14.3876 45.3054
14240 1 10.914 12.8025 46.5968
19815 2 14.5493 12.7923 45.3145
13946 1 13.6416 14.3986 46.5876
19497 2 17.2769 14.3876 45.3054
13945 1 16.3702 12.8025 46.5968
19496 2 20.0055 12.7923 45.3145
13605 1 19.0979 14.3986 46.5876
20150 2 0.907215 17.5781 45.2846
14395 1 2.72814 17.5909 46.5667
14526 1 0.000560699 15.9947 46.5776
20149 2 3.63586 15.9828 45.2954
14420 1 5.4568 15.9947 46.5776
20000 2 6.36345 17.5781 45.2846
20028 2 9.0921 15.9828 45.2954
14210 1 8.18438 17.5909 46.5667
19789 2 11.8197 17.5781 45.2846
14209 1 10.913 15.9947 46.5776
19788 2 14.5483 15.9828 45.2954
13917 1 13.6406 17.5909 46.5667
19474 2 17.2759 17.5781 45.2846
13948 1 16.3693 15.9947 46.5776
19499 2 20.0046 15.9828 45.2954
13604 1 19.0969 17.5909 46.5667
20135 2 0.906 20.7688 45.2605
20152 2 3.63475 19.1734 45.273
14393 1 5.45567 19.1871 46.555
19998 2 9.09099 19.1734 45.273
19999 2 6.36224 20.7688 45.2605
19758 2 11.8185 20.7688 45.2605
14212 1 10.9119 19.1871 46.555
19791 2 14.5472 19.1734 45.273
19473 2 17.2747 20.7688 45.2605
13915 1 16.3681 19.1871 46.555
19472 2 20.0035 19.1734 45.273
14527 1 21.8244 19.1871 46.555
14394 1 2.7269 20.7833 46.5425
20133 2 3.63344 22.3641 45.2472
14396 1 5.45433 22.3796 46.5291
20001 2 9.08967 22.3641 45.2472
14176 1 8.18314 20.7833 46.5425
14174 1 10.9106 22.3796 46.5291
19756 2 14.5459 22.3641 45.2472
13916 1 13.6394 20.7833 46.5425
13918 1 16.3668 22.3796 46.5291
19475 2 20.0022 22.3641 45.2472
14514 1 21.823 22.3796 46.5291
13581 1 19.0956 20.7833 46.5425
20134 2 0.904579 23.9596 45.2331
14371 1 2.72546 23.976 46.5149
20136 2 3.63191 25.5551 45.2182
14369 1 5.45278 25.5725 46.4999
19970 2 9.08815 25.5551 45.2182
19972 2 6.36082 23.9596 45.2331
14175 1 8.1817 23.976 46.5149
19757 2 11.8171 23.9596 45.2331
14177 1 10.909 25.5725 46.4999
19759 2 14.5444 25.5551 45.2182
13879 1 13.6379 23.976 46.5149
19442 2 17.2733 23.9596 45.2331
13877 1 16.3653 25.5725 46.4999
19440 2 20.0006 25.5551 45.2182
14515 1 21.8215 25.5725 46.4999
13580 1 19.0942 23.976 46.5149
20119 2 0.902949 27.1508 45.2025
14370 1 2.7238 27.1692 46.4841
20117 2 3.63017 28.7466 45.1861
14372 1 5.45102 28.7661 46.4675
19971 2 6.35919 27.1508 45.2025
19973 2 9.08641 28.7466 45.1861
14140 1 8.18004 27.1692 46.4841
19719 2 11.8154 27.1508 45.2025
14138 1 10.9073 28.7661 46.4675
19717 2 14.5427 28.7466 45.1861
13878 1 13.6363 27.1692 46.4841
19441 2 17.2717 27.1508 45.2025
13880 1 16.3635 28.7661 46.4675
19443 2 19.9989 28.7466 45.1861
14502 1 21.8197 28.7661 46.4675
13549 1 19.0925 27.1692 46.4841
20118 2 0.901108 30.3425 45.1689
14347 1 2.72194 30.3632 46.4501
20120 2 3.62823 31.9387 45.1509
14345 1 5.44904 31.9607 46.432
19942 2 9.08447 31.9387 45.1509
19944 2 6.35735 30.3425 45.1689
14139 1 8.17818 30.3632 46.4501
19718 2 11.8136 30.3425 45.1689
14141 1 10.9053 31.9607 46.432
19720 2 14.5407 31.9387 45.1509
13834 1 13.6344 30.3632 46.4501
19402 2 17.2698 30.3425 45.1689
13832 1 16.3615 31.9607 46.432
19400 2 19.9969 31.9387 45.1509
14503 1 21.8178 31.9607 46.432
13548 1 19.0907 30.3632 46.4501
20103 2 0.899064 33.5352 45.1322
14346 1 2.71986 33.5585 46.4131
20101 2 3.62609 35.132 45.1128
14348 1 5.44686 35.1567 46.3934
19943 2 6.3553 33.5352 45.1322
19945 2 9.08233 35.132 45.1128
14104 1 8.1761 33.5585 46.4131
19679 2 11.8115 33.5352 45.1322
14102 1 10.9031 35.1567 46.3934
19677 2 14.5386 35.132 45.1128
13833 1 13.6323 33.5585 46.4131
19401 2 17.2678 33.5352 45.1322
13835 1 16.3593 35.1567 46.3934
19403 2 19.9948 35.132 45.1128
14490 1 21.8156 35.1567 46.3934
13509 1 19.0886 33.5585 46.4131
20102 2 0.896829 36.7292 45.0926
14324 1 2.71757 36.7555 46.373
20104 2 3.62377 38.3269 45.0717
14322 1 5.44447 38.3549 46.3518
19916 2 6.35307 36.7292 45.0926
19914 2 9.08 38.3269 45.0717
14103 1 8.17381 36.7555 46.373
19678 2 11.8093 36.7292 45.0926
14105 1 10.9007 38.3549 46.3518
19680 2 14.5362 38.3269 45.0717
13788 1 13.63 36.7555 46.373
19355 2 17.2655 36.7292 45.0926
13786 1 16.3569 38.3549 46.3518
19353 2 19.9925 38.3269 45.0717
13508 1 19.0863 36.7555 46.373
14491 1 21.8132 38.3549 46.3518
20088 2 0.894428 39.9252 45.05
14323 1 2.71508 39.9552 46.3297
20086 2 3.6213 41.5242 45.0275
19915 2 6.35067 39.9252 45.05
19917 2 9.07753 41.5242 45.0275
14072 1 8.17132 39.9552 46.3297
19640 2 11.8069 39.9252 45.05
19638 2 14.5338 41.5242 45.0275
13787 1 13.6276 39.9552 46.3297
19354 2 17.2631 39.9252 45.05
19356 2 19.99 41.5242 45.0275
13463 1 19.0838 39.9552 46.3297
20087 2 0.891898 43.1239 45.0041
14308 1 2.71237 43.1588 46.2831
14325 1 5.44187 41.5564 46.3069
19892 2 6.34814 43.1239 45.0041
14071 1 8.16861 43.1588 46.2831
19639 2 11.8044 43.1239 45.0041
14070 1 10.8981 41.5564 46.3069
13748 1 13.6248 43.1588 46.2831
19308 2 17.2606 43.1239 45.0041
13789 1 16.3543 41.5564 46.3069
14482 1 21.8106 41.5564 46.3069
13462 1 19.0811 43.1588 46.2831
20080 2 0.889276 46.3267 44.9542
14307 1 2.70937 46.3682 46.2326
20089 2 3.61872 44.7247 44.9797
14306 1 5.43903 44.7626 46.2584
19890 2 9.07496 44.7247 44.9797
19891 2 6.34551 46.3267 44.9542
14048 1 8.1656 46.3682 46.2326
19608 2 11.8018 46.3267 44.9542
14073 1 10.8953 44.7626 46.2584
19641 2 14.5312 44.7247 44.9797
13747 1 13.6218 46.3682 46.2326
19307 2 17.258 46.3267 44.9542
13746 1 16.3515 44.7626 46.2584
19306 2 19.9874 44.7247 44.9797
14483 1 21.8077 44.7626 46.2584
13418 1 19.0781 46.3682 46.2326
20079 2 0.886526 49.5352 44.8991
14297 1 2.70585 49.5862 46.1768
20078 2 3.61605 47.9301 44.9275
14309 1 5.43581 47.9759 46.2054
19873 2 6.34276 49.5352 44.8991
19893 2 9.07228 47.9301 44.9275
14047 1 8.16209 49.5862 46.1768
19607 2 11.799 49.5352 44.8991
14046 1 10.8921 47.9759 46.2054
19606 2 14.5285 47.9301 44.9275
13713 1 13.6183 49.5862 46.1768
19265 2 17.2552 49.5352 44.8991
13749 1 16.3483 47.9759 46.2054
19309 2 19.9848 47.9301 44.9275
14481 1 21.8045 47.9759 46.2054
13417 1 19.0746 49.5862 46.1768
20178 2 1.82522 0.0371214 47.9173
14438 1 0.918341 1.63863 49.197
20043 2 4.55328 1.63408 47.9152
14456 1 3.64653 0.0408709 49.1991
20057 2 7.28146 0.0371214 47.9173
14254 1 9.10277 0.0408709 49.1991
14255 1 6.37458 1.63863 49.197
19826 2 10.0095 1.63408 47.9152
13965 1 11.8308 1.63863 49.197
19510 2 15.4658 1.63408 47.9152
19825 2 12.7377 0.0371214 47.9173
13981 1 14.559 0.0408709 49.1991
19520 2 18.1939 0.0371214 47.9173
13626 1 17.2871 1.63863 49.197
19144 2 20.922 1.63408 47.9152
13625 1 20.0152 0.0408709 49.1991
20179 2 1.82504 3.23103 47.9122
14437 1 0.918065 4.83413 49.1901
20042 2 4.55301 4.82797 47.9083
14436 1 3.64635 3.23638 49.194
20041 2 7.28128 3.23103 47.9122
14235 1 6.3743 4.83413 49.1901
14256 1 9.10258 3.23638 49.194
19810 2 10.0092 4.82797 47.9083
13964 1 11.8305 4.83413 49.1901
19509 2 15.4655 4.82797 47.9083
19827 2 12.7375 3.23103 47.9122
13963 1 14.5588 3.23638 49.194
19508 2 18.1938 3.23103 47.9122
13618 1 17.2868 4.83413 49.1901
19143 2 20.9217 4.82797 47.9083
13627 1 20.0151 3.23638 49.194
20163 2 1.82468 6.42491 47.9035
14415 1 0.917605 8.02963 49.1796
20023 2 4.55255 8.02184 47.8978
14439 1 3.64598 6.43188 49.1853
20044 2 7.28092 6.42491 47.9035
14233 1 9.10222 6.43188 49.1853
14234 1 6.37384 8.02963 49.1796
19809 2 10.0088 8.02184 47.8978
13943 1 11.8301 8.02963 49.1796
19494 2 15.465 8.02184 47.8978
19808 2 12.7372 6.42491 47.9035
13966 1 14.5585 6.43188 49.1853
19511 2 18.1934 6.42491 47.9035
13617 1 17.2863 8.02963 49.1796
19142 2 20.9213 8.02184 47.8978
13616 1 20.0147 6.43188 49.1853
20164 2 1.82414 9.61878 47.8913
14414 1 0.916963 11.2251 49.1656
20022 2 4.55192 11.2157 47.8838
14413 1 3.64543 9.62738 49.173
20021 2 7.28038 9.61878 47.8913
14207 1 6.3732 11.2251 49.1656
14236 1 9.10166 9.62738 49.173
19786 2 10.0082 11.2157 47.8838
13942 1 11.8294 11.2251 49.1656
19493 2 15.4644 11.2157 47.8838
19811 2 12.7366 9.61878 47.8913
13941 1 14.5579 9.62738 49.173
19492 2 18.1929 9.61878 47.8913
13602 1 17.2857 11.2251 49.1656
19135 2 20.9206 11.2157 47.8838
13619 1 20.0141 9.62738 49.173
20147 2 1.82341 12.8127 47.8755
14391 1 0.916141 14.4207 49.148
19996 2 4.5511 14.4096 47.8663
14416 1 3.64469 12.8229 49.1572
20024 2 7.27965 12.8127 47.8755
14205 1 9.10093 12.8229 49.1572
14206 1 6.37238 14.4207 49.148
19785 2 10.0073 14.4096 47.8663
13913 1 11.8286 14.4207 49.148
19470 2 15.4636 14.4096 47.8663
19784 2 12.7359 12.8127 47.8755
13944 1 14.5572 12.8229 49.1572
19495 2 18.1921 12.8127 47.8755
13601 1 17.2849 14.4207 49.148
19134 2 20.9198 14.4096 47.8663
13600 1 20.0134 12.8229 49.1572
20148 2 1.82251 16.0066 47.8562
14390 1 0.915142 17.6164 49.1268
19995 2 4.5501 17.6036 47.8453
14389 1 3.64378 16.0185 49.1378
19994 2 7.27874 16.0066 47.8562
14172 1 6.37138 17.6164 49.1268
14208 1 9.10002 16.0185 49.1378
19754 2 10.0063 17.6036 47.8453
13912 1 11.8276 17.6164 49.1268
19469 2 15.4626 17.6036 47.8453
19787 2 12.735 16.0066 47.8562
13911 1 14.5563 16.0185 49.1378
19468 2 18.1912 16.0066 47.8562
13578 1 17.2839 17.6164 49.1268
19119 2 20.9188 17.6036 47.8453
13603 1 20.0125 16.0185 49.1378
20131 2 1.82141 19.2006 47.8335
14392 1 3.64269 19.2144 49.1149
19997 2 7.27765 19.2006 47.8335
14170 1 9.09893 19.2144 49.1149
19752 2 12.7339 19.2006 47.8335
13914 1 14.5552 19.2144 49.1149
19471 2 18.1901 19.2006 47.8335
13576 1 20.0114 19.2144 49.1149
20132 2 1.82014 22.395 47.8073
14367 1 0.913965 20.8124 49.1021
19968 2 4.54892 20.7978 47.8208
14365 1 3.64143 22.4105 49.0885
19966 2 7.27638 22.395 47.8073
14171 1 6.3702 20.8124 49.1021
14173 1 9.09767 22.4105 49.0885
19753 2 10.0052 20.7978 47.8208
13875 1 11.8264 20.8124 49.1021
19438 2 15.4614 20.7978 47.8208
19755 2 12.7326 22.395 47.8073
13873 1 14.5539 22.4105 49.0885
19436 2 18.1889 22.395 47.8073
13577 1 17.2827 20.8124 49.1021
19118 2 20.9176 20.7978 47.8208
13579 1 20.0101 22.4105 49.0885
20115 2 1.81869 25.5897 47.7777
14366 1 0.912615 24.0088 49.074
19967 2 4.54755 23.9923 47.7929
14368 1 3.64 25.6072 49.0586
19969 2 7.27492 25.5897 47.7777
14134 1 9.09623 25.6072 49.0586
14136 1 6.36885 24.0088 49.074
19715 2 10.0038 23.9923 47.7929
13874 1 11.8251 24.0088 49.074
19437 2 15.46 23.9923 47.7929
19713 2 12.7312 25.5897 47.7777
13876 1 14.5525 25.6072 49.0586
19439 2 18.1874 25.5897 47.7777
13546 1 17.2813 24.0088 49.074
19095 2 20.9163 23.9923 47.7929
13544 1 20.0087 25.6072 49.0586
20116 2 1.81706 28.7852 47.7448
14343 1 0.911097 27.2058 49.0424
19940 2 4.54601 27.1874 47.7616
14341 1 3.6384 28.8047 49.0253
19938 2 7.2733 28.7852 47.7448
14135 1 6.36734 27.2058 49.0424
14137 1 9.09464 28.8047 49.0253
19714 2 10.0023 27.1874 47.7616
13830 1 11.8236 27.2058 49.0424
19398 2 15.4585 27.1874 47.7616
19716 2 12.7295 28.7852 47.7448
13828 1 14.5509 28.8047 49.0253
19396 2 18.1858 28.7852 47.7448
13545 1 17.2798 27.2058 49.0424
19094 2 20.9147 27.1874 47.7616
13547 1 20.0071 28.8047 49.0253
20099 2 1.81527 31.9817 47.7086
14342 1 0.909421 30.4039 49.0074
19939 2 4.5443 30.3833 47.7271
14344 1 3.63665 32.0035 48.9886
19941 2 7.2715 31.9817 47.7086
14098 1 9.09288 32.0035 48.9886
14100 1 6.36566 30.4039 49.0074
19675 2 10.0005 30.3833 47.7271
13829 1 11.8219 30.4039 49.0074
19397 2 15.4568 30.3833 47.7271
19673 2 12.7277 31.9817 47.7086
13831 1 14.5491 32.0035 48.9886
19399 2 18.184 31.9817 47.7086
13506 1 17.2781 30.4039 49.0074
19063 2 20.913 30.3833 47.7271
13504 1 20.0054 32.0035 48.9886
20100 2 1.81333 35.1797 47.6691
14320 1 0.907599 33.6036 48.969
19912 2 4.54243 33.5805 47.6892
14318 1 3.63476 35.2042 48.9485
19910 2 7.26957 35.1797 47.6691
14099 1 6.36384 33.6036 48.969
14101 1 9.091 35.2042 48.9485
19674 2 9.99867 33.5805 47.6892
13784 1 11.8201 33.6036 48.969
19351 2 15.4549 33.5805 47.6892
19676 2 12.7258 35.1797 47.6691
13782 1 14.5472 35.2042 48.9485
19349 2 18.182 35.1797 47.6691
13505 1 17.2763 33.6036 48.969
19062 2 20.9111 33.5805 47.6892
13507 1 20.0035 35.2042 48.9485
20084 2 1.81127 38.38 47.6262
14319 1 0.90565 36.8055 48.9271
19911 2 4.54043 36.7795 47.648
14321 1 3.63275 38.4076 48.9047
19913 2 7.26751 38.38 47.6262
14068 1 6.36189 36.8055 48.9271
14066 1 9.08899 38.4076 48.9047
19636 2 9.99667 36.7795 47.648
13783 1 11.8181 36.8055 48.9271
19350 2 15.4529 36.7795 47.648
19634 2 12.7237 38.38 47.6262
13785 1 14.5452 38.4076 48.9047
19352 2 18.18 38.38 47.6262
13460 1 17.2744 36.8055 48.9271
19023 2 20.9091 36.7795 47.648
13458 1 20.0015 38.4076 48.9047
14304 1 0.903588 40.0106 48.8815
19883 2 2.72721 40.0354 50.1543
19888 2 4.53833 39.9812 47.6034
14067 1 6.35983 40.0106 48.8815
19600 2 8.18345 40.0354 50.1543
19635 2 9.99457 39.9812 47.6034
13744 1 11.8161 40.0106 48.8815
19304 2 15.4508 39.9812 47.6034
19299 2 13.6397 40.0354 50.1543
13459 1 17.2723 40.0106 48.8815
19022 2 20.907 39.9812 47.6034
18977 2 19.0959 40.0354 50.1543
20085 2 1.80913 41.5833 47.5796
14303 1 0.901424 43.2201 48.8319
19868 2 2.72546 43.246 50.1029
19887 2 4.53615 43.1864 47.5548
14302 1 3.63064 41.6147 48.8572
19885 2 5.45446 41.6401 50.1292
19886 2 7.26536 41.5833 47.5796
14044 1 6.35766 43.2201 48.8319
14069 1 9.08688 41.6147 48.8572
19599 2 8.1817 43.246 50.1029
19604 2 9.99239 43.1864 47.5548
13743 1 11.8139 43.2201 48.8319
19598 2 10.9107 41.6401 50.1292
19303 2 15.4486 43.1864 47.5548
19637 2 12.7216 41.5833 47.5796
13742 1 14.5431 41.6147 48.8572
19260 2 13.6379 43.246 50.1029
19302 2 18.1778 41.5833 47.5796
13415 1 17.2701 43.2201 48.8319
19301 2 16.3669 41.6401 50.1292
18979 2 20.9049 43.1864 47.5548
20074 2 21.8232 41.6401 50.1292
13461 1 19.9994 41.6147 48.8572
18976 2 19.0942 43.246 50.1029
20076 2 1.80691 44.7908 47.5289
14296 1 0.899117 46.4359 48.7774
19867 2 2.7236 46.4619 50.0465
19872 2 4.53389 46.3967 47.5017
14305 1 3.62841 44.8271 48.8053
19866 2 5.45267 44.8532 50.0754
19889 2 7.26315 44.7908 47.5289
14042 1 9.08465 44.8271 48.8053
14043 1 6.35536 46.4359 48.7774
19576 2 8.17984 46.4619 50.0465
19603 2 9.99012 46.3967 47.5017
13712 1 11.8116 46.4359 48.7774
19601 2 10.9089 44.8532 50.0754
19264 2 15.4464 46.3967 47.5017
19602 2 12.7194 44.7908 47.5289
13745 1 14.5409 44.8271 48.8053
19259 2 13.6361 46.4619 50.0465
19305 2 18.1756 44.7908 47.5289
13414 1 17.2678 46.4359 48.7774
19258 2 16.3651 44.8532 50.0754
18978 2 20.9026 46.3967 47.5017
20075 2 21.8214 44.8532 50.0754
13413 1 19.9971 44.8271 48.8053
18934 2 19.0923 46.4619 50.0465
20077 2 1.80457 48.0043 47.473
14295 1 0.896519 49.66 48.7169
19857 2 2.72136 49.6848 49.984
19871 2 4.53139 49.6139 47.4426
14294 1 3.62599 48.0467 48.748
19869 2 5.45067 48.0724 50.0161
19870 2 7.26081 48.0043 47.473
14025 1 6.35276 49.66 48.7169
14045 1 9.08223 48.0467 48.748
19575 2 8.1776 49.6848 49.984
19577 2 9.98763 49.6139 47.4426
13711 1 11.809 49.66 48.7169
19574 2 10.9069 48.0724 50.0161
19263 2 15.4439 49.6139 47.4426
19605 2 12.717 48.0043 47.473
13710 1 14.5385 48.0467 48.748
19225 2 13.6338 49.6848 49.984
19262 2 18.1733 48.0043 47.473
13374 1 17.2652 49.66 48.7169
19261 2 16.3632 48.0724 50.0161
18935 2 20.9001 49.6139 47.4426
20073 2 21.8194 48.0724 50.0161
13416 1 19.9947 48.0467 48.748
18933 2 19.0901 49.6848 49.984
20039 2 2.74055 1.64309 50.4754
20177 2 0.0125009 0.0445249 50.4776
14434 1 1.8341 0.0483024 51.7589
20015 2 0.928438 1.65217 53.0347
20038 2 5.46874 0.0445249 50.4776
14231 1 4.56215 1.64768 51.7568
20037 2 3.65663 0.0519757 53.0369
19806 2 8.19679 1.64309 50.4754
14253 1 7.29034 0.0483024 51.7589
19801 2 9.11286 0.0519757 53.0369
19802 2 6.38468 1.65217 53.0347
19824 2 10.925 0.0445249 50.4776
13961 1 10.0184 1.64768 51.7568
19486 2 11.8409 1.65217 53.0347
19506 2 13.653 1.64309 50.4754
13614 1 15.4746 1.64768 51.7568
13960 1 12.7466 0.0483024 51.7589
19504 2 14.5691 0.0519757 53.0369
19505 2 16.3812 0.0445249 50.4776
13624 1 18.2028 0.0483024 51.7589
19138 2 17.2972 1.65217 53.0347
19141 2 19.1093 1.64309 50.4754
13264 1 20.9309 1.64768 51.7568
19137 2 20.0253 0.0519757 53.0369
20019 2 2.74028 4.84023 50.4685
20161 2 0.0123188 3.24166 50.4724
14435 1 1.83392 3.24706 51.7538
20014 2 0.928169 4.85257 53.0277
20040 2 5.46856 3.24166 50.4724
14230 1 4.56187 4.84644 51.7498
20013 2 3.65644 3.25237 53.0317
19805 2 8.19652 4.84023 50.4685
14229 1 7.29015 3.24706 51.7538
19778 2 6.38441 4.85257 53.0277
19803 2 9.11268 3.25237 53.0317
19804 2 10.9248 3.24166 50.4724
13939 1 10.0181 4.84644 51.7498
19485 2 11.8406 4.85257 53.0277
19490 2 13.6528 4.84023 50.4685
13613 1 15.4744 4.84644 51.7498
13962 1 12.7464 3.24706 51.7538
19484 2 14.5689 3.25237 53.0317
19507 2 16.381 3.24166 50.4724
13612 1 18.2026 3.24706 51.7538
19130 2 17.2969 4.85257 53.0277
19140 2 19.109 4.84023 50.4685
13263 1 20.9306 4.84644 51.7498
19139 2 20.0252 3.25237 53.0317
20018 2 2.73983 8.03737 50.458
20162 2 0.0119572 6.4388 50.4637
14411 1 1.83355 6.44582 51.745
19988 2 0.927729 8.053 53.0171
20017 2 5.4682 6.4388 50.4637
14203 1 4.56142 8.04522 51.7393
20016 2 3.65609 6.45278 53.0229
19782 2 8.19607 8.03737 50.458
14232 1 7.28979 6.44582 51.745
19776 2 9.11233 6.45278 53.0229
19777 2 6.38397 8.053 53.0171
19807 2 10.9244 6.4388 50.4637
13938 1 10.0177 8.04522 51.7393
19462 2 11.8402 8.053 53.0171
19489 2 13.6523 8.03737 50.458
13598 1 15.4739 8.04522 51.7393
13937 1 12.746 6.44582 51.745
19487 2 14.5686 6.45278 53.0229
19488 2 16.3807 6.4388 50.4637
13615 1 18.2023 6.44582 51.745
19129 2 17.2964 8.053 53.0171
19133 2 19.1085 8.03737 50.458
13262 1 20.9301 8.04522 51.7393
19128 2 20.0248 6.45278 53.0229
19992 2 2.7392 11.2345 50.4438
20145 2 0.011419 9.63595 50.4513
14412 1 1.83301 9.64462 51.7326
19987 2 0.927124 11.2535 53.0028
20020 2 5.46766 9.63595 50.4513
14202 1 4.5608 11.244 51.7251
19986 2 3.65557 9.65324 53.0104
19781 2 8.19544 11.2345 50.4438
14201 1 7.28925 9.64462 51.7326
19746 2 6.38336 11.2535 53.0028
19779 2 9.1118 9.65324 53.0104
19780 2 10.9239 9.63595 50.4513
13909 1 10.017 11.244 51.7251
19461 2 11.8396 11.2535 53.0028
19466 2 13.6517 11.2345 50.4438
13597 1 15.4733 11.244 51.7251
13940 1 12.7455 9.64462 51.7326
19460 2 14.568 9.65324 53.0104
19491 2 16.3801 9.63595 50.4513
13596 1 18.2017 9.64462 51.7326
19114 2 17.2958 11.2535 53.0028
19132 2 19.1079 11.2345 50.4438
13255 1 20.9295 11.244 51.7251
19131 2 20.0243 9.65324 53.0104
19991 2 2.73841 14.4318 50.4261
20146 2 0.010709 12.8332 50.4354
14387 1 1.83231 12.8435 51.7166
19960 2 0.926367 14.4541 52.9848
19990 2 5.46695 12.8332 50.4354
14168 1 4.56001 14.443 51.7072
19989 2 3.65488 12.8538 52.9942
19750 2 8.19465 14.4318 50.4261
14204 1 7.28854 12.8435 51.7166
19744 2 9.11112 12.8538 52.9942
19745 2 6.38261 14.4541 52.9848
19783 2 10.9232 12.8332 50.4354
13908 1 10.0163 14.443 51.7072
19430 2 11.8388 14.4541 52.9848
19465 2 13.6509 14.4318 50.4261
13574 1 15.4725 14.443 51.7072
13907 1 12.7448 12.8435 51.7166
19463 2 14.5674 12.8538 52.9942
19464 2 16.3794 12.8332 50.4354
13599 1 18.201 12.8435 51.7166
19113 2 17.2951 14.4541 52.9848
19117 2 19.1071 14.4318 50.4261
13254 1 20.9287 14.443 51.7072
19112 2 20.0236 12.8538 52.9942
19964 2 2.73745 17.6292 50.4047
20129 2 0.00983298 16.0305 50.4159
14388 1 1.83144 16.0425 51.6969
19959 2 0.925471 17.6549 52.9631
19993 2 5.46607 16.0305 50.4159
14167 1 4.55907 17.6421 51.6857
19958 2 3.65405 16.0545 52.9744
19749 2 8.19369 17.6292 50.4047
14166 1 7.28768 16.0425 51.6969
19707 2 6.38171 17.6549 52.9631
19747 2 9.11029 16.0545 52.9744
19748 2 10.9223 16.0305 50.4159
13871 1 10.0153 17.6421 51.6857
19429 2 11.8379 17.6549 52.9631
19434 2 13.6499 17.6292 50.4047
13573 1 15.4715 17.6421 51.6857
13910 1 12.7439 16.0425 51.6969
19428 2 14.5665 16.0545 52.9744
19467 2 16.3785 16.0305 50.4159
13572 1 18.2002 16.0425 51.6969
19090 2 17.2942 17.6549 52.9631
19116 2 19.1062 17.6292 50.4047
13239 1 20.9278 17.6421 51.6857
19115 2 20.0228 16.0545 52.9744
20130 2 0.00879747 19.228 50.3927
14363 1 1.83043 19.2418 51.6736
19962 2 5.46504 19.228 50.3927
19961 2 3.6531 19.2555 52.9509
14169 1 7.28667 19.2418 51.6736
19705 2 9.10933 19.2555 52.9509
19751 2 10.9213 19.228 50.3927
13869 1 12.7429 19.2418 51.6736
19431 2 14.5656 19.2555 52.9509
19432 2 16.3775 19.228 50.3927
13575 1 18.1991 19.2418 51.6736
19088 2 20.0218 19.2555 52.9509
19963 2 2.73634 20.8269 50.3798
20113 2 0.00761122 22.4259 50.366
14364 1 1.82928 22.4415 51.6466
19932 2 0.924452 20.8561 52.9377
19965 2 5.46385 22.4259 50.366
14132 1 4.55799 20.8415 51.6606
19930 2 3.65202 22.4568 52.9236
19711 2 8.19258 20.8269 50.3798
14130 1 7.28551 22.4415 51.6466
19706 2 6.38069 20.8561 52.9377
19708 2 9.10826 22.4568 52.9236
19709 2 10.9201 22.4259 50.366
13870 1 10.0142 20.8415 51.6606
19390 2 11.8369 20.8561 52.9377
19433 2 13.6488 20.8269 50.3798
13542 1 15.4705 20.8415 51.6606
13872 1 12.7418 22.4415 51.6466
19388 2 14.5645 22.4568 52.9236
19435 2 16.3763 22.4259 50.366
13540 1 18.198 22.4415 51.6466
19089 2 17.2932 20.8561 52.9377
19093 2 19.1051 20.8269 50.3798
13238 1 20.9267 20.8415 51.6606
19091 2 20.0207 22.4568 52.9236
19936 2 2.73508 24.025 50.3513
20114 2 0.00628554 25.6243 50.3357
14339 1 1.828 25.6418 51.616
19931 2 0.92333 24.0578 52.9085
19934 2 5.46252 25.6243 50.3357
14131 1 4.55677 24.0415 51.6318
19933 2 3.65086 25.6589 52.8925
19710 2 8.19132 24.025 50.3513
14133 1 7.28424 25.6418 51.616
19665 2 9.10709 25.6589 52.8925
19667 2 6.37957 24.0578 52.9085
19712 2 10.9188 25.6243 50.3357
13826 1 10.013 24.0415 51.6318
19389 2 11.8358 24.0578 52.9085
19394 2 13.6476 24.025 50.3513
13541 1 15.4692 24.0415 51.6318
13824 1 12.7405 25.6418 51.616
19391 2 14.5633 25.6589 52.8925
19392 2 16.375 25.6243 50.3357
13543 1 18.1967 25.6418 51.616
19058 2 17.292 24.0578 52.9085
19092 2 19.1038 24.025 50.3513
13215 1 20.9255 24.0415 51.6318
19056 2 20.0196 25.6589 52.8925
19935 2 2.73369 27.2239 50.3192
20097 2 0.00483571 28.8237 50.3019
14340 1 1.82662 28.8431 51.5816
19904 2 0.922125 27.2603 52.8755
19937 2 5.46107 28.8237 50.3019
14096 1 4.55544 27.2423 51.5993
19902 2 3.64962 28.8619 52.8575
19671 2 8.18993 27.2239 50.3192
14094 1 7.28286 28.8431 51.5816
19666 2 6.37836 27.2603 52.8755
19668 2 9.10586 28.8619 52.8575
19669 2 10.9173 28.8237 50.3019
13825 1 10.0117 27.2423 51.5993
19343 2 11.8346 27.2603 52.8755
19393 2 13.6462 27.2239 50.3192
13502 1 15.4679 27.2423 51.5993
13827 1 12.7391 28.8431 51.5816
19341 2 14.5621 28.8619 52.8575
19395 2 16.3736 28.8237 50.3019
13500 1 18.1953 28.8431 51.5816
19057 2 17.2908 27.2603 52.8755
19061 2 19.1024 27.2239 50.3192
13214 1 20.9242 27.2423 51.5993
19059 2 20.0183 28.8619 52.8575
19908 2 2.73219 30.4238 50.2836
20098 2 0.00328068 32.0243 50.2644
14316 1 1.82516 32.0459 51.5435
19903 2 0.920863 30.4639 52.8386
19906 2 5.45952 32.0243 50.2644
14095 1 4.55402 30.4443 51.5631
19905 2 3.64834 32.0663 52.8187
19670 2 8.18843 30.4238 50.2836
14097 1 7.2814 32.0459 51.5435
19626 2 9.10458 32.0663 52.8187
19628 2 6.3771 30.4639 52.8386
19672 2 10.9158 32.0243 50.2644
13780 1 10.0103 30.4443 51.5631
19342 2 11.8333 30.4639 52.8386
19347 2 13.6447 30.4238 50.2836
13501 1 15.4665 30.4443 51.5631
13778 1 12.7376 32.0459 51.5435
19344 2 14.5608 32.0663 52.8187
19345 2 16.372 32.0243 50.2644
13503 1 18.1939 32.0459 51.5435
19018 2 17.2896 30.4639 52.8386
19060 2 19.1009 30.4238 50.2836
13183 1 20.9227 30.4443 51.5631
19016 2 20.0171 32.0663 52.8187
19907 2 2.73059 33.6252 50.2443
20082 2 0.00164411 35.2267 50.2232
14317 1 1.82364 35.2508 51.5016
19880 2 0.919568 33.6692 52.7978
19909 2 5.45788 35.2267 50.2232
14064 1 4.55253 33.6481 51.5231
19878 2 3.64703 35.2727 52.7758
19632 2 8.18683 33.6252 50.2443
14062 1 7.27988 35.2508 51.5016
19627 2 6.37581 33.6692 52.7978
19629 2 9.10327 35.2727 52.7758
19630 2 10.9141 35.2267 50.2232
13779 1 10.0088 33.6481 51.5231
19296 2 11.832 33.6692 52.7978
19346 2 13.6431 33.6252 50.2443
13456 1 15.465 33.6481 51.5231
13781 1 12.7361 35.2508 51.5016
19294 2 14.5595 35.2727 52.7758
19348 2 16.3704 35.2267 50.2232
13454 1 18.1924 35.2508 51.5016
19017 2 17.2883 33.6692 52.7978
19021 2 19.0993 33.6252 50.2443
13182 1 20.9212 33.6481 51.5231
19019 2 20.0157 35.2727 52.7758
19884 2 2.72892 36.8288 50.2012
20083 2 -4.77679e-05 38.4317 50.1783
19879 2 0.918261 36.8768 52.7528
14300 1 1.82209 38.4586 51.4556
19882 2 5.45619 38.4317 50.1783
14063 1 4.55099 36.8543 51.4791
19881 2 3.64573 38.4817 52.7287
19631 2 8.18516 36.8288 50.2012
19596 2 6.3745 36.8768 52.7528
14065 1 7.27833 38.4586 51.4556
19594 2 9.10196 38.4817 52.7287
19633 2 10.9124 38.4317 50.1783
13740 1 10.0072 36.8543 51.4791
19295 2 11.8307 36.8768 52.7528
19300 2 13.6414 36.8288 50.2012
13455 1 15.4635 36.8543 51.4791
13738 1 12.7346 38.4586 51.4556
19297 2 14.5582 38.4817 52.7287
19298 2 16.3687 38.4317 50.1783
18974 2 17.287 36.8768 52.7528
13457 1 18.1908 38.4586 51.4556
19020 2 19.0976 36.8288 50.2012
13147 1 20.9197 36.8543 51.4791
18972 2 20.0144 38.4817 52.7287
19864 2 0.916948 40.0875 52.7035
14040 1 4.54942 40.0638 51.4311
19595 2 6.37319 40.0875 52.7035
13739 1 10.0057 40.0638 51.4311
19256 2 11.8294 40.0875 52.7035
13411 1 15.4619 40.0638 51.4311
18973 2 17.2857 40.0875 52.7035
13146 1 20.9181 40.0638 51.4311
14301 1 1.82051 41.6702 51.4054
19863 2 0.915592 43.3021 52.6495
14039 1 4.54783 43.2779 51.3784
19862 2 3.6444 41.6942 52.6771
14038 1 7.27675 41.6702 51.4054
19572 2 6.37183 43.3021 52.6495
19597 2 9.10064 41.6942 52.6771
13708 1 10.0041 43.2779 51.3784
19255 2 11.8281 43.3021 52.6495
13410 1 15.4603 43.2779 51.3784
13741 1 12.733 41.6702 51.4054
19254 2 14.5569 41.6942 52.6771
13409 1 18.1892 41.6702 51.4054
18931 2 17.2843 43.3021 52.6495
13111 1 20.9165 43.2779 51.3784
18975 2 20.0131 41.6942 52.6771
14292 1 1.8189 44.8871 51.3502
19856 2 0.914051 46.5218 52.5903
14024 1 4.54616 46.4979 51.3205
19865 2 3.64298 44.9112 52.6205
14041 1 7.27514 44.8871 51.3502
19570 2 9.09922 44.9112 52.6205
19571 2 6.37029 46.5218 52.5903
13707 1 10.0024 46.4979 51.3205
19224 2 11.8265 46.5218 52.5903
13373 1 15.4586 46.4979 51.3205
13706 1 12.7314 44.8871 51.3502
19257 2 14.5555 44.9112 52.6205
13412 1 18.1876 44.8871 51.3502
18930 2 17.2828 46.5218 52.5903
13110 1 20.9149 46.4979 51.3205
18929 2 20.0117 44.9112 52.6205
14293 1 1.81712 48.1106 51.2893
19855 2 0.911972 49.7476 52.5254
14023 1 4.54419 49.7252 51.2563
19854 2 3.64123 48.1339 52.5585
14022 1 7.27336 48.1106 51.2893
19553 2 6.36821 49.7476 52.5254
19573 2 9.09747 48.1339 52.5585
13681 1 10.0004 49.7252 51.2563
19223 2 11.8244 49.7476 52.5254
13372 1 15.4567 49.7252 51.2563
13709 1 12.7296 48.1106 51.2893
19222 2 14.5537 48.1339 52.5585
13371 1 18.1858 48.1106 51.2893
18892 2 17.2807 49.7476 52.5254
13075 1 20.9129 49.7252 51.2563
18932 2 20.0099 48.1339 52.5585
14227 1 2.75033 1.65679 54.3156
14433 1 0.0222802 0.0557809 54.3177
20011 2 1.84512 0.0594679 55.5952
14226 1 5.47852 0.0557809 54.3177
19774 2 4.57317 1.6613 55.593
13935 1 8.20657 1.65679 54.3156
19800 2 7.30136 0.0594679 55.5952
13959 1 10.9348 0.0557809 54.3177
19482 2 10.0294 1.6613 55.593
13610 1 13.6628 1.65679 54.3156
19126 2 15.4856 1.6613 55.593
19481 2 12.7576 0.0594679 55.5952
13609 1 16.391 0.0557809 54.3177
19136 2 18.2138 0.0594679 55.5952
13261 1 19.119 1.65679 54.3156
18792 2 20.9419 1.6613 55.593
14199 1 2.75006 4.85883 54.3086
14409 1 0.0220984 3.25781 54.3125
20012 2 1.84494 3.26314 55.5899
14228 1 5.47834 3.25781 54.3125
19773 2 4.57291 4.86498 55.5859
13934 1 8.2063 4.85883 54.3086
19772 2 7.30118 3.26314 55.5899
13933 1 10.9346 3.25781 54.3125
19458 2 10.0291 4.86498 55.5859
13594 1 13.6625 4.85883 54.3086
19125 2 15.4854 4.86498 55.5859
19483 2 12.7574 3.26314 55.5899
13611 1 16.3908 3.25781 54.3125
19124 2 18.2137 3.26314 55.5899
13260 1 19.1188 4.85883 54.3086
18791 2 20.9416 4.86498 55.5859
14198 1 2.74962 8.06091 54.2979
14410 1 0.0217434 6.45986 54.3037
19984 2 1.84459 6.46684 55.581
14197 1 5.47798 6.45986 54.3037
19742 2 4.57248 8.06872 55.5752
13905 1 8.20586 8.06091 54.2979
19775 2 7.30083 6.46684 55.581
13936 1 10.9342 6.45986 54.3037
19457 2 10.0287 8.06872 55.5752
13593 1 13.6621 8.06091 54.2979
19110 2 15.485 8.06872 55.5752
19456 2 12.7571 6.46684 55.581
13592 1 16.3905 6.45986 54.3037
19127 2 18.2133 6.46684 55.581
13253 1 19.1183 8.06091 54.2979
18790 2 20.9412 8.06872 55.5752
14164 1 2.74902 11.2631 54.2835
14385 1 0.0212229 9.66197 54.2912
19985 2 1.84409 9.67062 55.5684
14200 1 5.47746 9.66197 54.2912
19741 2 4.5719 11.2725 55.5607
13904 1 8.20526 11.2631 54.2835
19740 2 7.30033 9.67062 55.5684
13903 1 10.9337 9.66197 54.2912
19426 2 10.0281 11.2725 55.5607
13570 1 13.6615 11.2631 54.2835
19109 2 15.4844 11.2725 55.5607
19459 2 12.7566 9.67062 55.5684
13595 1 16.3899 9.66197 54.2912
19108 2 18.2128 9.67062 55.5684
13252 1 19.1177 11.2631 54.2835
18783 2 20.9406 11.2725 55.5607
14163 1 2.74828 14.4654 54.2654
14386 1 0.0205495 12.8642 54.2749
19956 2 1.84344 12.8745 55.5521
14162 1 5.47679 12.8642 54.2749
19703 2 4.57118 14.4765 55.5425
13867 1 8.20452 14.4654 54.2654
19743 2 7.29967 12.8745 55.5521
13906 1 10.933 12.8642 54.2749
19425 2 10.0274 14.4765 55.5425
13569 1 13.6608 14.4654 54.2654
19086 2 15.4837 14.4765 55.5425
19424 2 12.7559 12.8745 55.5521
13568 1 16.3893 12.8642 54.2749
19111 2 18.2122 12.8745 55.5521
13237 1 19.117 14.4654 54.2654
18782 2 20.9399 14.4765 55.5425
14128 1 2.74741 17.6679 54.2436
14361 1 0.0197395 16.0666 54.255
19957 2 1.84266 16.0786 55.5319
14165 1 5.47598 16.0666 54.255
19702 2 4.57035 17.6807 55.5204
13866 1 8.20365 17.6679 54.2436
19701 2 7.2989 16.0786 55.5319
13865 1 10.9322 16.0666 54.255
19386 2 10.0266 17.6807 55.5204
13538 1 13.6599 17.6679 54.2436
19085 2 15.4828 17.6807 55.5204
19427 2 12.7551 16.0786 55.5319
13571 1 16.3885 16.0666 54.255
19084 2 18.2114 16.0786 55.5319
13236 1 19.1161 17.6679 54.2436
18767 2 20.9391 17.6807 55.5204
14362 1 0.0188118 19.2693 54.2312
19928 2 1.84178 19.283 55.5079
14126 1 5.47505 19.2693 54.2312
19704 2 7.29802 19.283 55.5079
13868 1 10.9313 19.2693 54.2312
19384 2 12.7543 19.283 55.5079
13536 1 16.3875 19.2693 54.2312
19087 2 18.2105 19.283 55.5079
14127 1 2.74643 20.8708 54.2179
14337 1 0.0177886 22.4725 54.2036
19929 2 1.84082 22.4878 55.48
14129 1 5.47403 22.4725 54.2036
19663 2 4.56943 20.8853 55.4945
13822 1 8.20267 20.8708 54.2179
19661 2 7.29706 22.4878 55.48
13820 1 10.9303 22.4725 54.2036
19385 2 10.0257 20.8853 55.4945
13537 1 13.6589 20.8708 54.2179
19054 2 15.4819 20.8853 55.4945
19387 2 12.7533 22.4878 55.48
13539 1 16.3865 22.4725 54.2036
19052 2 18.2095 22.4878 55.48
13213 1 19.1151 20.8708 54.2179
18766 2 20.9381 20.8853 55.4945
14092 1 2.74537 24.0743 54.1884
14338 1 0.0166943 25.6763 54.1721
19900 2 1.83982 25.6934 55.4481
14090 1 5.47293 25.6763 54.1721
19662 2 4.56844 24.0905 55.4646
13821 1 8.20161 24.0743 54.1884
19664 2 7.29605 25.6934 55.4481
13823 1 10.9292 25.6763 54.1721
19339 2 10.0247 24.0905 55.4646
13498 1 13.6578 24.0743 54.1884
19053 2 15.4809 24.0905 55.4646
19337 2 12.7523 25.6934 55.4481
13496 1 16.3854 25.6763 54.1721
19055 2 18.2085 25.6934 55.4481
13212 1 19.1141 24.0743 54.1884
18743 2 20.9372 24.0905 55.4646
14091 1 2.74425 27.2786 54.1549
14314 1 0.0155561 28.8813 54.1367
19901 2 1.83879 28.8999 55.4121
14093 1 5.47179 28.8813 54.1367
19624 2 4.56742 27.2965 55.4306
13776 1 8.20049 27.2786 54.1549
19622 2 7.29503 28.8999 55.4121
13774 1 10.928 28.8813 54.1367
19338 2 10.0237 27.2965 55.4306
13497 1 13.6567 27.2786 54.1549
19014 2 15.4799 27.2965 55.4306
19340 2 12.7513 28.8999 55.4121
13499 1 16.3843 28.8813 54.1367
19012 2 18.2075 28.8999 55.4121
13181 1 19.113 27.2786 54.1549
18742 2 20.9361 27.2965 55.4306
14060 1 2.7431 30.4843 54.1174
14315 1 0.0144027 32.0877 54.0971
19876 2 1.83778 32.1078 55.3718
14058 1 5.47064 32.0877 54.0971
19623 2 4.5664 30.5036 55.3925
13775 1 8.19934 30.4843 54.1174
19625 2 7.29402 32.1078 55.3718
13777 1 10.9269 32.0877 54.0971
19292 2 10.0226 30.5036 55.3925
13452 1 13.6556 30.4843 54.1174
19013 2 15.4789 30.5036 55.3925
19290 2 12.7503 32.1078 55.3718
13450 1 16.3831 32.0877 54.0971
19015 2 18.2065 32.1078 55.3718
13180 1 19.1118 30.4843 54.1174
18712 2 20.9351 30.5036 55.3925
14059 1 2.74195 33.6917 54.0758
14298 1 0.0132586 35.2963 54.0534
19877 2 1.83679 35.3176 55.3272
14061 1 5.4695 35.2963 54.0534
19592 2 4.5654 33.7124 55.3501
13736 1 8.19819 33.6917 54.0758
19590 2 7.29302 35.3176 55.3272
13734 1 10.9257 35.2963 54.0534
19291 2 10.0216 33.7124 55.3501
13451 1 13.6544 33.6917 54.0758
18970 2 15.4779 33.7124 55.3501
19293 2 12.7493 35.3176 55.3272
13453 1 16.382 35.2963 54.0534
18968 2 18.2055 35.3176 55.3272
13145 1 19.1107 33.6917 54.0758
18711 2 20.9341 33.7124 55.3501
14036 1 2.74082 36.9016 54.0298
14299 1 0.0121415 38.5077 54.0052
19860 2 1.83582 38.53 55.2781
14034 1 5.46838 38.5077 54.0052
19591 2 4.56442 36.9234 55.3032
13735 1 8.19705 36.9016 54.0298
19593 2 7.29205 38.53 55.2781
13737 1 10.9246 38.5077 54.0052
19252 2 10.0207 36.9234 55.3032
13407 1 13.6533 36.9016 54.0298
18969 2 15.4769 36.9234 55.3032
19250 2 12.7483 38.53 55.2781
13405 1 16.3809 38.5077 54.0052
18971 2 18.2045 38.53 55.2781
13144 1 19.1095 36.9016 54.0298
18680 2 20.9331 36.9234 55.3032
14035 1 2.73971 40.1147 53.9794
19568 2 4.56345 40.1373 55.2518
13704 1 8.19595 40.1147 53.9794
19251 2 10.0197 40.1373 55.2518
13406 1 13.6522 40.1147 53.9794
18927 2 15.4759 40.1373 55.2518
13109 1 19.1084 40.1147 53.9794
18679 2 20.9322 40.1373 55.2518
14020 1 2.7386 43.332 53.924
14290 1 0.0110415 41.7228 53.9523
19861 2 1.83482 41.7455 55.2243
14037 1 5.46728 41.7228 53.9523
19567 2 4.56239 43.3548 55.1955
13703 1 8.19484 43.332 53.924
19566 2 7.29106 41.7455 55.2243
13702 1 10.9235 41.7228 53.9523
19220 2 10.0186 43.3548 55.1955
13369 1 13.6511 43.332 53.924
18926 2 15.4749 43.3548 55.1955
19253 2 12.7473 41.7455 55.2243
13408 1 16.3798 41.7228 53.9523
18925 2 18.2035 41.7455 55.2243
13108 1 19.1073 43.332 53.924
18648 2 20.9311 43.3548 55.1955
14019 1 2.73735 46.5544 53.8633
14291 1 0.00988786 44.9425 53.8943
19852 2 1.83366 44.9651 55.1655
14018 1 5.46613 44.9425 53.8943
19552 2 4.56105 46.5766 55.1342
13680 1 8.19359 46.5544 53.8633
19569 2 7.2899 44.9651 55.1655
13705 1 10.9224 44.9425 53.8943
19219 2 10.0173 46.5766 55.1342
13368 1 13.6498 46.5544 53.8633
18891 2 15.4735 46.5766 55.1342
19218 2 12.7461 44.9651 55.1655
13367 1 16.3786 44.9425 53.8943
18928 2 18.2024 44.9651 55.1655
13074 1 19.1061 46.5544 53.8633
18647 2 20.9298 46.5766 55.1342
14009 1 2.73565 49.7826 53.797
14289 1 0.00847342 48.1678 53.8308
19853 2 1.83205 48.1892 55.1017
14021 1 5.46471 48.1678 53.8308
19551 2 4.55905 49.8031 55.068
13679 1 8.19189 49.7826 53.797
19550 2 7.28829 48.1892 55.1017
13678 1 10.921 48.1678 53.8308
19193 2 10.0153 49.8031 55.068
13336 1 13.6481 49.7826 53.797
18890 2 15.4715 49.8031 55.068
19221 2 12.7445 48.1892 55.1017
13370 1 16.3772 48.1678 53.8308
18889 2 18.2008 48.1892 55.1017
13073 1 19.1044 49.7826 53.797
18616 2 20.9278 49.8031 55.068
14195 1 0.939119 1.66595 56.8734
19770 2 2.76227 1.67047 58.1503
20010 2 0.0342173 0.0669931 58.1525
14225 1 3.66731 0.0633011 56.8756
19769 2 5.49046 0.0669931 58.1525
13930 1 9.12354 0.0633011 56.8756
13931 1 6.39536 1.66595 56.8734
19454 2 8.21851 1.67047 58.1503
13590 1 11.8516 1.66595 56.8734
19480 2 10.9467 0.0669931 58.1525
13608 1 14.5798 0.0633011 56.8756
19122 2 13.6747 1.67047 58.1503
13258 1 17.3078 1.66595 56.8734
19121 2 16.4029 0.0669931 58.1525
13257 1 20.036 0.0633011 56.8756
18789 2 19.131 1.67047 58.1503
14194 1 0.938855 4.87129 56.8663
19738 2 2.76201 4.87745 58.1432
19982 2 0.0340424 3.27395 58.1472
14193 1 3.66713 3.26861 56.8703
19771 2 5.49028 3.27395 58.1472
13901 1 6.39509 4.87129 56.8663
13932 1 9.12337 3.26861 56.8703
19453 2 8.21825 4.87745 58.1432
13589 1 11.8513 4.87129 56.8663
19452 2 10.9465 3.27395 58.1472
13588 1 14.5796 3.26861 56.8703
19106 2 13.6745 4.87745 58.1432
13250 1 17.3076 4.87129 56.8663
19123 2 16.4028 3.27395 58.1472
13259 1 20.0358 3.26861 56.8703
18788 2 19.1307 4.87745 58.1432
14160 1 0.938429 8.07668 56.8555
19737 2 2.76159 8.0845 58.1323
19983 2 0.0337022 6.48096 58.1382
14196 1 3.66678 6.47397 56.8614
19736 2 5.48994 6.48096 58.1382
13899 1 9.12302 6.47397 56.8614
13900 1 6.39467 8.07668 56.8555
19422 2 8.21783 8.0845 58.1323
13566 1 11.8509 8.07668 56.8555
19455 2 10.9462 6.48096 58.1382
13591 1 14.5793 6.47397 56.8614
19105 2 13.6741 8.0845 58.1323
13249 1 17.3071 8.07668 56.8555
19104 2 16.4024 6.48096 58.1382
13248 1 20.0355 6.47397 56.8614
18781 2 19.1303 8.0845 58.1323
14159 1 0.937854 11.2822 56.841
19699 2 2.76103 11.2917 58.1176
19954 2 0.0332092 9.68806 58.1255
14158 1 3.66628 9.67941 56.8487
19739 2 5.48945 9.68806 58.1255
13863 1 6.39409 11.2822 56.841
13902 1 9.12252 9.67941 56.8487
19421 2 8.21727 11.2917 58.1176
13565 1 11.8503 11.2822 56.841
19420 2 10.9457 9.68806 58.1255
13564 1 14.5788 9.67941 56.8487
19082 2 13.6735 11.2917 58.1176
13234 1 17.3066 11.2822 56.841
19107 2 16.4019 9.68806 58.1255
13251 1 20.035 9.67941 56.8487
18780 2 19.1297 11.2917 58.1176
14124 1 0.937151 14.4878 56.8226
19698 2 2.76035 14.499 58.0991
19955 2 0.0325821 12.8953 58.1089
14161 1 3.66564 12.885 56.8323
19697 2 5.48882 12.8953 58.1089
13861 1 9.12187 12.885 56.8323
13862 1 6.39339 14.4878 56.8226
19382 2 8.21658 14.499 58.0991
13534 1 11.8496 14.4878 56.8226
19423 2 10.9451 12.8953 58.1089
13567 1 14.5781 12.885 56.8323
19081 2 13.6728 14.499 58.0991
13233 1 17.3059 14.4878 56.8226
19080 2 16.4013 12.8953 58.1089
13232 1 20.0344 12.885 56.8323
18765 2 19.1291 14.499 58.0991
14123 1 0.936345 17.6938 56.8004
19659 2 2.75957 17.7066 58.0767
19926 2 0.0318461 16.1028 58.0884
14122 1 3.66488 16.0908 56.812
19700 2 5.48808 16.1028 58.0884
13818 1 6.39258 17.6938 56.8004
13864 1 9.12112 16.0908 56.812
19381 2 8.2158 17.7066 58.0767
13533 1 11.8488 17.6938 56.8004
19380 2 10.9443 16.1028 58.0884
13532 1 14.5774 16.0908 56.812
19050 2 13.672 17.7066 58.0767
13210 1 17.3051 17.6938 56.8004
19083 2 16.4006 16.1028 58.0884
13235 1 20.0336 16.0908 56.812
18764 2 19.1283 17.7066 58.0767
19927 2 0.0310314 19.3105 58.064
14125 1 3.66403 19.2969 56.7878
19657 2 5.48727 19.3105 58.064
13816 1 9.12027 19.2969 56.7878
19383 2 10.9435 19.3105 58.064
13535 1 14.5765 19.2969 56.7878
19048 2 16.3997 19.3105 58.064
13208 1 20.0327 19.2969 56.7878
14088 1 0.935466 20.9001 56.7742
19658 2 2.75872 20.9146 58.0502
19898 2 0.0301721 22.5188 58.0355
14086 1 3.66313 22.5035 56.7596
19660 2 5.48641 22.5188 58.0355
13817 1 6.3917 20.9001 56.7742
13819 1 9.11937 22.5035 56.7596
19335 2 8.21496 20.9146 58.0502
13494 1 11.8479 20.9001 56.7742
19333 2 10.9426 22.5188 58.0355
13492 1 14.5756 22.5035 56.7596
19049 2 13.6712 20.9146 58.0502
13209 1 17.3042 20.9001 56.7742
19051 2 16.3989 22.5188 58.0355
13211 1 20.0318 22.5035 56.7596
18741 2 19.1274 20.9146 58.0502
14087 1 0.934547 24.107 56.7439
19620 2 2.75786 24.1231 58.0196
19899 2 0.0293042 25.7277 58.0028
14089 1 3.6622 25.7108 56.7272
19618 2 5.48554 25.7277 58.0028
13770 1 9.11844 25.7108 56.7272
13772 1 6.39079 24.107 56.7439
19334 2 8.21409 24.1231 58.0196
13493 1 11.847 24.107 56.7439
19336 2 10.9418 25.7277 58.0028
13495 1 14.5747 25.7108 56.7272
19010 2 13.6703 24.1231 58.0196
13178 1 17.3033 24.107 56.7439
19008 2 16.398 25.7277 58.0028
13176 1 20.0309 25.7108 56.7272
18740 2 19.1266 24.1231 58.0196
14056 1 0.933622 27.3148 56.7095
19619 2 2.757 27.3325 57.9848
19874 2 0.0284609 28.9375 57.9657
14054 1 3.66129 28.9191 56.6907
19621 2 5.4847 28.9375 57.9657
13771 1 6.38986 27.3148 56.7095
13773 1 9.11753 28.9191 56.6907
19288 2 8.21324 27.3325 57.9848
13448 1 11.8461 27.3148 56.7095
19286 2 10.9409 28.9375 57.9657
13446 1 14.5738 28.9191 56.6907
19009 2 13.6695 27.3325 57.9848
13177 1 17.3023 27.3148 56.7095
19011 2 16.3972 28.9375 57.9657
13179 1 20.03 28.9191 56.6907
18710 2 19.1257 27.3325 57.9848
14055 1 0.932724 30.5238 56.6707
19588 2 2.75618 30.5429 57.9455
19875 2 0.0276664 32.1486 57.9242
14057 1 3.66041 32.1289 56.6497
19586 2 5.4839 32.1486 57.9242
13730 1 9.11665 32.1289 56.6497
13732 1 6.38896 30.5238 56.6707
19287 2 8.21241 30.5429 57.9455
13447 1 11.8452 30.5238 56.6707
19289 2 10.9401 32.1486 57.9242
13449 1 14.5729 32.1289 56.6497
18966 2 13.6687 30.5429 57.9455
13142 1 17.3014 30.5238 56.6707
18964 2 16.3964 32.1486 57.9242
13140 1 20.0291 32.1289 56.6497
18709 2 19.1249 30.5429 57.9455
14032 1 0.931879 33.7344 56.6276
19587 2 2.75541 33.7548 57.9017
19858 2 0.0269261 35.3615 57.878
14030 1 3.6596 35.3406 56.6042
19589 2 5.48316 35.3615 57.878
13731 1 6.38812 33.7344 56.6276
13733 1 9.11584 35.3406 56.6042
19248 2 8.21165 33.7548 57.9017
13403 1 11.8444 33.7344 56.6276
19246 2 10.9394 35.3615 57.878
13401 1 14.5721 35.3406 56.6042
18965 2 13.6679 33.7548 57.9017
13141 1 17.3006 33.7344 56.6276
18967 2 16.3956 35.3615 57.878
13143 1 20.0283 35.3406 56.6042
18678 2 19.1241 33.7548 57.9017
14031 1 0.931094 36.9474 56.5797
19564 2 2.75469 36.9687 57.8531
19859 2 0.0262112 38.5765 57.8271
14033 1 3.65884 38.5549 56.554
19562 2 5.48245 38.5765 57.8271
13700 1 6.38733 36.9474 56.5797
13698 1 9.11508 38.5549 56.554
19247 2 8.21093 36.9687 57.8531
13402 1 11.8436 36.9474 56.5797
19249 2 10.9387 38.5765 57.8271
13404 1 14.5713 38.5549 56.554
18923 2 13.6672 36.9687 57.8531
13106 1 17.2998 36.9474 56.5797
18921 2 16.3949 38.5765 57.8271
13104 1 20.0276 38.5549 56.554
18677 2 19.1234 36.9687 57.8531
14016 1 0.930349 40.1632 56.5271
19563 2 2.75396 40.185 57.7999
13699 1 6.38659 40.1632 56.5271
19216 2 8.2102 40.185 57.7999
13365 1 11.8428 40.1632 56.5271
18922 2 13.6664 40.185 57.7999
13105 1 17.2991 40.1632 56.5271
18646 2 19.1227 40.185 57.7999
14015 1 0.929559 43.3825 56.4696
19548 2 2.7531 43.4042 57.7418
19850 2 0.0254363 41.7942 57.7714
14014 1 3.65809 41.7723 56.499
19565 2 5.48167 41.7942 57.7714
13676 1 6.3858 43.3825 56.4696
13701 1 9.11433 41.7723 56.499
19215 2 8.20933 43.4042 57.7418
13364 1 11.842 43.3825 56.4696
19214 2 10.9379 41.7942 57.7714
13363 1 14.5706 41.7723 56.499
18887 2 13.6656 43.4042 57.7418
13071 1 17.2983 43.3825 56.4696
18924 2 16.3942 41.7942 57.7714
13107 1 20.0268 41.7723 56.499
18645 2 19.1218 43.4042 57.7418
14008 1 0.928527 46.6058 56.407
19547 2 2.75186 46.6267 57.6792
19851 2 0.0244261 45.015 57.711
14017 1 3.65721 44.9936 56.4389
19546 2 5.48066 45.015 57.711
13674 1 9.11345 44.9936 56.4389
13675 1 6.38477 46.6058 56.407
19192 2 8.2081 46.6267 57.6792
13335 1 11.841 46.6058 56.407
19217 2 10.9369 45.015 57.711
13366 1 14.5697 44.9936 56.4389
18886 2 13.6643 46.6267 57.6792
13070 1 17.2972 46.6058 56.407
18885 2 16.3931 45.015 57.711
13069 1 20.0259 44.9936 56.4389
18615 2 19.1206 46.6267 57.6792
14007 1 0.926866 49.8332 56.3397
19537 2 2.7499 49.8526 57.6126
19849 2 0.0228827 48.2393 57.6463
14006 1 3.65593 48.219 56.3739
19549 2 5.47912 48.2393 57.6463
13657 1 6.3831 49.8332 56.3397
13677 1 9.11217 48.219 56.3739
19191 2 8.20614 49.8526 57.6126
13334 1 11.8393 49.8332 56.3397
19190 2 10.9354 48.2393 57.6463
13333 1 14.5684 48.219 56.3739
18856 2 13.6624 49.8526 57.6126
13040 1 17.2956 49.8332 56.3397
18888 2 16.3916 48.2393 57.6463
13072 1 20.0246 48.219 56.3739
18614 2 19.1186 49.8526 57.6126
14191 1 1.85669 0.0708593 59.4325
19734 2 0.951964 1.67966 60.7066
13897 1 4.58474 1.67516 59.4303
19768 2 3.68015 0.0745387 60.7088
13929 1 7.31293 0.0708593 59.4325
19449 2 9.13639 0.0745387 60.7088
19450 2 6.4082 1.67966 60.7066
13586 1 10.041 1.67516 59.4303
19102 2 11.8644 1.67966 60.7066
13246 1 15.4972 1.67516 59.4303
13585 1 12.7692 0.0708593 59.4325
19120 2 14.5926 0.0745387 60.7088
13256 1 18.2254 0.0708593 59.4325
18786 2 17.3207 1.67966 60.7066
12976 1 20.9535 1.67516 59.4303
18785 2 20.0489 0.0745387 60.7088
14192 1 1.85652 3.27947 59.4272
19733 2 0.951707 4.88994 60.6994
13896 1 4.58448 4.8838 59.4231
19732 2 3.67998 3.28479 60.7035
13895 1 7.31275 3.27947 59.4272
19418 2 6.40794 4.88994 60.6994
19451 2 9.13621 3.28479 60.7035
13562 1 10.0407 4.8838 59.4231
19101 2 11.8642 4.88994 60.6994
13245 1 15.497 4.8838 59.4231
13587 1 12.769 3.27947 59.4272
19100 2 14.5925 3.28479 60.7035
13244 1 18.2252 3.27947 59.4272
18778 2 17.3204 4.88994 60.6994
12975 1 20.9532 4.8838 59.4231
18787 2 20.0487 3.28479 60.7035
14156 1 1.85617 6.48814 59.4182
19695 2 0.951291 8.1003 60.6884
13859 1 4.58407 8.09252 59.4122
19735 2 3.67964 6.49511 60.6944
13898 1 7.31241 6.48814 59.4182
19416 2 9.13588 6.49511 60.6944
19417 2 6.40753 8.1003 60.6884
13561 1 10.0403 8.09252 59.4122
19078 2 11.8638 8.1003 60.6884
13230 1 15.4965 8.09252 59.4122
13560 1 12.7687 6.48814 59.4182
19103 2 14.5921 6.49511 60.6944
13247 1 18.2249 6.48814 59.4182
18777 2 17.32 8.1003 60.6884
12974 1 20.9528 8.09252 59.4122
18776 2 20.0484 6.49511 60.6944
14157 1 1.85568 9.69692 59.4053
19694 2 0.950737 11.3108 60.6736
13858 1 4.58351 11.3014 59.3975
19693 2 3.67915 9.70554 60.6815
13857 1 7.31192 9.69692 59.4053
19378 2 6.40697 11.3108 60.6736
19419 2 9.13539 9.70554 60.6815
13530 1 10.0397 11.3014 59.3975
19077 2 11.8632 11.3108 60.6736
13229 1 15.496 11.3014 59.3975
13563 1 12.7682 9.69692 59.4053
19076 2 14.5916 9.70554 60.6815
13228 1 18.2244 9.69692 59.4053
18762 2 17.3195 11.3108 60.6736
12967 1 20.9522 11.3014 59.3975
18779 2 20.0479 9.70554 60.6815
14120 1 1.85506 12.9058 59.3887
19655 2 0.950068 14.5215 60.6548
13814 1 4.58283 14.5104 59.3789
19696 2 3.67853 12.9161 60.6647
13860 1 7.3113 12.9058 59.3887
19376 2 9.13477 12.9161 60.6647
19377 2 6.40631 14.5215 60.6548
13529 1 10.0391 14.5104 59.3789
19046 2 11.8625 14.5215 60.6548
13206 1 15.4953 14.5104 59.3789
13528 1 12.7675 12.9058 59.3887
19079 2 14.591 12.9161 60.6647
13231 1 18.2238 12.9058 59.3887
18761 2 17.3188 14.5215 60.6548
12966 1 20.9515 14.5104 59.3789
18760 2 20.0472 12.9161 60.6647
14121 1 1.85434 16.115 59.3681
19654 2 0.949318 17.7325 60.632
13813 1 4.58207 17.7197 59.3563
19653 2 3.67782 16.127 60.6439
13812 1 7.31058 16.115 59.3681
19331 2 6.40556 17.7325 60.632
19379 2 9.13406 16.127 60.6439
13490 1 10.0383 17.7197 59.3563
19045 2 11.8618 17.7325 60.632
13205 1 15.4946 17.7197 59.3563
13531 1 12.7668 16.115 59.3681
19044 2 14.5903 16.127 60.6439
13204 1 18.2231 16.115 59.3681
18738 2 17.318 17.7325 60.632
12951 1 20.9508 17.7197 59.3563
18763 2 20.0465 16.127 60.6439
14084 1 1.85355 19.3245 59.3434
19656 2 3.67704 19.3381 60.6191
13815 1 7.30979 19.3245 59.3434
19329 2 9.13328 19.3381 60.6191
13488 1 12.766 19.3245 59.3434
19047 2 14.5895 19.3381 60.6191
13207 1 18.2223 19.3245 59.3434
18736 2 20.0458 19.3381 60.6191
14085 1 1.85274 22.5344 59.3146
19616 2 0.948526 20.9438 60.6051
13768 1 4.58127 20.9294 59.3296
19614 2 3.67625 22.5497 60.59
13766 1 7.30898 22.5344 59.3146
19330 2 6.40476 20.9438 60.6051
19332 2 9.13248 22.5497 60.59
13489 1 10.0375 20.9294 59.3296
19006 2 11.861 20.9438 60.6051
13174 1 15.4937 20.9294 59.3296
13491 1 12.7652 22.5344 59.3146
19004 2 14.5887 22.5497 60.59
13172 1 18.2215 22.5344 59.3146
18737 2 17.3172 20.9438 60.6051
12950 1 20.95 20.9294 59.3296
18739 2 20.045 22.5497 60.59
14052 1 1.85195 25.745 59.2815
19615 2 0.947732 24.1557 60.5739
13767 1 4.58046 24.1396 59.2986
19617 2 3.67547 25.7619 60.5566
13769 1 7.30818 25.745 59.2815
19282 2 9.13171 25.7619 60.5566
19284 2 6.40397 24.1557 60.5739
13444 1 10.0367 24.1396 59.2986
19005 2 11.8602 24.1557 60.5739
13173 1 15.4929 24.1396 59.2986
13442 1 12.7644 25.745 59.2815
19007 2 14.5879 25.7619 60.5566
13175 1 18.2207 25.745 59.2815
18707 2 17.3164 24.1557 60.5739
12928 1 20.9492 24.1396 59.2986
18705 2 20.0442 25.7619 60.5566
14053 1 1.8512 28.9565 59.2439
19584 2 0.946978 27.3682 60.5382
13728 1 4.57969 27.3506 59.2633
19582 2 3.67475 28.9748 60.5186
13726 1 7.30744 28.9565 59.2439
19283 2 6.40322 27.3682 60.5382
19285 2 9.13098 28.9748 60.5186
13443 1 10.0359 27.3506 59.2633
18962 2 11.8595 27.3682 60.5382
13138 1 15.4922 27.3506 59.2633
13445 1 12.7637 28.9565 59.2439
18960 2 14.5872 28.9748 60.5186
13136 1 18.2199 28.9565 59.2439
18706 2 17.3157 27.3682 60.5382
12927 1 20.9484 27.3506 59.2633
18708 2 20.0435 28.9748 60.5186
14028 1 1.85054 32.1693 59.2017
19583 2 0.946293 30.5817 60.4979
13727 1 4.57898 30.5628 59.2234
19585 2 3.6741 32.1889 60.4759
13729 1 7.30678 32.1693 59.2017
19242 2 9.13034 32.1889 60.4759
19244 2 6.40253 30.5817 60.4979
13399 1 10.0352 30.5628 59.2234
18961 2 11.8588 30.5817 60.4979
13137 1 15.4915 30.5628 59.2234
13397 1 12.763 32.1693 59.2017
18963 2 14.5866 32.1889 60.4759
13139 1 18.2193 32.1693 59.2017
18675 2 17.315 30.5817 60.4979
12904 1 20.9477 30.5628 59.2234
18673 2 20.0428 32.1889 60.4759
14029 1 1.84997 35.3838 59.1547
19560 2 0.945685 33.7964 60.4528
13696 1 4.57837 33.7763 59.1788
19558 2 3.67352 35.4043 60.4285
13694 1 7.30621 35.3838 59.1547
19243 2 6.40192 33.7964 60.4528
19245 2 9.12976 35.4043 60.4285
13398 1 10.0346 33.7763 59.1788
18919 2 11.8582 33.7964 60.4528
13102 1 15.4908 33.7763 59.1788
13400 1 12.7624 35.3838 59.1547
18917 2 14.586 35.4043 60.4285
13100 1 18.2187 35.3838 59.1547
18674 2 17.3144 33.7964 60.4528
12903 1 20.9471 33.7763 59.1788
18676 2 20.0422 35.4043 60.4285
19559 2 0.945127 37.0127 60.4029
14012 1 1.84946 38.6003 59.1028
13695 1 4.57783 36.9917 59.1294
19212 2 6.40137 37.0127 60.4029
13697 1 7.3057 38.6003 59.1028
13361 1 10.0341 36.9917 59.1294
18918 2 11.8576 37.0127 60.4029
13101 1 15.4903 36.9917 59.1294
13359 1 12.7619 38.6003 59.1028
18643 2 17.3138 37.0127 60.4029
13103 1 18.2182 38.6003 59.1028
12880 1 20.9465 36.9917 59.1294
19544 2 0.944537 40.2308 60.3482
13672 1 4.57732 40.2095 59.0751
19561 2 3.67296 38.6215 60.3762
19210 2 9.1292 38.6215 60.3762
19211 2 6.40078 40.2308 60.3482
13360 1 10.0336 40.2095 59.0751
18883 2 11.857 40.2308 60.3482
13067 1 15.4898 40.2095 59.0751
18920 2 14.5854 38.6215 60.3762
18642 2 17.3133 40.2308 60.3482
12879 1 20.946 40.2095 59.0751
18641 2 20.0417 38.6215 60.3762
14013 1 1.84891 41.8193 59.0461
19543 2 0.943763 43.451 60.2889
13652 1 2.76738 43.4748 61.5635
13671 1 4.57669 43.4298 59.0159
19542 2 3.67231 41.8406 60.3191
13670 1 7.30515 41.8193 59.0461
19188 2 6.4 43.451 60.2889
19213 2 9.12854 41.8406 60.3191
13326 1 8.22362 43.4748 61.5635
13331 1 10.0329 43.4298 59.0159
18882 2 11.8562 43.451 60.2889
13066 1 15.4892 43.4298 59.0159
13362 1 12.7614 41.8193 59.0461
18881 2 14.5848 41.8406 60.3191
13035 1 13.6799 43.4748 61.5635
13065 1 18.2176 41.8193 59.0461
18612 2 17.3125 43.451 60.2889
12856 1 20.9454 43.4298 59.0159
18644 2 20.041 41.8406 60.3191
12853 1 19.1361 43.4748 61.5635
14004 1 1.84815 45.0411 58.9846
19536 2 0.942569 46.6733 60.2256
13651 1 2.76639 46.6972 61.4994
14003 1 0.0388361 45.0858 61.5319
13656 1 4.57572 46.653 58.9522
19545 2 3.67136 45.0619 60.2577
13650 1 5.49507 45.0858 61.5319
13673 1 7.30439 45.0411 58.9846
19186 2 9.12759 45.0619 60.2577
19187 2 6.39881 46.6733 60.2256
13305 1 8.22263 46.6972 61.4994
13330 1 10.032 46.653 58.9522
18855 2 11.855 46.6733 60.2256
13328 1 10.9513 45.0858 61.5319
13039 1 15.4882 46.653 58.9522
13329 1 12.7606 45.0411 58.9846
18884 2 14.5838 45.0619 60.2577
13034 1 13.6789 46.6972 61.4994
13068 1 18.2169 45.0411 58.9846
18611 2 17.3113 46.6733 60.2256
13033 1 16.4076 45.0858 61.5319
12855 1 20.9444 46.653 58.9522
18610 2 20.0401 45.0619 60.2577
12831 1 19.1351 46.6972 61.4994
14005 1 1.84687 48.2656 58.919
19535 2 0.940646 49.8976 60.1592
13641 1 2.76466 49.9208 61.4325
14001 1 0.0375179 48.3089 61.4662
13655 1 4.57403 49.8788 58.885
19534 2 3.66984 48.2853 60.1926
13653 1 5.49376 48.3089 61.4662
13654 1 7.30311 48.2656 58.919
19169 2 6.39688 49.8976 60.1592
19189 2 9.12608 48.2853 60.1926
13304 1 8.2209 49.9208 61.4325
13306 1 10.0303 49.8788 58.885
18854 2 11.8531 49.8976 60.1592
13303 1 10.95 48.3089 61.4662
13038 1 15.4865 49.8788 58.885
13332 1 12.7594 48.2656 58.919
18853 2 14.5823 48.2853 60.1926
13012 1 13.6771 49.9208 61.4325
13037 1 18.2156 48.2656 58.919
18585 2 17.3094 49.8976 60.1592
13036 1 16.4062 48.3089 61.4662
12832 1 20.9427 49.8788 58.885
18613 2 20.0386 48.2853 60.1926
12830 1 19.1334 49.9208 61.4325
13893 1 2.77471 1.68442 61.9863
14190 1 0.0466602 0.0784686 61.9885
19730 2 1.87042 0.0820819 63.2641
13892 1 5.5029 0.0784686 61.9885
19414 2 4.59848 1.68884 63.2619
13558 1 8.23095 1.68442 61.9863
19448 2 7.32666 0.0820819 63.2641
13584 1 10.9591 0.0784686 61.9885
19098 2 10.0547 1.68884 63.2619
13242 1 13.6872 1.68442 61.9863
18774 2 15.511 1.68884 63.2619
19097 2 12.7829 0.0820819 63.2641
13241 1 16.4154 0.0784686 61.9885
18784 2 18.2391 0.0820819 63.2641
12973 1 19.1434 1.68442 61.9863
18536 2 20.9672 1.68884 63.2619
13855 1 2.77445 4.89636 61.9791
14154 1 0.0464833 3.29038 61.9832
19731 2 1.87025 3.29561 63.2587
13894 1 5.50272 3.29038 61.9832
19413 2 4.59822 4.90241 63.2546
13557 1 8.23069 4.89636 61.9791
19412 2 7.32649 3.29561 63.2587
13556 1 10.959 3.29038 61.9832
19074 2 10.0545 4.90241 63.2546
13226 1 13.6869 4.89636 61.9791
18773 2 15.5107 4.90241 63.2546
19099 2 12.7827 3.29561 63.2587
13243 1 16.4152 3.29038 61.9832
18772 2 18.239 3.29561 63.2587
12972 1 19.1432 4.89636 61.9791
18535 2 20.9669 4.90241 63.2546
13854 1 2.77403 8.1084 61.968
14155 1 0.0461415 6.50237 61.974
19691 2 1.8699 6.50923 63.2495
13853 1 5.50238 6.50237 61.974
19374 2 4.59779 8.11609 63.2435
13526 1 8.23027 8.1084 61.968
19415 2 7.32614 6.50923 63.2495
13559 1 10.9586 6.50237 61.974
19073 2 10.054 8.11609 63.2435
13225 1 13.6865 8.1084 61.968
18758 2 15.5103 8.11609 63.2435
19072 2 12.7824 6.50923 63.2495
13224 1 16.4149 6.50237 61.974
18775 2 18.2386 6.50923 63.2495
12965 1 19.1427 8.1084 61.968
18534 2 20.9665 8.11609 63.2435
13810 1 2.77347 11.3206 61.9531
14118 1 0.0456501 9.71448 61.9611
19692 2 1.86941 9.72299 63.2365
13856 1 5.50189 9.71448 61.9611
19373 2 4.59723 11.3299 63.2285
13525 1 8.22971 11.3206 61.9531
19372 2 7.32565 9.72299 63.2365
13524 1 10.9581 9.71448 61.9611
19042 2 10.0535 11.3299 63.2285
13202 1 13.686 11.3206 61.9531
18757 2 15.5097 11.3299 63.2285
19075 2 12.7819 9.72299 63.2365
13227 1 16.4144 9.71448 61.9611
18756 2 18.2381 9.72299 63.2365
12964 1 19.1422 11.3206 61.9531
18527 2 20.9659 11.3299 63.2285
13809 1 2.77281 14.533 61.9343
14119 1 0.0450331 12.9268 61.9442
19651 2 1.86879 12.9369 63.2195
13808 1 5.50127 12.9268 61.9442
19327 2 4.59656 14.544 63.2095
13486 1 8.22905 14.533 61.9343
19375 2 7.32503 12.9369 63.2195
13527 1 10.9575 12.9268 61.9442
19041 2 10.0528 14.544 63.2095
13201 1 13.6853 14.533 61.9343
18734 2 15.509 14.544 63.2095
19040 2 12.7813 12.9369 63.2195
13200 1 16.4137 12.9268 61.9442
18759 2 18.2375 12.9369 63.2195
12949 1 19.1415 14.533 61.9343
18526 2 20.9653 14.544 63.2095
13764 1 2.77207 17.7456 61.9113
14082 1 0.0443236 16.1393 61.9233
19652 2 1.86807 16.1511 63.1985
13759 1 0.962487 17.7717 64.4659
13811 1 5.50056 16.1393 61.9233
19326 2 4.5958 17.7583 63.1864
13758 1 3.69099 16.1636 64.4781
13485 1 8.2283 17.7456 61.9113
19325 2 7.32431 16.1511 63.1985
13436 1 6.41873 17.7717 64.4659
13483 1 9.14723 16.1636 64.4781
13484 1 10.9568 16.1393 61.9233
19002 2 10.052 17.7583 63.1864
13165 1 11.875 17.7717 64.4659
13170 1 13.6845 17.7456 61.9113
18733 2 15.5083 17.7583 63.1864
19043 2 12.7805 16.1511 63.1985
13164 1 14.6035 16.1636 64.4781
13203 1 16.413 16.1393 61.9233
18732 2 18.2368 16.1511 63.1985
12923 1 17.3312 17.7717 64.4659
12948 1 19.1408 17.7456 61.9113
18511 2 20.9645 17.7583 63.1864
12947 1 20.0597 16.1636 64.4781
14083 1 0.0435614 19.3521 61.8983
19612 2 1.86729 19.3656 63.1733
13762 1 5.4998 19.3521 61.8983
13761 1 3.69021 19.3798 64.4527
19328 2 7.32353 19.3656 63.1733
13434 1 9.14645 19.3798 64.4527
13487 1 10.956 19.3521 61.8983
19000 2 12.7798 19.3656 63.1733
13167 1 14.6027 19.3798 64.4527
13168 1 16.4123 19.3521 61.8983
18735 2 18.236 19.3656 63.1733
12921 1 20.0589 19.3798 64.4527
13763 1 2.77129 20.9587 61.8842
14050 1 0.0427924 22.5653 61.869
19613 2 1.8665 22.5805 63.1437
13720 1 0.961696 20.988 64.4384
13765 1 5.49903 22.5653 61.869
19280 2 4.59502 20.973 63.159
13718 1 3.68943 22.5963 64.423
13440 1 8.22753 20.9587 61.8842
19278 2 7.32274 22.5805 63.1437
13435 1 6.41793 20.988 64.4384
13437 1 9.14566 22.5963 64.423
13438 1 10.9553 22.5653 61.869
19001 2 10.0513 20.973 63.159
13130 1 11.8742 20.988 64.4384
13169 1 13.6838 20.9587 61.8842
18703 2 15.5075 20.973 63.159
19003 2 12.779 22.5805 63.1437
13128 1 14.6019 22.5963 64.423
13171 1 16.4115 22.5653 61.869
18701 2 18.2352 22.5805 63.1437
12922 1 17.3304 20.988 64.4384
12926 1 19.14 20.9587 61.8842
18510 2 20.9637 20.973 63.159
12924 1 20.0581 22.5963 64.423
13724 1 2.77054 24.1722 61.8526
14051 1 0.042065 25.7792 61.8352
19580 2 1.86575 25.7959 63.1097
13719 1 0.960928 24.2047 64.4064
13722 1 5.4983 25.7792 61.8352
19279 2 4.59424 24.1881 63.1273
13721 1 3.68869 25.8133 64.3886
13439 1 8.22678 24.1722 61.8526
19281 2 7.32199 25.7959 63.1097
13389 1 9.14493 25.8133 64.3886
13391 1 6.41717 24.2047 64.4064
13441 1 10.9545 25.7792 61.8352
18958 2 10.0505 24.1881 63.1273
13129 1 11.8734 24.2047 64.4064
13134 1 13.683 24.1722 61.8526
18702 2 15.5067 24.1881 63.1273
18956 2 12.7782 25.7959 63.1097
13131 1 14.6012 25.8133 64.3886
13132 1 16.4108 25.7792 61.8352
18704 2 18.2345 25.7959 63.1097
12899 1 17.3296 24.2047 64.4064
12925 1 19.1393 24.1722 61.8526
18491 2 20.963 24.1881 63.1273
12897 1 20.0574 25.8133 64.3886
13723 1 2.76985 27.3863 61.8165
14026 1 0.0414215 28.9937 61.7967
19581 2 1.86507 29.0119 63.071
13688 1 0.960236 27.422 64.3697
13725 1 5.49766 28.9937 61.7967
19240 2 4.59352 27.4038 63.0909
13686 1 3.68805 29.0308 64.3495
13395 1 8.22609 27.3863 61.8165
19238 2 7.32131 29.0119 63.071
13390 1 6.41647 27.422 64.3697
13392 1 9.14429 29.0308 64.3495
13393 1 10.9539 28.9937 61.7967
18957 2 10.0498 27.4038 63.0909
13094 1 11.8727 27.422 64.3697
13133 1 13.6823 27.3863 61.8165
18671 2 15.506 27.4038 63.0909
18959 2 12.7775 29.0119 63.071
13092 1 14.6005 29.0308 64.3495
13135 1 16.4101 28.9937 61.7967
18669 2 18.2338 29.0119 63.071
12898 1 17.329 27.422 64.3697
12902 1 19.1386 27.3863 61.8165
18490 2 20.9622 27.4038 63.0909
12900 1 20.0568 29.0308 64.3495
13692 1 2.76926 30.6013 61.7757
14027 1 0.0408867 32.2092 61.7534
19556 2 1.86449 32.2287 63.0274
13687 1 0.959657 30.6397 64.3281
13690 1 5.49713 32.2092 61.7534
19239 2 4.59289 30.6202 63.0498
13689 1 3.68753 32.2489 64.3054
13394 1 8.2255 30.6013 61.7757
19241 2 7.32072 32.2287 63.0274
13351 1 9.14377 32.2489 64.3054
13353 1 6.4159 30.6397 64.3281
13396 1 10.9534 32.2092 61.7534
18915 2 10.0491 30.6202 63.0498
13093 1 11.8721 30.6397 64.3281
13098 1 13.6817 30.6013 61.7757
18670 2 15.5054 30.6202 63.0498
18913 2 12.777 32.2287 63.0274
13095 1 14.6 32.2489 64.3054
13096 1 16.4096 32.2092 61.7534
18672 2 18.2332 32.2287 63.0274
12875 1 17.3284 30.6397 64.3281
12901 1 19.138 30.6013 61.7757
18471 2 20.9616 30.6202 63.0498
12873 1 20.0562 32.2489 64.3054
13691 1 2.76878 33.8175 61.73
14010 1 0.0404502 35.426 61.7052
19557 2 1.86397 35.4465 62.9789
13664 1 0.959201 33.8582 64.2815
13693 1 5.49669 35.426 61.7052
19208 2 4.59234 33.8374 63.0038
13662 1 3.68711 35.4677 64.2563
13357 1 8.22502 33.8175 61.73
19206 2 7.32021 35.4465 62.9789
13352 1 6.41544 33.8582 64.2815
13354 1 9.14335 35.4677 64.2563
13355 1 10.9529 35.426 61.7052
18914 2 10.0486 33.8374 63.0038
13059 1 11.8717 33.8582 64.2815
13097 1 13.6813 33.8175 61.73
18639 2 15.5048 33.8374 63.0038
18916 2 12.7764 35.4465 62.9789
13057 1 14.5996 35.4677 64.2563
13099 1 16.4092 35.426 61.7052
18637 2 18.2327 35.4465 62.9789
12874 1 17.3279 33.8582 64.2815
12878 1 19.1375 33.8175 61.73
18470 2 20.9611 33.8374 63.0038
12876 1 20.0558 35.4677 64.2563
13668 1 2.76837 37.0349 61.6793
13663 1 0.958803 37.0774 64.2299
19207 2 4.59184 37.0557 62.9528
13356 1 8.22461 37.0349 61.6793
13323 1 6.41504 37.0774 64.2299
18879 2 10.0481 37.0557 62.9528
13058 1 11.8713 37.0774 64.2299
13063 1 13.6809 37.0349 61.6793
18638 2 15.5043 37.0557 62.9528
12851 1 17.3275 37.0774 64.2299
12877 1 19.1371 37.0349 61.6793
18451 2 20.9606 37.0557 62.9528
13667 1 2.76797 40.254 61.6237
14011 1 0.0400604 38.6443 61.6521
19540 2 1.86347 38.6653 62.9256
13648 1 0.958392 40.2974 64.1736
13666 1 5.4963 38.6443 61.6521
19184 2 4.5913 40.2752 62.8971
13665 1 3.68674 38.6873 64.2023
13327 1 8.2242 40.254 61.6237
19209 2 7.31971 38.6653 62.9256
13321 1 9.14298 38.6873 64.2023
13322 1 6.41463 40.2974 64.1736
13358 1 10.9525 38.6443 61.6521
18878 2 10.0475 40.2752 62.8971
13031 1 11.8709 40.2974 64.1736
13062 1 13.6804 40.254 61.6237
18608 2 15.5038 40.2752 62.8971
18877 2 12.7759 38.6653 62.9256
13060 1 14.5992 38.6873 64.2023
13061 1 16.4088 38.6443 61.6521
18640 2 18.2322 38.6653 62.9256
12850 1 17.3271 40.2974 64.1736
12854 1 19.1367 40.254 61.6237
18450 2 20.96 40.2752 62.8971
12849 1 20.0555 38.6873 64.2023
14002 1 0.0395898 41.8642 61.5942
19541 2 1.86283 41.8854 62.8676
13647 1 0.957765 43.5181 64.1128
13669 1 5.49583 41.8642 61.5942
19183 2 4.59053 43.4958 62.8371
13646 1 3.68624 41.9077 64.1437
19182 2 7.31907 41.8854 62.8676
13301 1 6.414 43.5181 64.1128
13324 1 9.14248 41.9077 64.1437
13325 1 10.9521 41.8642 61.5942
18851 2 10.0468 43.4958 62.8371
13030 1 11.8702 43.5181 64.1128
18607 2 15.503 43.4958 62.8371
18880 2 12.7753 41.8854 62.8676
13029 1 14.5987 41.9077 64.1437
13064 1 16.4083 41.8642 61.5942
18606 2 18.2315 41.8854 62.8676
12828 1 17.3265 43.5181 64.1128
18431 2 20.9592 43.4958 62.8371
12852 1 20.055 41.9077 64.1437
19532 2 1.86188 45.1065 62.8057
13640 1 0.95671 46.7394 64.0487
19168 2 4.58933 46.7175 62.7735
13649 1 3.68543 45.1288 64.0811
19185 2 7.31812 45.1065 62.8057
13299 1 9.14166 45.1288 64.0811
13300 1 6.41295 46.7394 64.0487
18850 2 10.0456 46.7175 62.7735
13011 1 11.8692 46.7394 64.0487
18584 2 15.5018 46.7175 62.7735
18849 2 12.7744 45.1065 62.8057
13032 1 14.5979 45.1288 64.0811
18609 2 18.2306 45.1065 62.8057
12827 1 17.3254 46.7394 64.0487
18430 2 20.958 46.7175 62.7735
12826 1 20.0541 45.1288 64.0811
19533 2 1.86037 48.3286 62.7407
13639 1 0.954986 49.9608 63.9825
19167 2 4.58745 49.9398 62.7076
13638 1 3.68407 48.3501 64.0157
19166 2 7.31661 48.3286 62.7407
13284 1 6.41122 49.9608 63.9825
13302 1 9.1403 48.3501 64.0157
18828 2 10.0437 49.9398 62.7076
13010 1 11.8675 49.9608 63.9825
18583 2 15.4999 49.9398 62.7076
18852 2 12.7728 48.3286 62.7407
13009 1 14.5965 48.3501 64.0157
18582 2 18.2291 48.3286 62.7407
12809 1 17.3237 49.9608 63.9825
18411 2 20.9562 49.9398 62.7076
12829 1 20.0528 48.3501 64.0157
13851 1 0.965212 1.69382 64.5418
19410 2 2.78929 1.69795 65.8159
19729 2 0.0612428 0.0895621 65.8181
13847 1 1.88426 0.0946659 67.0999
13891 1 3.6934 0.0862294 64.544
19409 2 5.51748 0.0895621 65.8181
13518 1 4.61231 1.70389 67.0976
13553 1 9.14964 0.0862294 64.544
13554 1 6.42145 1.69382 64.5418
19070 2 8.24553 1.69795 65.8159
13552 1 7.3405 0.0946659 67.0999
13222 1 11.8777 1.69382 64.5418
19096 2 10.9737 0.0895621 65.8181
13218 1 10.0685 1.70389 67.0976
13240 1 14.6059 0.0862294 64.544
18770 2 13.7018 1.69795 65.8159
12958 1 15.5248 1.70389 67.0976
13217 1 12.7967 0.0946659 67.0999
12970 1 17.3339 1.69382 64.5418
18769 2 16.43 0.0895621 65.8181
12968 1 18.253 0.0946659 67.0999
12969 1 20.0621 0.0862294 64.544
18533 2 19.158 1.69795 65.8159
12784 1 20.981 1.70389 67.0976
13850 1 0.964944 4.90906 64.5345
19370 2 2.78902 4.91479 65.8085
19689 2 0.0610608 3.30636 65.8127
13848 1 1.88407 3.31314 67.0944
13849 1 3.69322 3.30143 64.5386
19411 2 5.5173 3.30636 65.8127
13517 1 4.61203 4.92242 67.0902
13522 1 6.42118 4.90906 64.5345
13555 1 9.14946 3.30143 64.5386
19069 2 8.24526 4.91479 65.8085
13516 1 7.34031 3.31314 67.0944
13221 1 11.8774 4.90906 64.5345
19068 2 10.9735 3.30636 65.8127
13194 1 10.0683 4.92242 67.0902
13220 1 14.6057 3.30143 64.5386
18754 2 13.7015 4.91479 65.8085
12957 1 15.5245 4.92242 67.0902
13219 1 12.7965 3.31314 67.0944
12962 1 17.3337 4.90906 64.5345
18771 2 16.4298 3.30636 65.8127
12956 1 18.2528 3.31314 67.0944
12971 1 20.0619 3.30143 64.5386
18532 2 19.1577 4.91479 65.8085
12783 1 20.9807 4.92242 67.0902
13806 1 0.964513 8.12442 64.5233
19369 2 2.78859 8.13176 65.7973
19690 2 0.0607053 6.52326 65.8034
13802 1 1.8837 6.53173 67.0851
13852 1 3.69287 6.51672 64.5294
19368 2 5.51694 6.52326 65.8034
13478 1 4.61157 8.14108 67.079
13520 1 9.14911 6.51672 64.5294
13521 1 6.42075 8.12442 64.5233
19038 2 8.24482 8.13176 65.7973
13519 1 7.33994 6.53173 67.0851
13198 1 11.877 8.12442 64.5233
19071 2 10.9732 6.52326 65.8034
13193 1 10.0678 8.14108 67.079
13223 1 14.6053 6.51672 64.5294
18753 2 13.7011 8.13176 65.7973
12942 1 15.524 8.14108 67.079
13192 1 12.7962 6.53173 67.0851
12961 1 17.3332 8.12442 64.5233
18752 2 16.4294 6.52326 65.8034
12959 1 18.2524 6.53173 67.0851
12960 1 20.0616 6.51672 64.5294
18525 2 19.1573 8.13176 65.7973
12782 1 20.9803 8.14108 67.079
13805 1 0.963939 11.3399 64.5082
19323 2 2.788 11.3489 65.7821
19649 2 0.0601905 9.74031 65.7902
13803 1 1.88316 9.75048 67.0719
13804 1 3.69236 9.73216 64.5163
19371 2 5.51643 9.74031 65.7902
13477 1 4.61096 11.3599 67.0638
13482 1 6.42018 11.3399 64.5082
13523 1 9.1486 9.73216 64.5163
19037 2 8.24424 11.3489 65.7821
13476 1 7.3394 9.75048 67.0719
13197 1 11.8764 11.3399 64.5082
19036 2 10.9727 9.74031 65.7902
13162 1 10.0672 11.3599 67.0638
13196 1 14.6048 9.73216 64.5163
18730 2 13.7005 11.3489 65.7821
12941 1 15.5234 11.3599 67.0638
13195 1 12.7956 9.75048 67.0719
12946 1 17.3327 11.3399 64.5082
18755 2 16.4289 9.74031 65.7902
12940 1 18.2519 9.75048 67.0719
12963 1 20.0611 9.73216 64.5163
18524 2 19.1567 11.3489 65.7821
12775 1 20.9797 11.3599 67.0638
13760 1 0.96325 14.5557 64.4892
19322 2 2.78729 14.5663 65.7629
19650 2 0.0595391 12.9576 65.773
13756 1 1.88248 12.9694 67.0546
13807 1 3.69173 12.9478 64.4992
19321 2 5.51578 12.9576 65.773
13432 1 4.61022 14.579 67.0445
13480 1 9.14796 12.9478 64.4992
13481 1 6.41949 14.5557 64.4892
18998 2 8.24353 14.5663 65.7629
13479 1 7.33872 12.9694 67.0546
13166 1 11.8757 14.5557 64.4892
19039 2 10.972 12.9576 65.773
13161 1 10.0665 14.579 67.0445
13199 1 14.6042 12.9478 64.4992
18729 2 13.6998 14.5663 65.7629
12919 1 15.5227 14.579 67.0445
13160 1 12.795 12.9694 67.0546
12945 1 17.332 14.5557 64.4892
18728 2 16.4283 12.9576 65.773
12943 1 18.2512 12.9694 67.0546
12944 1 20.0604 12.9478 64.4992
18509 2 19.156 14.5663 65.7629
12774 1 20.9789 14.579 67.0445
19276 2 2.7865 17.784 65.7396
19610 2 0.0587832 16.1751 65.7518
13757 1 1.88169 16.1886 67.0333
19324 2 5.51502 16.1751 65.7518
13431 1 4.60939 17.7983 67.021
18997 2 8.24274 17.784 65.7396
13430 1 7.33793 16.1886 67.0333
18996 2 10.9713 16.1751 65.7518
13126 1 10.0656 17.7983 67.021
18699 2 13.699 17.784 65.7396
12918 1 15.5219 17.7983 67.021
13163 1 12.7942 16.1886 67.0333
18731 2 16.4275 16.1751 65.7518
12917 1 18.2504 16.1886 67.0333
18508 2 19.1552 17.784 65.7396
12763 1 20.9781 17.7983 67.021
19611 2 0.0579634 19.3929 65.7263
13716 1 1.88083 19.4081 67.0077
19274 2 5.5142 19.3929 65.7263
13433 1 7.33707 19.4081 67.0077
18999 2 10.9704 19.3929 65.7263
13124 1 12.7933 19.4081 67.0077
18697 2 16.4267 19.3929 65.7263
12920 1 18.2495 19.4081 67.0077
19275 2 2.78566 21.0019 65.7119
19578 2 0.0571269 22.6111 65.6964
13717 1 1.87996 22.6279 66.9776
19277 2 5.51337 22.6111 65.6964
13387 1 4.60852 21.018 66.9932
18954 2 8.2419 21.0019 65.7119
13385 1 7.3362 22.6279 66.9776
18952 2 10.9696 22.6111 65.6964
13125 1 10.0648 21.018 66.9932
18698 2 13.6981 21.0019 65.7119
12895 1 15.521 21.018 66.9932
13127 1 12.7924 22.6279 66.9776
18700 2 16.4258 22.6111 65.6964
12893 1 18.2487 22.6279 66.9776
18489 2 19.1544 21.0019 65.7119
12762 1 20.9772 21.018 66.9932
19236 2 2.78484 24.2203 65.6797
19579 2 0.0563236 25.8297 65.6619
13684 1 1.87913 25.848 66.9428
19234 2 5.51256 25.8297 65.6619
13386 1 4.60766 24.2379 66.9608
18953 2 8.24108 24.2203 65.6797
13388 1 7.33537 25.848 66.9428
18955 2 10.9688 25.8297 65.6619
13090 1 10.0639 24.2379 66.9608
18667 2 13.6973 24.2203 65.6797
12894 1 15.5201 24.2379 66.9608
13088 1 12.7916 25.848 66.9428
18665 2 16.425 25.8297 65.6619
12896 1 18.2478 25.848 66.9428
18488 2 19.1536 24.2203 65.6797
12751 1 20.9764 24.2379 66.9608
19235 2 2.78407 27.4391 65.6428
19554 2 0.0555972 29.0487 65.6226
13685 1 1.87839 29.0684 66.9032
19237 2 5.51184 29.0487 65.6226
13349 1 4.60687 27.4581 66.9236
18911 2 8.24031 27.4391 65.6428
13347 1 7.33463 29.0684 66.9032
18909 2 10.9681 29.0487 65.6226
13089 1 10.0631 27.4581 66.9236
18666 2 13.6965 27.4391 65.6428
12871 1 15.5193 27.4581 66.9236
13091 1 12.7909 29.0684 66.9032
18668 2 16.4243 29.0487 65.6226
12869 1 18.2471 29.0684 66.9032
18469 2 19.1528 27.4391 65.6428
12750 1 20.9756 27.4581 66.9236
19204 2 2.78339 30.6584 65.6011
19555 2 0.0549716 32.2682 65.5784
13660 1 1.87777 32.289 66.8587
19202 2 5.51121 32.2682 65.5784
13348 1 4.60619 30.6786 66.8816
18910 2 8.23963 30.6584 65.6011
13350 1 7.33401 32.289 66.8587
18912 2 10.9674 32.2682 65.5784
13055 1 10.0624 30.6786 66.8816
18635 2 13.6959 30.6584 65.6011
12870 1 15.5187 30.6786 66.8816
13053 1 12.7903 32.289 66.8587
18633 2 16.4237 32.2682 65.5784
12872 1 18.2465 32.289 66.8587
18468 2 19.1521 30.6584 65.6011
12739 1 20.9749 30.6786 66.8816
19203 2 2.78281 33.8781 65.5544
19538 2 0.054433 35.4881 65.5292
13661 1 1.87726 35.5096 66.8091
19205 2 5.51067 35.4881 65.5292
13319 1 4.60563 33.8992 66.8345
18875 2 8.23905 33.8781 65.5544
13317 1 7.3335 35.5096 66.8091
18873 2 10.9669 35.4881 65.5292
13054 1 10.0619 33.8992 66.8345
18634 2 13.6953 33.8781 65.5544
12847 1 15.5181 33.8992 66.8345
13056 1 12.7897 35.5096 66.8091
18636 2 16.4231 35.4881 65.5292
12845 1 18.246 35.5096 66.8091
18449 2 19.1515 33.8781 65.5544
12738 1 20.9743 33.8992 66.8345
19180 2 2.78228 37.0983 65.5028
13318 1 4.60515 37.1196 66.7824
18874 2 8.23852 37.0983 65.5028
13027 1 10.0614 37.1196 66.7824
18604 2 13.6948 37.0983 65.5028
12846 1 15.5176 37.1196 66.7824
18448 2 19.151 37.0983 65.5028
12727 1 20.9739 37.1196 66.7824
19179 2 2.78168 40.3189 65.4465
19539 2 0.0538752 38.7085 65.4752
13644 1 1.87679 38.73 66.7546
19178 2 5.51011 38.7085 65.4752
13297 1 4.60464 40.3403 66.7257
18847 2 8.23792 40.3189 65.4465
13320 1 7.33302 38.73 66.7546
18876 2 10.9664 38.7085 65.4752
13026 1 10.0609 40.3403 66.7257
18603 2 13.6942 40.3189 65.4465
12824 1 15.5171 40.3403 66.7257
13025 1 12.7893 38.73 66.7546
18602 2 16.4226 38.7085 65.4752
12848 1 18.2455 38.73 66.7546
18429 2 19.1504 40.3189 65.4465
12726 1 20.9734 40.3403 66.7257
19164 2 2.78085 43.5397 65.3861
19530 2 0.0531844 41.9292 65.4168
13645 1 1.8762 41.9507 66.6957
19181 2 5.50942 41.9292 65.4168
13296 1 4.60391 43.5609 66.6648
18846 2 8.23709 43.5397 65.3861
13295 1 7.33244 41.9507 66.6957
18845 2 10.9657 41.9292 65.4168
13007 1 10.0602 43.5609 66.6648
18580 2 13.6933 43.5397 65.3861
12823 1 15.5164 43.5609 66.6648
13028 1 12.7887 41.9507 66.6957
18605 2 16.4219 41.9292 65.4168
12822 1 18.2449 41.9507 66.6957
18428 2 19.1496 43.5397 65.3861
12715 1 20.9726 43.5609 66.6648
19163 2 2.77961 46.7604 65.3226
19531 2 0.0521768 45.1501 65.3547
13636 1 1.87529 45.1711 66.6331
19162 2 5.50842 45.1501 65.3547
13283 1 4.60279 46.7811 66.6009
18827 2 8.23585 46.7604 65.3226
13298 1 7.33153 45.1711 66.6331
18848 2 10.9647 45.1501 65.3547
13006 1 10.059 46.7811 66.6009
18579 2 13.6921 46.7604 65.3226
12808 1 15.5153 46.7811 66.6009
13005 1 12.7878 45.1711 66.6331
18578 2 16.4209 45.1501 65.3547
12825 1 18.244 45.1711 66.6331
18410 2 19.1483 46.7604 65.3226
12714 1 20.9715 46.7811 66.6009
19153 2 2.77778 49.9806 65.2575
19529 2 0.0506625 48.3706 65.2902
13637 1 1.8739 48.3908 66.5683
19165 2 5.5069 48.3706 65.2902
13282 1 4.60109 50.0001 66.5356
18826 2 8.23402 49.9806 65.2575
13281 1 7.33013 48.3908 66.5683
18825 2 10.9631 48.3706 65.2902
12992 1 10.0573 50.0001 66.5356
18561 2 13.6903 49.9806 65.2575
12807 1 15.5136 50.0001 66.5356
13008 1 12.7864 48.3908 66.5683
18581 2 16.4194 48.3706 65.2902
12806 1 18.2426 48.3908 66.5683
18409 2 19.1465 49.9806 65.2575
12703 1 20.9698 50.0001 66.5356
13514 1 2.80281 1.71291 69.6572
13846 1 0.0747705 0.102046 69.6595
19366 2 0.980544 1.70675 68.3677
13513 1 5.53101 0.102046 69.6595
19408 2 3.70874 0.0967495 68.37
13190 1 8.25905 1.71291 69.6572
19065 2 9.16497 0.0967495 68.37
19066 2 6.43678 1.70675 68.3677
13216 1 10.9872 0.102046 69.6595
18750 2 11.893 1.70675 68.3677
12954 1 13.7153 1.71291 69.6572
18768 2 14.6212 0.0967495 68.37
12953 1 16.4435 0.102046 69.6595
18530 2 17.3493 1.70675 68.3677
12781 1 19.1715 1.71291 69.6572
18529 2 20.0775 0.0967495 68.37
13474 1 2.80251 4.93471 69.6498
13800 1 0.0745647 3.32379 69.654
19365 2 0.980261 4.92682 68.3603
13515 1 5.5308 3.32379 69.654
19364 2 3.70854 3.31677 68.3645
13189 1 8.25875 4.93471 69.6498
19034 2 6.4365 4.92682 68.3603
19067 2 9.16478 3.31677 68.3645
13188 1 10.987 3.32379 69.654
18749 2 11.8927 4.92682 68.3603
12938 1 13.715 4.93471 69.6498
18748 2 14.621 3.31677 68.3645
12955 1 16.4433 3.32379 69.654
18522 2 17.349 4.92682 68.3603
12780 1 19.1712 4.93471 69.6498
18531 2 20.0773 3.31677 68.3645
13473 1 2.80201 8.15667 69.6384
13801 1 0.0741626 6.54567 69.6446
19319 2 0.979797 8.14705 68.349
13472 1 5.5304 6.54567 69.6446
19367 2 3.70817 6.53691 68.3551
13158 1 8.25825 8.15667 69.6384
19032 2 9.16441 6.53691 68.3551
19033 2 6.43604 8.14705 68.349
13191 1 10.9866 6.54567 69.6446
18726 2 11.8923 8.14705 68.349
12937 1 13.7145 8.15667 69.6384
18751 2 14.6206 6.53691 68.3551
12936 1 16.4429 6.54567 69.6446
18521 2 17.3485 8.14705 68.349
12773 1 19.1707 8.15667 69.6384
18520 2 20.0769 6.53691 68.3551
13428 1 2.80134 11.3788 69.6231
13754 1 0.0735746 9.76772 69.6313
19318 2 0.979169 11.3675 68.3337
13475 1 5.52981 9.76772 69.6313
19317 2 3.70762 9.75724 68.3418
13157 1 8.25757 11.3788 69.6231
18994 2 6.43541 11.3675 68.3337
19035 2 9.16386 9.75724 68.3418
13156 1 10.9861 9.76772 69.6313
18725 2 11.8916 11.3675 68.3337
12915 1 13.7138 11.3788 69.6231
18724 2 14.6201 9.75724 68.3418
12939 1 16.4423 9.76772 69.6313
18506 2 17.3479 11.3675 68.3337
12772 1 19.1701 11.3788 69.6231
18523 2 20.0763 9.75724 68.3418
13427 1 2.80051 14.6012 69.6037
13755 1 0.0728198 12.99 69.6139
19272 2 0.978402 14.5882 68.3143
13426 1 5.52906 12.99 69.6139
19320 2 3.70692 12.9778 68.3245
13122 1 8.25675 14.6012 69.6037
18992 2 9.16316 12.9778 68.3245
18993 2 6.43464 14.5882 68.3143
13159 1 10.9853 12.99 69.6139
18695 2 11.8909 14.5882 68.3143
12914 1 13.713 14.6012 69.6037
18727 2 14.6194 12.9778 68.3245
12913 1 16.4415 12.99 69.6139
18505 2 17.3471 14.5882 68.3143
12761 1 19.1692 14.6012 69.6037
18504 2 20.0756 12.9778 68.3245
13383 1 2.79956 17.8239 69.58
13714 1 0.0719278 16.2125 69.5924
19271 2 0.97753 17.8092 68.2908
13429 1 5.52817 16.2125 69.5924
19270 2 3.7061 16.1986 68.3031
13121 1 8.2558 17.8239 69.58
18950 2 6.43377 17.8092 68.2908
18995 2 9.16233 16.1986 68.3031
13120 1 10.9844 16.2125 69.5924
18694 2 11.89 17.8092 68.2908
12891 1 13.712 17.8239 69.58
18693 2 14.6186 16.1986 68.3031
12916 1 16.4406 16.2125 69.5924
18486 2 17.3462 17.8092 68.2908
12760 1 19.1683 17.8239 69.58
18507 2 20.0748 16.1986 68.3031
13715 1 0.0709389 19.4353 69.5665
13381 1 5.52718 19.4353 69.5665
19273 2 3.70519 19.4198 68.2774
18948 2 9.16143 19.4198 68.2774
13123 1 10.9834 19.4353 69.5665
18696 2 14.6177 19.4198 68.2774
12889 1 16.4397 19.4353 69.5665
18484 2 20.0739 19.4198 68.2774
13382 1 2.79854 21.0468 69.5519
13682 1 0.0699039 22.6583 69.5362
19232 2 0.976597 21.0305 68.2628
13384 1 5.52614 22.6583 69.5362
19230 2 3.70424 22.6413 68.2472
13086 1 8.25478 21.0468 69.5519
18949 2 6.43284 21.0305 68.2628
18951 2 9.16048 22.6413 68.2472
13084 1 10.9824 22.6583 69.5362
18663 2 11.8891 21.0305 68.2628
12890 1 13.711 21.0468 69.5519
18661 2 14.6167 22.6413 68.2472
12892 1 16.4386 22.6583 69.5362
18485 2 17.3453 21.0305 68.2628
12749 1 19.1673 21.0468 69.5519
18487 2 20.073 22.6413 68.2472
13345 1 2.79751 24.2699 69.5193
13683 1 0.0688829 25.8815 69.5012
19231 2 0.975653 24.2521 68.2304
13343 1 5.52512 25.8815 69.5012
19233 2 3.70331 25.8631 68.2124
13085 1 8.25375 24.2699 69.5193
18905 2 9.15955 25.8631 68.2124
18907 2 6.43189 24.2521 68.2304
13087 1 10.9814 25.8815 69.5012
18662 2 11.8881 24.2521 68.2304
12867 1 13.71 24.2699 69.5193
18664 2 14.6158 25.8631 68.2124
12865 1 16.4376 25.8815 69.5012
18466 2 17.3444 24.2521 68.2304
12748 1 19.1662 24.2699 69.5193
18464 2 20.072 25.8631 68.2124
13344 1 2.79652 27.4932 69.4819
13658 1 0.0679359 29.1048 69.4614
19200 2 0.974751 27.4741 68.1932
13346 1 5.52417 29.1048 69.4614
19198 2 3.70245 29.0851 68.1727
13051 1 8.25275 27.4932 69.4819
18906 2 6.43099 27.4741 68.1932
18908 2 9.15869 29.0851 68.1727
13049 1 10.9804 29.1048 69.4614
18631 2 11.8872 27.4741 68.1932
12866 1 13.709 27.4932 69.4819
18629 2 14.6149 29.0851 68.1727
12868 1 16.4367 29.1048 69.4614
18465 2 17.3435 27.4741 68.1932
12737 1 19.1652 27.4932 69.4819
18467 2 20.0712 29.0851 68.1727
13315 1 2.79562 30.7164 69.4396
13659 1 0.0671047 32.328 69.4166
19199 2 0.97393 30.6963 68.1511
13313 1 5.52334 32.328 69.4166
19201 2 3.70167 32.3074 68.1282
13050 1 8.25186 30.7164 69.4396
18869 2 9.15791 32.3074 68.1282
18871 2 6.43017 30.6963 68.1511
13052 1 10.9796 32.328 69.4166
18630 2 11.8864 30.6963 68.1511
12843 1 13.7081 30.7164 69.4396
18632 2 14.6141 32.3074 68.1282
12841 1 16.4358 32.328 69.4166
18446 2 17.3426 30.6963 68.1511
12736 1 19.1643 30.7164 69.4396
18444 2 20.0704 32.3074 68.1282
13314 1 2.79485 33.9394 69.3923
13642 1 0.0663994 35.5508 69.3668
19176 2 0.973198 33.9185 68.104
13316 1 5.52264 35.5508 69.3668
19174 2 3.70097 35.5296 68.0787
13023 1 8.25109 33.9394 69.3923
18870 2 6.42944 33.9185 68.104
18872 2 9.15721 35.5296 68.0787
13021 1 10.9789 35.5508 69.3668
18600 2 11.8857 33.9185 68.104
12842 1 13.7073 33.9394 69.3923
18598 2 14.6134 35.5296 68.0787
12844 1 16.4351 35.5508 69.3668
18445 2 17.3419 33.9185 68.104
12725 1 19.1636 33.9394 69.3923
18447 2 20.0697 35.5296 68.0787
13293 1 2.79419 37.162 69.3401
19175 2 0.972522 37.1407 68.0521
13022 1 8.25043 37.162 69.3401
18843 2 6.42876 37.1407 68.0521
18599 2 11.885 37.1407 68.0521
12820 1 13.7067 37.162 69.3401
18426 2 17.3412 37.1407 68.0521
12724 1 19.1629 37.162 69.3401
13292 1 2.79352 40.3838 69.2833
13643 1 0.065735 38.773 69.3122
19160 2 0.971827 40.3625 67.9956
13291 1 5.52197 38.773 69.3122
19177 2 3.70031 38.7516 68.0244
13003 1 8.24975 40.3838 69.2833
18841 2 9.15655 38.7516 68.0244
18842 2 6.42807 40.3625 67.9956
13024 1 10.9782 38.773 69.3122
18576 2 11.8843 40.3625 67.9956
12819 1 13.706 40.3838 69.2833
18601 2 14.6128 38.7516 68.0244
12818 1 16.4345 38.773 69.3122
18425 2 17.3405 40.3625 67.9956
12713 1 19.1622 40.3838 69.2833
18424 2 20.069 38.7516 68.0244
13279 1 2.79269 43.6043 69.2225
13634 1 0.0650192 41.9942 69.2533
19159 2 0.970907 43.5835 67.9352
13294 1 5.52126 41.9942 69.2533
19158 2 3.69953 41.9731 67.9658
13002 1 8.24893 43.6043 69.2225
18823 2 6.42715 43.5835 67.9352
18844 2 9.15577 41.9731 67.9658
13001 1 10.9775 41.9942 69.2533
18575 2 11.8834 43.5835 67.9352
12804 1 13.7052 43.6043 69.2225
18574 2 14.612 41.9731 67.9658
12821 1 16.4337 41.9942 69.2533
18407 2 17.3396 43.5835 67.9352
12712 1 19.1614 43.6043 69.2225
18427 2 20.0682 41.9731 67.9658
13278 1 2.7915 46.8233 69.159
13635 1 0.0640098 45.214 69.191
19152 2 0.969591 46.8035 67.872
13277 1 5.52025 45.214 69.191
19161 2 3.69842 45.1937 67.9039
12991 1 8.24774 46.8233 69.159
18821 2 9.15466 45.1937 67.9039
18822 2 6.42583 46.8035 67.872
13004 1 10.9765 45.214 69.191
18560 2 11.8821 46.8035 67.872
12803 1 13.704 46.8233 69.159
18577 2 14.6109 45.1937 67.9039
12802 1 16.4327 45.214 69.191
18406 2 17.3383 46.8035 67.872
12702 1 19.1602 46.8233 69.159
18405 2 20.0671 45.1937 67.9039
13270 1 2.78986 50.0403 69.0947
13633 1 0.0626101 48.4321 69.1268
19151 2 0.967796 50.0217 67.8077
13280 1 5.51885 48.4321 69.1268
19150 2 3.69688 48.4128 67.8399
12990 1 8.2461 50.0403 69.0947
18808 2 6.42403 50.0217 67.8077
18824 2 9.15312 48.4128 67.8399
12989 1 10.9751 48.4321 69.1268
18559 2 11.8803 50.0217 67.8077
12793 1 13.7023 50.0403 69.0947
18558 2 14.6094 48.4128 67.8399
12805 1 16.4313 48.4321 69.1268
18392 2 17.3365 50.0217 67.8077
12701 1 19.1586 50.0403 69.0947
18408 2 20.0656 48.4128 67.8399
13470 1 0.988751 1.72211 72.2333
19362 2 1.90007 0.102784 70.9169
13512 1 3.71696 0.10957 72.2356
19030 2 4.62812 1.71436 70.9146
13185 1 9.1732 0.10957 72.2356
13186 1 6.44499 1.72211 72.2333
19064 2 7.35631 0.102784 70.9169
12934 1 11.9012 1.72211 72.2333
18746 2 10.0844 1.71436 70.9146
12952 1 14.6294 0.10957 72.2356
18518 2 15.5406 1.71436 70.9146
18745 2 12.8126 0.102784 70.9169
12778 1 17.3575 1.72211 72.2333
18528 2 18.2688 0.102784 70.9169
12777 1 20.0857 0.10957 72.2356
18376 2 20.9968 1.71436 70.9146
13469 1 0.988407 4.94729 72.2258
19363 2 1.89987 3.32597 70.9114
13468 1 3.71673 3.33468 72.2301
19029 2 4.62782 4.93761 70.9071
13154 1 6.44465 4.94729 72.2258
13187 1 9.17296 3.33468 72.2301
19028 2 7.35611 3.32597 70.9114
12933 1 11.9009 4.94729 72.2258
18722 2 10.0841 4.93761 70.9071
12932 1 14.6292 3.33468 72.2301
18517 2 15.5403 4.93761 70.9071
18747 2 12.8123 3.32597 70.9114
12770 1 17.3571 4.94729 72.2258
18516 2 18.2686 3.32597 70.9114
12779 1 20.0854 3.33468 72.2301
18375 2 20.9965 4.93761 70.9071
13424 1 0.987843 8.17263 72.2144
19315 2 1.89947 6.54931 70.9019
13471 1 3.71627 6.55994 72.2206
18990 2 4.62732 8.16105 70.8957
13152 1 9.17251 6.55994 72.2206
13153 1 6.44408 8.17263 72.2144
19031 2 7.35571 6.54931 70.9019
12911 1 11.9003 8.17263 72.2144
18721 2 10.0836 8.16105 70.8957
12935 1 14.6287 6.55994 72.2206
18502 2 15.5398 8.16105 70.8957
18720 2 12.8119 6.54931 70.9019
12769 1 17.3566 8.17263 72.2144
18519 2 18.2682 6.54931 70.9019
12768 1 20.085 6.55994 72.2206
18374 2 20.996 8.16105 70.8957
13423 1 0.987068 11.3982 72.199
19316 2 1.89888 9.77286 70.8885
13422 1 3.7156 9.78537 72.2072
18989 2 4.62663 11.3847 70.8803
13118 1 6.44331 11.3982 72.199
13155 1 9.17184 9.78537 72.2072
18988 2 7.35512 9.77286 70.8885
12910 1 11.8995 11.3982 72.199
18691 2 10.0829 11.3847 70.8803
12909 1 14.6281 9.78537 72.2072
18501 2 15.5391 11.3847 70.8803
18723 2 12.8114 9.77286 70.8885
12758 1 17.3558 11.3982 72.199
18500 2 18.2676 9.77286 70.8885
12771 1 20.0843 9.78537 72.2072
18368 2 20.9953 11.3847 70.8803
13379 1 0.9861 14.6239 72.1794
19268 2 1.89811 12.9967 70.8711
13425 1 3.71473 13.011 72.1897
18946 2 4.62578 14.6087 70.8609
13116 1 9.17096 13.011 72.1897
13117 1 6.44234 14.6239 72.1794
18991 2 7.35435 12.9967 70.8711
12887 1 11.8986 14.6239 72.1794
18690 2 10.082 14.6087 70.8609
12912 1 14.6272 13.011 72.1897
18482 2 15.5383 14.6087 70.8609
18689 2 12.8106 12.9967 70.8711
12757 1 17.3548 14.6239 72.1794
18503 2 18.2668 12.9967 70.8711
12756 1 20.0834 13.011 72.1897
18367 2 20.9945 14.6087 70.8609
13378 1 0.984969 17.8499 72.1556
19269 2 1.89719 16.2208 70.8495
13377 1 3.71367 16.2369 72.1681
18945 2 4.6248 17.833 70.8371
13082 1 6.44121 17.8499 72.1556
13119 1 9.16991 16.2369 72.1681
18944 2 7.35343 16.2208 70.8495
12886 1 11.8974 17.8499 72.1556
18659 2 10.081 17.833 70.8371
12885 1 14.6261 16.2369 72.1681
18481 2 15.5373 17.833 70.8371
18692 2 12.8097 16.2208 70.8495
12746 1 17.3537 17.8499 72.1556
18480 2 18.2659 16.2208 70.8495
12759 1 20.0824 16.2369 72.1681
18360 2 20.9935 17.833 70.8371
19228 2 1.89615 19.4453 70.8236
13380 1 3.71247 19.463 72.1421
13080 1 9.16871 19.463 72.1421
18947 2 7.35239 19.4453 70.8236
12888 1 14.625 19.463 72.1421
18657 2 12.8086 19.4453 70.8236
18483 2 18.2649 19.4453 70.8236
12744 1 20.0812 19.463 72.1421
13341 1 0.983718 21.0761 72.1274
19229 2 1.89504 22.6701 70.7933
13339 1 3.71119 22.6892 72.1116
18903 2 4.62372 21.0577 70.809
13081 1 6.43996 21.0761 72.1274
13083 1 9.16743 22.6892 72.1116
18901 2 7.35128 22.6701 70.7933
12863 1 11.8962 21.0761 72.1274
18658 2 10.08 21.0577 70.809
12861 1 14.6237 22.6892 72.1116
18462 2 15.5362 21.0577 70.809
18660 2 12.8075 22.6701 70.7933
12745 1 17.3524 21.0761 72.1274
18460 2 18.2638 22.6701 70.7933
12747 1 20.0799 22.6892 72.1116
18359 2 20.9924 21.0577 70.809
13340 1 0.982411 24.3023 72.0946
19196 2 1.89392 25.8952 70.7583
13342 1 3.70988 25.9154 72.0764
18902 2 4.6226 24.2826 70.7764
13045 1 9.16612 25.9154 72.0764
13047 1 6.43865 24.3023 72.0946
18904 2 7.35016 25.8952 70.7583
12862 1 11.8949 24.3023 72.0946
18627 2 10.0788 24.2826 70.7764
12864 1 14.6224 25.9154 72.0764
18461 2 15.5351 24.2826 70.7764
18625 2 12.8064 25.8952 70.7583
12734 1 17.3511 24.3023 72.0946
18463 2 18.2626 25.8952 70.7583
12732 1 20.0786 25.9154 72.0764
18352 2 20.9913 24.2826 70.7764
13311 1 0.981124 27.5285 72.0571
19197 2 1.89285 29.1205 70.7185
13309 1 3.70863 29.1415 72.0365
18867 2 4.6215 27.5078 70.739
13046 1 6.43736 27.5285 72.0571
13048 1 9.16487 29.1415 72.0365
18865 2 7.34909 29.1205 70.7185
12839 1 11.8936 27.5285 72.0571
18626 2 10.0777 27.5078 70.739
12837 1 14.6211 29.1415 72.0365
18442 2 15.534 27.5078 70.739
18628 2 12.8053 29.1205 70.7185
12733 1 17.3498 27.5285 72.0571
18440 2 18.2616 29.1205 70.7185
12735 1 20.0773 29.1415 72.0365
18351 2 20.9902 27.5078 70.739
13310 1 0.979937 30.7544 72.0147
19172 2 1.89186 32.3456 70.6738
13312 1 3.70752 32.3671 71.9916
18866 2 4.62046 30.7331 70.6967
13017 1 9.16376 32.3671 71.9916
13019 1 6.43618 30.7544 72.0147
18868 2 7.3481 32.3456 70.6738
12838 1 11.8924 30.7544 72.0147
18596 2 10.0767 30.7331 70.6967
12840 1 14.62 32.3671 71.9916
18441 2 15.5329 30.7331 70.6967
18594 2 12.8043 32.3456 70.6738
12722 1 17.3487 30.7544 72.0147
18443 2 18.2606 32.3456 70.6738
12720 1 20.0762 32.3671 71.9916
18344 2 20.9892 30.7331 70.6967
13289 1 0.978914 33.9796 71.9674
19173 2 1.89097 35.5705 70.6242
13287 1 3.70659 35.5919 71.9419
18839 2 4.61952 33.9581 70.6496
13018 1 6.43515 33.9796 71.9674
13020 1 9.16283 35.5919 71.9419
18837 2 7.34721 35.5705 70.6242
12816 1 11.8914 33.9796 71.9674
18595 2 10.0758 33.9581 70.6496
12814 1 14.6191 35.5919 71.9419
18422 2 15.532 33.9581 70.6496
18597 2 12.8034 35.5705 70.6242
12721 1 17.3476 33.9796 71.9674
18420 2 18.2597 35.5705 70.6242
12723 1 20.0753 35.5919 71.9419
18343 2 20.9882 33.9581 70.6496
13288 1 0.97806 37.2039 71.9152
18838 2 4.61866 37.1826 70.5977
12999 1 6.4343 37.2039 71.9152
12815 1 11.8905 37.2039 71.9152
18572 2 10.0749 37.1826 70.5977
18421 2 15.5311 37.1826 70.5977
12710 1 17.3468 37.2039 71.9152
18336 2 20.9874 37.1826 70.5977
13275 1 0.9773 40.4267 71.8586
19156 2 1.89012 38.7944 70.57
13290 1 3.7058 38.8156 71.8874
18819 2 4.61779 40.406 70.5413
12997 1 9.16203 38.8156 71.8874
12998 1 6.43354 40.4267 71.8586
18840 2 7.34635 38.7944 70.57
12800 1 11.8898 40.4267 71.8586
18571 2 10.074 40.406 70.5413
12817 1 14.6183 38.8156 71.8874
18403 2 15.5303 40.406 70.5413
18570 2 12.8026 38.7944 70.57
12709 1 17.346 40.4267 71.8586
18423 2 18.2588 38.7944 70.57
12708 1 20.0745 38.8156 71.8874
18335 2 20.9865 40.406 70.5413
13274 1 0.976502 43.6475 71.7982
19157 2 1.88917 42.0171 70.5116
18803 2 2.80449 43.6723 73.0145
13273 1 3.70503 42.0374 71.8287
18818 2 4.61673 43.6277 70.4812
12987 1 6.43274 43.6475 71.7982
13000 1 9.16127 42.0374 71.8287
18817 2 7.34541 42.0171 70.5116
18551 2 8.26073 43.6723 73.0145
12799 1 11.889 43.6475 71.7982
18556 2 10.073 43.6277 70.4812
12798 1 14.6175 42.0374 71.8287
18402 2 15.5292 43.6277 70.4812
18573 2 12.8016 42.0171 70.5116
18387 2 13.717 43.6723 73.0145
12699 1 17.3452 43.6475 71.7982
18401 2 18.2579 42.0171 70.5116
12711 1 20.0737 42.0374 71.8287
18328 2 20.9854 43.6277 70.4812
18325 2 19.1732 43.6723 73.0145
13269 1 0.975569 46.8653 71.7344
19148 2 1.88794 45.2376 70.4501
18802 2 2.80292 46.8915 72.9529
19147 2 0.0756673 45.2825 72.9839
13276 1 3.70419 45.2568 71.7666
18807 2 4.61527 46.847 70.4185
18801 2 5.53191 45.2825 72.9839
12985 1 9.16043 45.2568 71.7666
12986 1 6.43181 46.8653 71.7344
18820 2 7.34418 45.2376 70.4501
18544 2 8.25916 46.8915 72.9529
12792 1 11.888 46.8653 71.7344
18555 2 10.0715 46.847 70.4185
18553 2 10.9881 45.2825 72.9839
12801 1 14.6167 45.2568 71.7666
18391 2 15.5277 46.847 70.4185
18554 2 12.8004 45.2376 70.4501
18386 2 13.7154 46.8915 72.9529
12698 1 17.3443 46.8653 71.7344
18404 2 18.2567 45.2376 70.4501
18385 2 16.4444 45.2825 72.9839
12697 1 20.0729 45.2568 71.7666
18327 2 20.984 46.847 70.4185
18319 2 19.1716 46.8915 72.9529
13268 1 0.974134 50.08 71.6716
19149 2 1.88634 48.4557 70.3868
18796 2 2.80133 50.1065 72.8905
19145 2 0.074089 48.4995 72.9217
13267 1 3.70302 48.4731 71.703
18806 2 4.61352 50.0635 70.3551
18804 2 5.53033 48.4995 72.9217
12980 1 6.43037 50.08 71.6716
12988 1 9.15926 48.4731 71.703
18805 2 7.34258 48.4557 70.3868
18543 2 8.25757 50.1065 72.8905
12791 1 11.8866 50.08 71.6716
18545 2 10.0698 50.0635 70.3551
18542 2 10.9866 48.4995 72.9217
12790 1 14.6155 48.4731 71.703
18390 2 15.526 50.0635 70.3551
18557 2 12.7988 48.4557 70.3868
18380 2 13.7138 50.1065 72.8905
12692 1 17.3428 50.08 71.6716
18389 2 18.2551 48.4557 70.3868
18388 2 16.4428 48.4995 72.9217
12700 1 20.0717 48.4731 71.703
18320 2 20.9822 50.0635 70.3551
18318 2 19.17 50.1065 72.8905
13466 1 1.84468 0.124944 74.887
18982 2 0.980581 1.73417 75.9214
19026 2 2.81782 1.72115 73.4468
19361 2 0.0897868 0.108023 73.4491
13150 1 4.57268 1.73969 74.8847
19024 2 3.7088 0.119187 75.9237
19025 2 5.54603 0.108023 73.4491
13184 1 7.30092 0.124944 74.887
18713 2 9.16504 0.119187 75.9237
18714 2 6.43682 1.73417 75.9214
18718 2 8.27406 1.72115 73.4468
12930 1 10.0289 1.73969 74.8847
18494 2 11.8931 1.73417 75.9214
18744 2 11.0023 0.108023 73.4491
12766 1 15.4852 1.73969 74.8847
12929 1 12.7572 0.124944 74.887
18512 2 14.6213 0.119187 75.9237
18514 2 13.7303 1.72115 73.4468
12776 1 18.2134 0.124944 74.887
18370 2 17.3493 1.73417 75.9214
18513 2 16.4585 0.108023 73.4491
12688 1 20.9414 1.73969 74.8847
18369 2 20.0775 0.119187 75.9237
18373 2 19.1865 1.72115 73.4468
13467 1 1.84437 3.35445 74.8814
18981 2 0.980175 4.96425 75.9137
18986 2 2.81749 4.94753 73.4393
19313 2 0.0895673 3.33432 73.4435
13149 1 4.57223 4.96922 74.8771
18980 2 3.70853 3.34919 75.918
19027 2 5.54581 3.33432 73.4435
13148 1 7.30061 3.35445 74.8814
18683 2 6.43641 4.96425 75.9137
18715 2 9.16477 3.34919 75.918
18717 2 8.27373 4.94753 73.4393
12907 1 10.0285 4.96922 74.8771
18493 2 11.8927 4.96425 75.9137
18716 2 11.002 3.33432 73.4435
12765 1 15.4847 4.96922 74.8771
12931 1 12.7569 3.35445 74.8814
18492 2 14.621 3.34919 75.918
18498 2 13.73 4.94753 73.4393
12764 1 18.2131 3.35445 74.8814
18363 2 17.3489 4.96425 75.9137
18515 2 16.4583 3.33432 73.4435
12687 1 20.9409 4.96922 74.8771
18371 2 20.0772 3.34919 75.918
18372 2 19.1862 4.94753 73.4393
13420 1 1.84378 6.58402 74.8719
18938 2 0.979504 8.19448 75.9021
18985 2 2.81695 8.17412 73.4278
19314 2 0.0891281 6.5608 73.434
13114 1 4.5715 8.19882 74.8656
18983 2 3.70799 6.57934 75.9084
18984 2 5.54537 6.5608 73.434
13151 1 7.30002 6.58402 74.8719
18681 2 9.16423 6.57934 75.9084
18682 2 6.43574 8.19448 75.9021
18687 2 8.27318 8.17412 73.4278
12906 1 10.0277 8.19882 74.8656
18474 2 11.892 8.19448 75.9021
18719 2 11.0016 6.5608 73.434
12754 1 15.484 8.19882 74.8656
12905 1 12.7563 6.58402 74.8719
18495 2 14.6205 6.57934 75.9084
18497 2 13.7294 8.17412 73.4278
12767 1 18.2125 6.58402 74.8719
18362 2 17.3482 8.19448 75.9021
18496 2 16.4578 6.5608 73.434
12686 1 20.9402 8.19882 74.8656
18361 2 20.0767 6.57934 75.9084
18366 2 19.1857 8.17412 73.4278
13421 1 1.84291 9.81363 74.8584
18937 2 0.978571 11.4249 75.8865
18942 2 2.81619 11.401 73.4123
19266 2 0.0884724 9.78753 73.4206
13113 1 4.57049 11.4284 74.8501
18936 2 3.70719 9.80967 75.8949
18987 2 5.54471 9.78753 73.4206
13112 1 7.29915 9.81363 74.8584
18651 2 6.43481 11.4249 75.8865
18684 2 9.16343 9.80967 75.8949
18686 2 8.27242 11.401 73.4123
12883 1 10.0267 11.4284 74.8501
18473 2 11.891 11.4249 75.8865
18685 2 11.0009 9.78753 73.4206
12753 1 15.483 11.4284 74.8501
12908 1 12.7554 9.81363 74.8584
18472 2 14.6197 9.80967 75.8949
18478 2 13.7287 11.401 73.4123
12752 1 18.2116 9.81363 74.8584
18355 2 17.3473 11.4249 75.8865
18499 2 16.4572 9.78753 73.4206
12685 1 20.9392 11.4284 74.8501
18364 2 20.0759 9.80967 75.8949
18365 2 19.1849 11.401 73.4123
13375 1 1.84176 13.0432 74.8408
18895 2 0.977385 14.6555 75.8669
18941 2 2.81523 14.6282 73.3927
19267 2 0.0876096 13.0146 73.403
13078 1 4.56921 14.658 74.8305
18939 2 3.70613 13.0402 75.8772
18940 2 5.54385 13.0146 73.403
13115 1 7.298 13.0432 74.8408
18649 2 9.16237 13.0402 75.8772
18650 2 6.43362 14.6555 75.8669
18655 2 8.27146 14.6282 73.3927
12882 1 10.0254 14.658 74.8305
18454 2 11.8899 14.6555 75.8669
18688 2 11.0001 13.0146 73.403
12742 1 15.4817 14.658 74.8305
12881 1 12.7542 13.0432 74.8408
18475 2 14.6186 13.0402 75.8772
18477 2 13.7277 14.6282 73.3927
12755 1 18.2105 13.0432 74.8408
18354 2 17.3461 14.6555 75.8669
18476 2 16.4563 13.0146 73.403
12684 1 20.9379 14.658 74.8305
18353 2 20.0748 13.0402 75.8772
18358 2 19.1839 14.6282 73.3927
13376 1 1.84036 16.2727 74.8191
18894 2 0.975968 17.8863 75.843
18899 2 2.81409 17.8558 73.3689
19226 2 0.0865584 16.242 73.3813
13077 1 4.5677 17.8874 74.8066
18893 2 3.70482 16.2709 75.8554
18943 2 5.5428 16.242 73.3813
13076 1 7.2966 16.2727 74.8191
18619 2 6.43221 17.8863 75.843
18652 2 9.16106 16.2709 75.8554
18654 2 8.27033 17.8558 73.3689
12859 1 10.0239 17.8874 74.8066
18453 2 11.8884 17.8863 75.843
18653 2 10.999 16.242 73.3813
12741 1 15.4802 17.8874 74.8066
12884 1 12.7528 16.2727 74.8191
18452 2 14.6173 16.2709 75.8554
18458 2 13.7266 17.8558 73.3689
12740 1 18.2091 16.2727 74.8191
18347 2 17.3447 17.8863 75.843
18479 2 16.4553 16.242 73.3813
12683 1 20.9364 17.8874 74.8066
18356 2 20.0735 16.2709 75.8554
18357 2 19.1828 17.8558 73.3689
13337 1 1.83876 19.502 74.7931
19227 2 0.0853502 19.4698 73.3553
18896 2 3.70331 19.5017 75.8294
18897 2 5.54159 19.4698 73.3553
13079 1 7.295 19.502 74.7931
18617 2 9.15955 19.5017 75.8294
18656 2 10.9978 19.4698 73.3553
12857 1 12.7512 19.502 74.7931
18455 2 14.6158 19.5017 75.8294
12743 1 18.2075 19.502 74.7931
18456 2 16.4541 19.4698 73.3553
18345 2 20.072 19.5017 75.8294
13338 1 1.83704 22.7307 74.7626
18859 2 0.974369 21.1171 75.8147
18898 2 2.81282 21.0838 73.3407
19194 2 0.0840318 22.6979 73.3249
13043 1 4.56603 21.1164 74.7784
18857 2 3.70164 22.7325 75.799
18900 2 5.54027 22.6979 73.3249
13041 1 7.29328 22.7307 74.7626
18618 2 6.43061 21.1171 75.8147
18620 2 9.15788 22.7325 75.799
18623 2 8.26906 21.0838 73.3407
12858 1 10.0223 21.1164 74.7784
18434 2 11.8868 21.1171 75.8147
18621 2 10.9965 22.6979 73.3249
12730 1 15.4785 21.1164 74.7784
12860 1 12.7495 22.7307 74.7626
18432 2 14.6141 22.7325 75.799
18457 2 13.7253 21.0838 73.3407
12728 1 18.2058 22.7307 74.7626
18346 2 17.3431 21.1171 75.8147
18459 2 16.4527 22.6979 73.3249
12682 1 20.9347 21.1164 74.7784
18348 2 20.0704 22.7325 75.799
18350 2 19.1815 21.0838 73.3407
13307 1 1.83533 25.9588 74.7275
18858 2 0.972665 24.3479 75.7821
18863 2 2.81147 24.3121 73.3079
19195 2 0.0826669 25.9264 73.2898
13042 1 4.5643 24.3449 74.7456
18860 2 3.69993 25.9631 75.7641
18861 2 5.53891 25.9264 73.2898
13044 1 7.29157 25.9588 74.7275
18586 2 9.15616 25.9631 75.7641
18588 2 6.4289 24.3479 75.7821
18622 2 8.26771 24.3121 73.3079
12835 1 10.0205 24.3449 74.7456
18433 2 11.8851 24.3479 75.7821
18624 2 10.9951 25.9264 73.2898
12729 1 15.4768 24.3449 74.7456
12833 1 12.7478 25.9588 74.7275
18435 2 14.6124 25.9631 75.7641
18438 2 13.7239 24.3121 73.3079
12731 1 18.204 25.9588 74.7275
18339 2 17.3414 24.3479 75.7821
18436 2 16.4514 25.9264 73.2898
12681 1 20.933 24.3449 74.7456
18337 2 20.0686 25.9631 75.7641
18349 2 19.1802 24.3121 73.3079
13308 1 1.83381 29.1859 74.6878
18831 2 0.970966 27.5783 75.7449
18862 2 2.81011 27.5406 73.2705
19170 2 0.0813305 29.1549 73.25
13015 1 4.56265 27.5725 74.7082
18829 2 3.69828 29.1934 75.7245
18864 2 5.53757 29.1549 73.25
13013 1 7.29005 29.1859 74.6878
18587 2 6.4272 27.5783 75.7449
18589 2 9.15452 29.1934 75.7245
18592 2 8.26635 27.5406 73.2705
12834 1 10.0189 27.5725 74.7082
18414 2 11.8834 27.5783 75.7449
18590 2 10.9938 29.1549 73.25
12718 1 15.4751 27.5725 74.7082
12836 1 12.7463 29.1859 74.6878
18412 2 14.6108 29.1934 75.7245
18437 2 13.7226 27.5406 73.2705
12716 1 18.2025 29.1859 74.6878
18338 2 17.3397 27.5783 75.7449
18439 2 16.45 29.1549 73.25
12680 1 20.9314 27.5725 74.7082
18340 2 20.067 29.1934 75.7245
18342 2 19.1788 27.5406 73.2705
13285 1 1.83267 32.4117 74.6432
18830 2 0.969413 30.8083 75.703
18835 2 2.80882 30.7691 73.2283
19171 2 0.0800934 32.3832 73.2054
13014 1 4.5613 30.799 74.6661
18832 2 3.69686 32.4229 75.6803
18833 2 5.53633 32.3832 73.2054
13016 1 7.28891 32.4117 74.6432
18562 2 9.15309 32.4229 75.6803
18564 2 6.42565 30.8083 75.703
18591 2 8.26505 30.7691 73.2283
12812 1 10.0175 30.799 74.6661
18413 2 11.8819 30.8083 75.703
18593 2 10.9926 32.3832 73.2054
12717 1 15.4738 30.799 74.6661
12810 1 12.7452 32.4117 74.6432
18415 2 14.6093 32.4229 75.6803
18418 2 13.7213 30.7691 73.2283
12719 1 18.2014 32.4117 74.6432
18331 2 17.3381 30.8083 75.703
18416 2 16.4488 32.3832 73.2054
12679 1 20.93 30.799 74.6661
18329 2 20.0656 32.4229 75.6803
18341 2 19.1775 30.7691 73.2283
13286 1 1.83214 35.636 74.5938
18811 2 0.968148 34.0373 75.6565
18834 2 2.80765 33.9971 73.1813
19154 2 0.0789922 35.6108 73.1561
12995 1 4.56044 34.0241 74.6191
18809 2 3.69577 35.6512 75.6316
18836 2 5.53523 35.6108 73.1561
12993 1 7.28837 35.636 74.5938
18563 2 6.42439 34.0373 75.6565
18565 2 9.15201 35.6512 75.6316
18568 2 8.26388 33.9971 73.1813
12811 1 10.0167 34.0241 74.6191
18395 2 11.8806 34.0373 75.6565
18566 2 10.9915 35.6108 73.1561
12706 1 15.4729 34.0241 74.6191
12813 1 12.7446 35.636 74.5938
18393 2 14.6083 35.6512 75.6316
18417 2 13.7201 33.9971 73.1813
12704 1 18.2009 35.636 74.5938
18330 2 17.3369 34.0373 75.6565
18419 2 16.4477 35.6108 73.1561
12678 1 20.9292 34.0241 74.6191
18332 2 20.0645 35.6512 75.6316
18334 2 19.1764 33.9971 73.1813
18810 2 0.96726 37.2647 75.6056
18815 2 2.8066 37.2242 73.1297
12994 1 4.56026 37.2475 74.5675
18548 2 6.4235 37.2647 75.6056
18567 2 8.26284 37.2242 73.1297
12796 1 10.0165 37.2475 74.5675
18394 2 11.8797 37.2647 75.6056
12705 1 15.4727 37.2475 74.5675
18399 2 13.7191 37.2242 73.1297
18323 2 17.336 37.2647 75.6056
12677 1 20.929 37.2475 74.5675
18333 2 19.1753 37.2242 73.1297
13271 1 1.83232 38.8584 74.54
18799 2 0.966718 40.4899 75.5507
18814 2 2.8056 40.4495 73.0738
19155 2 0.0779864 38.8371 73.1022
12983 1 4.56081 40.4689 74.5116
18812 2 3.69507 38.8777 75.5786
18813 2 5.53422 38.8371 73.1022
12996 1 7.28856 38.8584 74.54
18546 2 9.15131 38.8777 75.5786
18547 2 6.42296 40.4899 75.5507
18552 2 8.26184 40.4495 73.0738
12795 1 10.017 40.4689 74.5116
18383 2 11.8792 40.4899 75.5507
18569 2 10.9905 38.8371 73.1022
12695 1 15.4733 40.4689 74.5116
12794 1 12.7448 38.8584 74.54
18396 2 14.6075 38.8777 75.5786
18398 2 13.7181 40.4495 73.0738
12707 1 18.201 38.8584 74.54
18322 2 17.3354 40.4899 75.5507
18397 2 16.4467 38.8371 73.1022
12676 1 20.9295 40.4689 74.5116
18321 2 20.0638 38.8777 75.5786
18326 2 19.1743 40.4495 73.0738
13272 1 1.83323 42.0787 74.4823
18798 2 0.966351 43.712 75.493
19146 2 0.0769424 42.0613 73.0445
12982 1 4.56201 43.6878 74.4524
18797 2 3.69463 42.1014 75.5222
18816 2 5.53318 42.0613 73.0445
12981 1 7.28947 42.0787 74.4823
18540 2 6.42259 43.712 75.493
18549 2 9.15087 42.1014 75.5222
12788 1 10.0183 43.6878 74.4524
18382 2 11.8788 43.712 75.493
18550 2 10.9894 42.0613 73.0445
12694 1 15.4745 43.6878 74.4524
12797 1 12.7457 42.0787 74.4823
18381 2 14.6071 42.1014 75.5222
12693 1 18.2019 42.0787 74.4823
18316 2 17.3351 43.712 75.493
18400 2 16.4457 42.0613 73.0445
12675 1 20.9307 43.6878 74.4524
18324 2 20.0633 42.1014 75.5222
13265 1 1.83478 45.2962 74.4219
18795 2 0.966032 46.9301 75.434
12979 1 4.56396 46.9032 74.3909
18800 2 3.69434 45.3216 75.4635
12984 1 7.29102 45.2962 74.4219
18538 2 9.15057 45.3216 75.4635
18539 2 6.42227 46.9301 75.434
12787 1 10.0202 46.9032 74.3909
18379 2 11.8785 46.9301 75.434
12691 1 15.4764 46.9032 74.3909
12786 1 12.7473 45.2962 74.4219
18384 2 14.6068 45.3216 75.4635
12696 1 18.2035 45.2962 74.4219
18315 2 17.3347 46.9301 75.434
12674 1 20.9327 46.9032 74.3909
18314 2 20.0631 45.3216 75.4635
13266 1 1.83667 48.5094 74.3597
18794 2 0.965681 50.1434 75.3727
12978 1 4.56574 50.1149 74.3283
18793 2 3.69402 48.5374 75.4033
12977 1 7.29291 48.5094 74.3597
18537 2 6.42192 50.1434 75.3727
18541 2 9.15025 48.5374 75.4033
12785 1 10.022 50.1149 74.3283
18378 2 11.8782 50.1434 75.3727
12690 1 15.4782 50.1149 74.3283
12789 1 12.7491 48.5094 74.3597
18377 2 14.6065 48.5374 75.4033
12689 1 18.2054 48.5094 74.3597
18313 2 17.3344 50.1434 75.3727
12673 1 20.9345 50.1149 74.3283
18317 2 20.0627 48.5374 75.4033
10351 2 2.74686 51.7164 -3.91775
10343 2 0.9226 51.7447 -1.41976
4062 1 4.57691 51.7388 -2.86196
10254 2 8.2031 51.7164 -3.91775
10250 2 6.37884 51.7447 -1.41976
3935 1 10.0332 51.7388 -2.86196
10055 2 11.8351 51.7447 -1.41976
3710 1 15.4894 51.7388 -2.86196
10063 2 13.6593 51.7164 -3.91775
9773 2 17.2913 51.7447 -1.41976
3392 1 20.9456 51.7388 -2.86196
9776 2 19.1156 51.7164 -3.91775
10366 2 0.0202312 53.2996 -3.9394
10347 2 2.74978 54.8839 -3.96001
10342 2 0.923851 54.9091 -1.46324
4096 1 1.85184 53.3212 -2.88417
10352 2 5.47647 53.2996 -3.9394
10341 2 3.65136 53.3264 -1.44203
4061 1 4.58287 54.9045 -2.90532
10253 2 8.20601 54.8839 -3.96001
10251 2 9.1076 53.3264 -1.44203
10242 2 6.38009 54.9091 -1.46324
4060 1 7.30808 53.3212 -2.88417
10252 2 10.9327 53.2996 -3.9394
3931 1 10.0391 54.9045 -2.90532
10054 2 11.8363 54.9091 -1.46324
3709 1 15.4953 54.9045 -2.90532
3936 1 12.7643 53.3212 -2.88417
10053 2 14.5638 53.3264 -1.44203
10059 2 13.6623 54.8839 -3.96001
3708 1 18.2206 53.3212 -2.88417
9767 2 17.2926 54.9091 -1.46324
10064 2 16.3889 53.2996 -3.9394
3391 1 20.9516 54.9045 -2.90532
9774 2 20.0201 53.3264 -1.44203
9775 2 19.1185 54.8839 -3.96001
10367 2 0.0230119 56.4693 -3.97943
10346 2 2.7524 58.0557 -3.99752
10332 2 0.924973 58.0774 -1.50185
4092 1 1.8575 56.4886 -2.92525
10345 2 5.47925 56.4693 -3.97943
10344 2 3.65255 56.4928 -1.48323
4054 1 4.58819 58.0736 -2.94381
10246 2 8.20864 58.0557 -3.99752
10241 2 6.38121 58.0774 -1.50185
4063 1 7.31374 56.4886 -2.92525
10240 2 9.10879 56.4928 -1.48323
10255 2 10.9355 56.4693 -3.97943
3930 1 10.0444 58.0736 -2.94381
10043 2 11.8375 58.0774 -1.50185
3702 1 15.5007 58.0736 -2.94381
3929 1 12.77 56.4886 -2.92525
10056 2 14.565 56.4928 -1.48323
10058 2 13.6649 58.0557 -3.99752
3711 1 18.2262 56.4886 -2.92525
9766 2 17.2937 58.0774 -1.50185
10057 2 16.3917 56.4693 -3.97943
3390 1 20.9569 58.0736 -2.94381
9765 2 20.0213 56.4928 -1.48323
9770 2 19.1211 58.0557 -3.99752
10364 2 0.0254661 59.6431 -4.01413
10336 2 2.75466 61.2314 -4.02913
10331 2 0.925934 61.2493 -1.53441
4093 1 1.86244 59.6594 -2.96086
10348 2 5.4817 59.6431 -4.01413
10330 2 3.6536 59.6629 -1.51896
4053 1 4.5927 61.2458 -2.97626
10245 2 8.2109 61.2314 -4.02913
10243 2 9.10983 59.6629 -1.51896
4052 1 7.31868 59.6594 -2.96086
10226 2 6.38217 61.2493 -1.53441
10244 2 10.9379 59.6431 -4.01413
3919 1 10.0489 61.2458 -2.97626
10042 2 11.8384 61.2493 -1.53441
3701 1 15.5052 61.2458 -2.97626
3932 1 12.7749 59.6594 -2.96086
10041 2 14.5661 59.6629 -1.51896
10047 2 13.6671 61.2314 -4.02913
3700 1 18.2312 59.6594 -2.96086
9753 2 17.2946 61.2493 -1.53441
10060 2 16.3942 59.6431 -4.01413
3383 1 20.9614 61.2458 -2.97626
9768 2 20.0223 59.6629 -1.51896
9769 2 19.1234 61.2314 -4.02913
10365 2 0.0274915 62.8205 -4.0424
10335 2 2.75643 64.4103 -4.05382
10320 2 0.926675 64.4244 -1.55985
4088 1 1.86648 62.8328 -2.98988
10334 2 5.48373 62.8205 -4.0424
10333 2 3.65446 62.8365 -1.54808
4039 1 4.59622 64.4204 -3.0016
4055 1 7.32272 62.8328 -2.98988
10224 2 9.11069 62.8365 -1.54808
10225 2 6.38291 64.4244 -1.55985
10230 2 8.21266 64.4103 -4.05382
10247 2 10.94 62.8205 -4.0424
3918 1 10.0525 64.4204 -3.0016
10023 2 11.8392 64.4244 -1.55985
3686 1 15.5087 64.4204 -3.0016
3917 1 12.779 62.8328 -2.98988
10044 2 14.5669 62.8365 -1.54808
10046 2 13.6689 64.4103 -4.05382
3703 1 18.2352 62.8328 -2.98988
9752 2 17.2954 64.4244 -1.55985
10045 2 16.3962 62.8205 -4.0424
3382 1 20.9649 64.4204 -3.0016
9751 2 20.0232 62.8365 -1.54808
9756 2 19.1251 64.4103 -4.05382
10362 2 0.0289669 66.0008 -4.06331
10324 2 2.75758 67.5917 -4.07076
10319 2 0.927122 67.6017 -1.5773
4089 1 1.86943 66.0084 -3.01134
10337 2 5.48521 66.0008 -4.06331
10318 2 3.65506 66.0128 -1.56962
4038 1 4.59857 67.5968 -3.01901
4037 1 7.32567 66.0084 -3.01134
10203 2 6.38336 67.6017 -1.5773
10227 2 9.1113 66.0128 -1.56962
10229 2 8.21382 67.5917 -4.07076
3899 1 10.0548 67.5968 -3.01901
10022 2 11.8396 67.6017 -1.5773
10228 2 10.9414 66.0008 -4.06331
3685 1 15.511 67.5968 -3.01901
3920 1 12.7819 66.0084 -3.01134
10021 2 14.5675 66.0128 -1.56962
10027 2 13.6701 67.5917 -4.07076
3684 1 18.2381 66.0084 -3.01134
9731 2 17.2958 67.6017 -1.5773
10048 2 16.3977 66.0008 -4.06331
3367 1 20.9673 67.5968 -3.01901
9754 2 20.0238 66.0128 -1.56962
9755 2 19.1263 67.5917 -4.07076
10363 2 0.029774 69.1831 -4.07613
10323 2 2.75802 70.7747 -4.07936
10308 2 0.927204 70.7806 -1.58617
4084 1 1.87114 69.1855 -3.02453
10322 2 5.48601 69.1831 -4.07613
10321 2 3.65533 69.1911 -1.58284
4023 1 4.59961 70.7743 -3.02788
4040 1 7.32738 69.1855 -3.02453
10201 2 9.11157 69.1911 -1.58284
10202 2 6.38344 70.7806 -1.58617
10207 2 8.21426 70.7747 -4.07936
3898 1 10.0559 70.7743 -3.02788
9995 2 11.8397 70.7806 -1.58617
10231 2 10.9423 69.1831 -4.07613
3662 1 15.5121 70.7743 -3.02788
3897 1 12.7836 69.1855 -3.02453
10024 2 14.5678 69.1911 -1.58284
10026 2 13.6705 70.7747 -4.07936
3687 1 18.2399 69.1855 -3.02453
9730 2 17.2959 70.7806 -1.58617
10025 2 16.3985 69.1831 -4.07613
3366 1 20.9683 70.7743 -3.02788
9729 2 20.024 69.1911 -1.58284
9734 2 19.1267 70.7747 -4.07936
10360 2 0.0298324 72.3664 -4.08042
10312 2 2.75769 73.9581 -4.07931
10307 2 0.926887 73.96 -1.58615
4085 1 1.87151 72.3633 -3.029
10325 2 5.48607 72.3664 -4.08042
10306 2 3.65522 72.3703 -1.58728
4022 1 4.5993 73.9523 -3.02791
4021 1 7.32775 72.3633 -3.029
10179 2 6.38313 73.96 -1.58615
10204 2 9.11145 72.3703 -1.58728
10206 2 8.21393 73.9581 -4.07931
3872 1 10.0555 73.9523 -3.02791
9994 2 11.8394 73.96 -1.58615
10205 2 10.9423 72.3664 -4.08042
3661 1 15.5118 73.9523 -3.02791
3900 1 12.784 72.3633 -3.029
9993 2 14.5677 72.3703 -1.58728
9999 2 13.6702 73.9581 -4.07931
3660 1 18.2402 72.3633 -3.029
9701 2 17.2956 73.96 -1.58615
10028 2 16.3985 72.3664 -4.08042
3343 1 20.968 73.9523 -3.02791
9732 2 20.0239 72.3703 -1.58728
9733 2 19.1264 73.9581 -4.07931
10361 2 0.0291248 75.5498 -4.07603
4080 1 1.87052 75.5413 -3.0246
10310 2 5.48536 75.5498 -4.07603
10309 2 3.6547 75.5496 -1.58279
4024 1 7.32676 75.5413 -3.0246
10177 2 9.11094 75.5496 -1.58279
10208 2 10.9416 75.5498 -4.07603
3870 1 12.783 75.5413 -3.0246
9996 2 14.5672 75.5496 -1.58279
3663 1 18.2392 75.5413 -3.0246
9997 2 16.3978 75.5498 -4.07603
9699 2 20.0234 75.5496 -1.58279
10358 2 0.027704 78.7323 -4.06314
10311 2 2.75662 77.1412 -4.07063
10296 2 0.926183 77.1389 -1.57724
4081 1 1.86824 78.7187 -3.01149
10313 2 5.48394 78.7323 -4.06314
10294 2 3.65382 78.7279 -1.56955
4007 1 4.59766 77.1301 -3.01911
4005 1 7.32448 78.7187 -3.01149
10178 2 6.38242 77.1389 -1.57724
10180 2 9.11006 78.7279 -1.56955
10183 2 8.21286 77.1412 -4.07063
3871 1 10.0539 77.1301 -3.01911
9960 2 11.8387 77.1389 -1.57724
10181 2 10.9402 78.7323 -4.06314
3630 1 15.5101 77.1301 -3.01911
3873 1 12.7807 78.7187 -3.01149
9958 2 14.5663 78.7279 -1.56955
9998 2 13.6691 77.1412 -4.07063
3628 1 18.237 78.7187 -3.01149
9700 2 17.2949 77.1389 -1.57724
10000 2 16.3964 78.7323 -4.06314
3342 1 20.9664 77.1301 -3.01911
9702 2 20.0225 78.7279 -1.56955
9704 2 19.1253 77.1412 -4.07063
10359 2 0.025676 81.9129 -4.0422
10300 2 2.75488 80.3229 -4.05364
10295 2 0.925147 80.3164 -1.55978
4076 1 1.8648 81.8949 -2.99011
10298 2 5.48191 81.9129 -4.0422
10297 2 3.65265 81.9043 -1.54802
4006 1 4.59477 80.307 -3.00179
4008 1 7.32104 81.8949 -2.99011
10153 2 9.10889 81.9043 -1.54802
10155 2 6.38139 80.3164 -1.55978
10182 2 8.21112 80.3229 -4.05364
3844 1 10.051 80.307 -3.00179
9959 2 11.8376 80.3164 -1.55978
10184 2 10.9382 81.9129 -4.0422
3629 1 15.5073 80.307 -3.00179
3842 1 12.7773 81.8949 -2.99011
9961 2 14.5651 81.9043 -1.54802
9964 2 13.6674 80.3229 -4.05364
3631 1 18.2335 81.8949 -2.99011
9663 2 17.2939 80.3164 -1.55978
9962 2 16.3944 81.9129 -4.0422
3311 1 20.9635 80.307 -3.00179
9661 2 20.0214 81.9043 -1.54802
9703 2 19.1236 80.3229 -4.05364
10356 2 0.0231701 85.0907 -4.01396
10299 2 2.75259 83.5022 -4.02894
10284 2 0.923864 83.4916 -1.53437
4077 1 1.86036 85.0691 -2.96121
10301 2 5.47941 85.0907 -4.01396
10282 2 3.65128 85.0781 -1.51895
3991 1 4.59081 83.4823 -2.97655
3989 1 7.31659 85.0691 -2.96121
10154 2 6.3801 83.4916 -1.53437
10156 2 9.10751 85.0781 -1.51895
10159 2 8.20883 83.5022 -4.02894
3843 1 10.047 83.4823 -2.97655
9924 2 11.8363 83.4916 -1.53437
10157 2 10.9356 85.0907 -4.01396
3591 1 15.5033 83.4823 -2.97655
3845 1 12.7728 85.0691 -2.96121
9922 2 14.5638 85.0781 -1.51895
9963 2 13.6651 83.5022 -4.02894
3589 1 18.2291 85.0691 -2.96121
9662 2 17.2926 83.4916 -1.53437
9965 2 16.3919 85.0907 -4.01396
3310 1 20.9595 83.4823 -2.97655
9664 2 20.02 85.0781 -1.51895
9666 2 19.1213 83.5022 -4.02894
10357 2 0.0203101 88.2651 -3.97933
10288 2 2.7499 86.6784 -3.99738
10283 2 0.922418 86.6637 -1.50188
4072 1 1.8551 88.2407 -2.92573
10286 2 5.47655 88.2651 -3.97933
10285 2 3.64977 88.2485 -1.48331
3990 1 4.58594 86.6553 -2.94422
3992 1 7.31134 88.2407 -2.92573
10129 2 9.10601 88.2485 -1.48331
10131 2 6.37866 86.6637 -1.50188
10158 2 8.20613 86.6784 -3.99738
3816 1 10.0422 86.6553 -2.94422
9923 2 11.8349 86.6637 -1.50188
10160 2 10.9328 88.2651 -3.97933
3590 1 15.4984 86.6553 -2.94422
3814 1 12.7676 88.2407 -2.92573
9925 2 14.5623 88.2485 -1.48331
9928 2 13.6624 86.6784 -3.99738
3592 1 18.2238 88.2407 -2.92573
9618 2 17.2911 86.6637 -1.50188
9926 2 16.389 88.2651 -3.97933
3271 1 20.9547 86.6553 -2.94422
9616 2 20.0185 88.2485 -1.48331
9665 2 19.1186 86.6784 -3.99738
10354 2 0.0171989 91.4354 -3.93944
10287 2 2.7469 89.8508 -3.95997
10272 2 0.920872 89.8324 -1.46339
4073 1 1.8492 91.4092 -2.88481
10289 2 5.47344 91.4354 -3.93944
10270 2 3.64819 91.4152 -1.44227
3975 1 4.58034 89.8254 -2.90587
3973 1 7.30544 91.4092 -2.88481
10130 2 6.37711 89.8324 -1.46339
10132 2 9.10443 91.4152 -1.44227
10135 2 8.20314 89.8508 -3.95997
3815 1 10.0366 89.8254 -2.90587
9888 2 11.8333 89.8324 -1.46339
10133 2 10.9297 91.4354 -3.93944
3551 1 15.4928 89.8254 -2.90587
3817 1 12.7617 91.4092 -2.88481
9886 2 14.5607 91.4152 -1.44227
9927 2 13.6594 89.8508 -3.95997
3549 1 18.2179 91.4092 -2.88481
9617 2 17.2896 89.8324 -1.46339
9929 2 16.3859 91.4354 -3.93944
3270 1 20.9491 89.8254 -2.90587
9619 2 20.0169 91.4152 -1.44227
9621 2 19.1156 89.8508 -3.95997
10355 2 0.0139196 94.6013 -3.8955
10276 2 2.74369 93.0189 -3.9179
10271 2 0.919264 92.9971 -1.42011
4068 1 1.84285 94.574 -2.83973
10274 2 5.47016 94.6013 -3.8955
10273 2 3.64656 94.578 -1.39708
3974 1 4.57419 92.992 -2.86271
3976 1 7.29909 94.574 -2.83973
10106 2 9.1028 94.578 -1.39708
10108 2 6.3755 92.9971 -1.42011
10134 2 8.19993 93.0189 -3.9179
3788 1 10.0304 92.992 -2.86271
9887 2 11.8317 92.9971 -1.42011
10136 2 10.9264 94.6013 -3.8955
3550 1 15.4867 92.992 -2.86271
3786 1 12.7553 94.574 -2.83973
9889 2 14.559 94.578 -1.39708
9892 2 13.6562 93.0189 -3.9179
3552 1 18.2116 94.574 -2.83973
9572 2 17.288 92.9971 -1.42011
9890 2 16.3826 94.6013 -3.8955
3224 1 20.9429 92.992 -2.86271
9570 2 20.0153 94.578 -1.39708
9620 2 19.1124 93.0189 -3.9179
10275 2 2.74036 96.1825 -3.8724
10264 2 0.91761 96.1579 -1.37335
4069 1 1.83623 97.735 -2.79181
10262 2 3.64488 97.7368 -1.34908
3960 1 4.56768 96.155 -2.81604
3958 1 7.29247 97.735 -2.79181
10107 2 6.37385 96.1579 -1.37335
10109 2 9.10112 97.7368 -1.34908
10112 2 8.1966 96.1825 -3.8724
3787 1 10.0239 96.155 -2.81604
9856 2 11.8301 96.1579 -1.37335
3512 1 15.4802 96.155 -2.81604
3789 1 12.7487 97.735 -2.79181
9854 2 14.5574 97.7368 -1.34908
9891 2 13.6528 96.1825 -3.8724
3510 1 18.2049 97.735 -2.79181
9571 2 17.2863 96.1579 -1.37335
3223 1 20.9364 96.155 -2.81604
9573 2 20.0136 97.7368 -1.34908
9575 2 19.1091 96.1825 -3.8724
10353 2 0.0105417 97.7625 -3.84877
10265 2 2.73695 99.3414 -3.82475
10263 2 0.915906 99.3147 -1.32443
10277 2 5.46678 97.7625 -3.84877
3959 1 4.56101 99.314 -2.7672
10089 2 6.37214 99.3147 -1.32443
10111 2 8.19319 99.3414 -3.82475
10110 2 10.923 97.7625 -3.84877
3761 1 10.0172 99.314 -2.7672
9855 2 11.8284 99.3147 -1.32443
3511 1 15.4735 99.314 -2.7672
9857 2 13.6494 99.3414 -3.82475
9893 2 16.3793 97.7625 -3.84877
9529 2 17.2846 99.3147 -1.32443
3176 1 20.9297 99.314 -2.7672
9574 2 19.1057 99.3414 -3.82475
4058 1 2.74407 51.7636 -0.199785
10238 2 4.56167 51.7764 1.12923
3927 1 8.20031 51.7636 -0.199785
10051 2 10.0179 51.7764 1.12923
3706 1 13.6565 51.7636 -0.199785
9763 2 15.4741 51.7764 1.12923
3389 1 19.1128 51.7636 -0.199785
9408 2 20.9304 51.7764 1.12923
10340 2 1.83432 53.3566 1.10653
4050 1 2.74598 54.9264 -0.243591
4090 1 0.0169319 53.3446 -0.222223
4059 1 5.47317 53.3446 -0.222223
10237 2 4.56317 54.9376 1.08489
3926 1 8.20221 54.9264 -0.243591
10236 2 7.29056 53.3566 1.10653
3925 1 10.9294 53.3446 -0.222223
10039 2 10.0194 54.9376 1.08489
3698 1 13.6585 54.9264 -0.243591
9762 2 15.4756 54.9376 1.08489
10052 2 12.7468 53.3566 1.10653
3707 1 16.3856 53.3446 -0.222223
9761 2 18.203 53.3566 1.10653
3388 1 19.1147 54.9264 -0.243591
9407 2 20.9319 54.9376 1.08489
10328 2 1.83572 56.5195 1.06449
4049 1 2.74765 58.0924 -0.282476
4091 1 0.0187264 56.509 -0.263725
4048 1 5.47496 56.509 -0.263725
10222 2 4.56447 58.1022 1.04547
3915 1 8.20389 58.0924 -0.282476
10239 2 7.29196 56.5195 1.06449
3928 1 10.9312 56.509 -0.263725
10038 2 10.0207 58.1022 1.04547
3697 1 13.6601 58.0924 -0.282476
9749 2 15.4769 58.1022 1.04547
10037 2 12.7482 56.5195 1.06449
3696 1 16.3874 56.509 -0.263725
9764 2 18.2044 56.5195 1.06449
3381 1 19.1164 58.0924 -0.282476
9406 2 20.9332 58.1022 1.04547
10329 2 1.83692 59.6856 1.028
4035 1 2.74906 61.2616 -0.315249
4086 1 0.0202732 59.6766 -0.299697
4051 1 5.47651 59.6766 -0.299697
10221 2 4.56555 61.2697 1.01221
3914 1 8.2053 61.2616 -0.315249
10220 2 7.29316 59.6856 1.028
3913 1 10.9328 59.6766 -0.299697
10019 2 10.0218 61.2697 1.01221
3682 1 13.6615 61.2616 -0.315249
9748 2 15.478 61.2697 1.01221
10040 2 12.7494 59.6856 1.028
3699 1 16.389 59.6766 -0.299697
9747 2 18.2056 59.6856 1.028
3380 1 19.1178 61.2616 -0.315249
9399 2 20.9343 61.2697 1.01221
10316 2 1.83788 62.8545 0.998238
4034 1 2.75013 64.4332 -0.340847
4087 1 0.021522 62.8471 -0.329004
4033 1 5.47776 62.8471 -0.329004
10199 2 4.56637 64.4399 0.986206
3895 1 8.20637 64.4332 -0.340847
10223 2 7.29412 62.8545 0.998238
3916 1 10.934 62.8471 -0.329004
10018 2 10.0226 64.4399 0.986206
3681 1 13.6626 64.4332 -0.340847
9727 2 15.4788 64.4399 0.986206
10017 2 12.7504 62.8545 0.998238
3680 1 16.3902 62.8471 -0.329004
9750 2 18.2066 62.8545 0.998238
3365 1 19.1188 64.4332 -0.340847
9398 2 20.9351 64.4399 0.986206
10317 2 1.83855 66.0257 0.976217
4019 1 2.75081 67.6068 -0.358415
4082 1 0.0224049 66.0198 -0.350678
4036 1 5.47864 66.0198 -0.350678
10198 2 4.56687 67.612 0.968359
3894 1 8.20704 67.6068 -0.358414
10197 2 7.29479 66.0257 0.976217
3893 1 10.9349 66.0198 -0.350678
9991 2 10.0231 67.612 0.968359
3658 1 13.6633 67.6068 -0.358415
9726 2 15.4793 67.612 0.968359
10020 2 12.751 66.0257 0.976217
3683 1 16.3911 66.0198 -0.350678
9725 2 18.2073 66.0257 0.976217
3364 1 19.1195 67.6068 -0.358414
9383 2 20.9356 67.612 0.968359
10304 2 1.83886 69.1986 0.962701
4018 1 2.75101 70.7816 -0.367355
4083 1 0.0228511 69.1941 -0.363989
4017 1 5.47909 69.1941 -0.363989
10175 2 4.56699 70.7854 0.959291
3868 1 8.20725 70.7816 -0.367355
10200 2 7.2951 69.1986 0.962701
3896 1 10.9353 69.1941 -0.363989
9990 2 10.0232 70.7854 0.959291
3657 1 13.6635 70.7816 -0.367355
9697 2 15.4795 70.7854 0.959291
9989 2 12.7513 69.1986 0.962701
3656 1 16.3916 69.1941 -0.363989
9728 2 18.2076 69.1986 0.962701
3341 1 19.1197 70.7816 -0.367355
9382 2 20.9357 70.7854 0.959291
10305 2 1.83878 72.3724 0.95816
4003 1 2.75072 73.9569 -0.367369
4078 1 0.0228099 72.3693 -0.368485
4020 1 5.47905 72.3693 -0.368485
10174 2 4.5667 73.9593 0.959317
3867 1 8.20696 73.9569 -0.367369
10173 2 7.29502 72.3724 0.95816
3866 1 10.9353 72.3693 -0.368485
9956 2 10.0229 73.9593 0.959317
3626 1 13.6632 73.9569 -0.367369
9696 2 15.4792 73.9593 0.959317
9992 2 12.7513 72.3724 0.95816
3659 1 16.3915 72.3693 -0.368485
9695 2 18.2075 72.3724 0.95816
3340 1 19.1194 73.9569 -0.367369
9359 2 20.9354 73.9593 0.959317
10292 2 1.83828 75.5461 0.96275
4079 1 0.0222689 75.5444 -0.364017
4001 1 5.47851 75.5444 -0.364017
10176 2 7.29452 75.5461 0.96275
3869 1 10.9347 75.5444 -0.364017
9954 2 12.7508 75.5461 0.96275
3624 1 16.391 75.5444 -0.364017
9698 2 18.207 75.5461 0.96275
10293 2 1.83741 78.719 0.976294
4002 1 2.74994 77.1318 -0.35846
4074 1 0.0212605 78.7189 -0.350747
4004 1 5.4775 78.7189 -0.350747
10151 2 4.56601 77.1327 0.968426
3840 1 8.20618 77.1318 -0.35846
10149 2 7.29365 78.719 0.976294
3838 1 10.9337 78.7189 -0.350747
9955 2 10.0222 77.1327 0.968426
3625 1 13.6624 77.1318 -0.35846
9659 2 15.4785 77.1327 0.968426
9957 2 12.7499 78.719 0.976294
3627 1 16.39 78.7189 -0.350747
9657 2 18.2061 78.719 0.976294
3309 1 19.1187 77.1318 -0.35846
9358 2 20.9347 77.1327 0.968426
10280 2 1.83621 81.8904 0.998305
3987 1 2.74872 80.3056 -0.340943
4075 1 0.0198518 81.8918 -0.329134
3985 1 5.47609 81.8918 -0.329134
10150 2 4.56496 80.305 0.986284
3839 1 8.20496 80.3056 -0.340943
10152 2 7.29245 81.8904 0.998305
3841 1 10.9323 81.8918 -0.329134
9920 2 10.0212 80.305 0.986284
3587 1 13.6612 80.3056 -0.340943
9658 2 15.4774 80.305 0.986284
9918 2 12.7487 81.8904 0.998305
3585 1 16.3886 81.8918 -0.329134
9660 2 18.2049 81.8904 0.998305
3308 1 19.1174 80.3056 -0.340943
9327 2 20.9337 80.305 0.986284
10281 2 1.83476 85.0595 1.02801
3986 1 2.74714 83.4775 -0.315419
4070 1 0.0181246 85.0626 -0.299914
3988 1 5.47436 85.0626 -0.299914
10127 2 4.56363 83.4753 1.01225
3812 1 8.20338 83.4775 -0.315419
10125 2 7.291 85.0595 1.02801
3810 1 10.9306 85.0626 -0.299914
9919 2 10.0199 83.4753 1.01225
3586 1 13.6596 83.4775 -0.315419
9614 2 15.4761 83.4753 1.01225
9921 2 12.7472 85.0595 1.02801
3588 1 16.3868 85.0626 -0.299914
9612 2 18.2035 85.0595 1.02801
3269 1 19.1159 83.4775 -0.315419
9326 2 20.9323 83.4753 1.01225
10268 2 1.83312 88.2259 1.0644
3971 1 2.74528 86.647 -0.282746
4071 1 0.0161537 88.2306 -0.264056
3969 1 5.47239 88.2306 -0.264056
10126 2 4.56208 86.6431 1.04544
3811 1 8.20152 86.647 -0.282746
10128 2 7.28936 88.2259 1.0644
3813 1 10.9286 88.2306 -0.264056
9884 2 10.0183 86.6431 1.04544
3547 1 13.6578 86.647 -0.282746
9613 2 15.4746 86.6431 1.04544
9882 2 12.7456 88.2259 1.0644
3545 1 16.3849 88.2306 -0.264056
9615 2 18.2018 88.2259 1.0644
3268 1 19.114 86.647 -0.282746
9287 2 20.9308 86.6431 1.04544
10269 2 1.83133 91.3892 1.10627
3970 1 2.74321 89.8135 -0.243993
4066 1 0.0139953 91.3956 -0.222714
3972 1 5.47023 91.3956 -0.222714
10104 2 4.56036 89.8079 1.08473
3784 1 8.19945 89.8135 -0.243993
10102 2 7.28757 91.3892 1.10627
3782 1 10.9265 91.3956 -0.222714
9883 2 10.0166 89.8079 1.08473
3546 1 13.6557 89.8135 -0.243993
9568 2 15.4728 89.8079 1.08473
9885 2 12.7438 91.3892 1.10627
3548 1 16.3827 91.3956 -0.222714
9566 2 18.2 91.3892 1.10627
3222 1 19.1119 89.8135 -0.243993
9286 2 20.9291 89.8079 1.08473
10260 2 1.82942 94.5492 1.15233
3956 1 2.74098 92.9768 -0.200382
4067 1 0.0116892 94.5572 -0.177166
3954 1 5.46793 94.5572 -0.177166
10103 2 4.55851 92.9696 1.12886
3783 1 8.19722 92.9768 -0.200382
10105 2 7.28565 94.5492 1.15233
3785 1 10.9242 94.5572 -0.177166
9852 2 10.0147 92.9696 1.12886
3508 1 13.6535 92.9768 -0.200382
9567 2 15.471 92.9696 1.12886
9850 2 12.7419 94.5492 1.15233
3506 1 16.3804 94.5572 -0.177166
9569 2 18.1981 94.5492 1.15233
3221 1 19.1097 92.9768 -0.200382
9240 2 20.9272 92.9696 1.12886
10261 2 1.82739 97.706 1.2012
3955 1 2.73861 96.1367 -0.153234
4065 1 0.00926624 97.7153 -0.128762
3957 1 5.4655 97.7153 -0.128762
10088 2 4.55653 96.128 1.1765
3760 1 8.19485 96.1367 -0.153234
10086 2 7.28362 97.706 1.2012
3758 1 10.9217 97.7153 -0.128762
9851 2 10.0128 96.128 1.1765
3507 1 13.6511 96.1367 -0.153234
9528 2 15.469 96.128 1.1765
9853 2 12.7399 97.706 1.2012
3509 1 16.378 97.7153 -0.128762
9526 2 18.1961 97.706 1.2012
3175 1 19.1073 96.1367 -0.153234
9239 2 20.9252 96.128 1.1765
3945 1 2.73614 99.2931 -0.103913
10087 2 4.55445 99.2832 1.22625
3759 1 8.19238 99.2931 -0.103913
9825 2 10.0107 99.2832 1.22625
3473 1 13.6486 99.2931 -0.103913
9527 2 15.4669 99.2832 1.22625
3174 1 19.1049 99.2931 -0.103913
9192 2 20.9232 99.2832 1.22625
4046 1 0.925459 51.7929 2.39191
10234 2 2.74441 51.8064 3.69197
3923 1 6.3817 51.7929 2.39191
10035 2 8.20065 51.8064 3.69197
3694 1 11.8379 51.7929 2.39191
9759 2 13.6569 51.8064 3.69197
3386 1 17.2942 51.7929 2.39191
9405 2 19.1131 51.8064 3.69197
10326 2 0.0172284 53.3851 3.66879
4045 1 0.927243 54.9526 2.34704
10218 2 2.74621 54.9645 3.6467
4044 1 3.65449 53.3724 2.36892
10235 2 5.47347 53.3851 3.66879
3911 1 6.38348 54.9526 2.34704
3924 1 9.11073 53.3724 2.36892
10034 2 8.20245 54.9645 3.6467
3693 1 11.8397 54.9526 2.34704
10033 2 10.9297 53.3851 3.66879
3692 1 14.567 53.3724 2.36892
9745 2 13.6587 54.9645 3.6467
3378 1 17.296 54.9526 2.34704
9760 2 16.3859 53.3851 3.66879
3387 1 20.0232 53.3724 2.36892
9404 2 19.1149 54.9645 3.6467
10327 2 0.0188964 56.5447 3.62583
4031 1 0.928769 58.1151 2.30713
10217 2 2.74776 58.1255 3.60637
4047 1 3.65615 56.5335 2.32638
10216 2 5.47513 56.5447 3.62583
3909 1 9.11239 56.5335 2.32638
3910 1 6.38501 58.1151 2.30713
10015 2 8.204 58.1255 3.60637
3678 1 11.8412 58.1151 2.30713
10036 2 10.9314 56.5447 3.62583
3695 1 14.5686 56.5335 2.32638
9744 2 13.6602 58.1255 3.60637
3377 1 17.2975 58.1151 2.30713
9743 2 16.3876 56.5447 3.62583
3376 1 20.0249 56.5335 2.32638
9397 2 19.1165 58.1255 3.60637
10314 2 0.0203239 59.7069 3.58847
4030 1 0.930036 61.2803 2.27345
10195 2 2.74906 61.289 3.57229
4029 1 3.65756 59.6974 2.28943
10219 2 5.47656 59.7069 3.58847
3891 1 6.38627 61.2803 2.27345
3912 1 9.11379 59.6974 2.28943
10014 2 8.20529 61.289 3.57229
3677 1 11.8425 61.2803 2.27345
10013 2 10.9328 59.7069 3.58847
3676 1 14.57 59.6974 2.28943
9723 2 13.6615 61.289 3.57229
3362 1 17.2988 61.2803 2.27345
9746 2 16.389 59.7069 3.58847
3379 1 20.0263 59.6974 2.28943
9396 2 19.1178 61.289 3.57229
10315 2 0.0214737 62.8716 3.55797
4015 1 0.930999 64.4477 2.24712
10194 2 2.75005 64.4548 3.54564
4032 1 3.65868 62.8637 2.2593
10193 2 5.47771 62.8716 3.55797
3889 1 9.11492 62.8637 2.2593
3890 1 6.38724 64.4477 2.24712
9987 2 8.20628 64.4548 3.54564
3654 1 11.8435 64.4477 2.24712
10016 2 10.934 62.8716 3.55797
3679 1 14.5712 62.8637 2.2593
9722 2 13.6625 64.4548 3.54564
3361 1 17.2997 64.4477 2.24712
9721 2 16.3902 62.8716 3.55797
3360 1 20.0274 62.8637 2.2593
9381 2 19.1188 64.4548 3.54564
10302 2 0.0222894 66.0383 3.5354
4014 1 0.931601 67.6169 2.22904
10171 2 2.75067 67.6222 3.52734
4013 1 3.65947 66.0321 2.237
10196 2 5.47853 66.0383 3.5354
3864 1 6.38784 67.6169 2.22904
3892 1 9.11571 66.0321 2.237
9986 2 8.20691 67.6222 3.52734
3653 1 11.8441 67.6169 2.22904
9985 2 10.9348 66.0383 3.5354
3652 1 14.5719 66.0321 2.237
9693 2 13.6631 67.6222 3.52734
3338 1 17.3003 67.6169 2.22904
9724 2 16.391 66.0383 3.5354
3363 1 20.0282 66.0321 2.237
9380 2 19.1194 67.6222 3.52734
10303 2 0.0227064 69.2064 3.52154
3999 1 0.931787 70.7871 2.21985
10170 2 2.75087 70.7908 3.51805
4016 1 3.65987 69.2019 2.22331
10169 2 5.47894 69.2064 3.52154
3862 1 9.11611 69.2019 2.22331
3863 1 6.38803 70.7871 2.21985
9952 2 8.20711 70.7908 3.51805
3622 1 11.8443 70.7871 2.21985
9988 2 10.9352 69.2064 3.52154
3655 1 14.5723 69.2019 2.22331
9692 2 13.6633 70.7908 3.51805
3337 1 17.3005 70.7871 2.21985
9691 2 16.3914 69.2064 3.52154
3336 1 20.0286 69.2019 2.22331
9357 2 19.1196 70.7908 3.51805
10290 2 0.0226736 72.3752 3.51689
3998 1 0.931524 73.9578 2.21985
10147 2 2.7506 73.9597 3.51809
3997 1 3.65983 72.3724 2.21869
10172 2 5.47891 72.3752 3.51689
3836 1 6.38776 73.9578 2.21985
3865 1 9.11607 72.3724 2.21869
9951 2 8.20684 73.9597 3.51809
3621 1 11.844 73.9578 2.21985
9950 2 10.9352 72.3752 3.51689
3620 1 14.5723 72.3724 2.21869
9655 2 13.6631 73.9597 3.51809
3306 1 17.3002 73.9578 2.21985
9694 2 16.3914 72.3752 3.51689
3339 1 20.0285 72.3724 2.21869
9356 2 19.1193 73.9597 3.51809
10291 2 0.0221753 75.5441 3.52162
4000 1 3.65934 75.543 2.2233
10145 2 5.47841 75.5441 3.52162
3834 1 9.11558 75.543 2.2233
9953 2 10.9347 75.5441 3.52162
3623 1 14.5718 75.543 2.2233
9653 2 16.3909 75.5441 3.52162
3304 1 20.0281 75.543 2.2233
10278 2 0.0212396 78.7122 3.53553
3983 1 0.93082 77.1281 2.22903
10146 2 2.74988 77.1283 3.52745
3981 1 3.65843 78.7129 2.23697
10148 2 5.47748 78.7122 3.53553
3835 1 6.38706 77.1281 2.22903
3837 1 9.11467 78.7129 2.23697
9916 2 8.20612 77.1283 3.52745
3583 1 11.8433 77.1281 2.22903
9914 2 10.9337 78.7122 3.53553
3581 1 14.5709 78.7129 2.23697
9654 2 13.6624 77.1283 3.52745
3305 1 17.2995 77.1281 2.22903
9656 2 16.39 78.7122 3.53553
3307 1 20.0271 78.7129 2.23697
9325 2 19.1186 77.1283 3.52745
10279 2 0.0199283 81.879 3.55811
3982 1 0.929715 80.2974 2.24707
10123 2 2.74875 80.2958 3.54578
3984 1 3.65715 81.8814 2.25922
10121 2 5.47617 81.879 3.55811
3806 1 9.11339 81.8814 2.25922
3808 1 6.38595 80.2974 2.24707
9915 2 8.20498 80.2958 3.54578
3582 1 11.8422 80.2974 2.24707
9917 2 10.9324 81.879 3.55811
3584 1 14.5696 81.8814 2.25922
9610 2 13.6612 80.2958 3.54578
3266 1 17.2984 80.2974 2.24707
9608 2 16.3886 81.879 3.55811
3264 1 20.0259 81.8814 2.25922
9324 2 19.1175 80.2958 3.54578
10266 2 0.0183139 85.0439 3.58856
3967 1 0.928276 83.465 2.27332
10122 2 2.74727 83.4617 3.57242
3965 1 3.65557 85.048 2.28926
10124 2 5.47455 85.0439 3.58856
3807 1 6.38451 83.465 2.27332
3809 1 9.11181 85.048 2.28926
9880 2 8.20351 83.4617 3.57242
3543 1 11.8408 83.465 2.27332
9878 2 10.9308 85.0439 3.58856
3541 1 14.568 85.048 2.28926
9609 2 13.6598 83.4617 3.57242
3265 1 17.297 83.465 2.27332
9611 2 16.387 85.0439 3.58856
3267 1 20.0243 85.048 2.28926
9285 2 19.116 83.4617 3.57242
10267 2 0.016458 88.2064 3.6258
3966 1 0.926567 86.6305 2.3069
10100 2 2.74553 86.6254 3.60641
3968 1 3.65375 88.2123 2.32609
10098 2 5.4727 88.2064 3.6258
3778 1 9.10999 88.2123 2.32609
3780 1 6.38281 86.6305 2.3069
9879 2 8.20177 86.6254 3.60641
3542 1 11.839 86.6305 2.3069
9881 2 10.9289 88.2064 3.6258
3544 1 14.5662 88.2123 2.32609
9564 2 13.658 86.6254 3.60641
3219 1 17.2953 86.6305 2.3069
9562 2 16.3852 88.2064 3.6258
3217 1 20.0225 88.2123 2.32609
9284 2 19.1142 86.6254 3.60641
10258 2 0.0143983 91.3664 3.66859
3952 1 0.924641 89.7934 2.34667
10099 2 2.74357 89.7867 3.64659
3950 1 3.65172 91.3739 2.36849
10101 2 5.47064 91.3664 3.66859
3779 1 6.38088 89.7934 2.34667
3781 1 9.10796 91.3739 2.36849
9848 2 8.19981 89.7867 3.64659
3504 1 11.8371 89.7934 2.34667
9846 2 10.9269 91.3664 3.66859
3502 1 14.5642 91.3739 2.36849
9563 2 13.656 89.7867 3.64659
3218 1 17.2934 89.7934 2.34667
9565 2 16.3831 91.3664 3.66859
3220 1 20.0204 91.3739 2.36849
9238 2 19.1123 89.7867 3.64659
10259 2 0.0121504 94.5237 3.71556
3951 1 0.922525 92.9536 2.39136
10084 2 2.74142 92.9454 3.69164
3953 1 3.64952 94.5326 2.41511
10082 2 5.46839 94.5237 3.71556
3754 1 9.10576 94.5326 2.41511
3756 1 6.37876 92.9536 2.39136
9847 2 8.19766 92.9454 3.69164
3503 1 11.835 92.9536 2.39136
9849 2 10.9246 94.5237 3.71556
3505 1 14.562 94.5326 2.41511
9524 2 13.6539 92.9454 3.69164
3172 1 17.2912 92.9536 2.39136
9522 2 16.3809 94.5237 3.71556
3170 1 20.0182 94.5326 2.41511
9237 2 19.1101 92.9454 3.69164
10257 2 0.00972112 97.6785 3.76531
3944 1 0.920238 96.111 2.43959
10083 2 2.73908 96.1014 3.74017
3942 1 3.64717 97.6886 2.46461
10085 2 5.46596 97.6785 3.76531
3755 1 6.37648 96.111 2.43959
3757 1 9.10341 97.6886 2.46461
9824 2 8.19532 96.1014 3.74017
3472 1 11.8327 96.111 2.43959
9822 2 10.9222 97.6785 3.76531
3470 1 14.5597 97.6886 2.46461
9523 2 13.6516 96.1014 3.74017
3171 1 17.289 96.111 2.43959
9525 2 16.3784 97.6785 3.76531
3173 1 20.0159 97.6886 2.46461
9191 2 19.1078 96.1014 3.74017
3943 1 0.917821 99.2655 2.48996
10073 2 2.73658 99.2549 3.79077
3737 1 6.37406 99.2655 2.48996
9823 2 8.19282 99.2549 3.79077
3471 1 11.8303 99.2655 2.48996
9489 2 13.6491 99.2549 3.79077
3129 1 17.2865 99.2655 2.48996
9190 2 19.1053 99.2549 3.79077
10214 2 0.926817 51.8349 6.2599
3907 1 4.56406 51.8216 4.96878
10031 2 6.38305 51.8349 6.2599
3690 1 10.0203 51.8216 4.96878
9741 2 11.8393 51.8349 6.2599
3374 1 15.4765 51.8216 4.96878
9402 2 17.2955 51.8349 6.2599
3008 1 20.9328 51.8216 4.96878
4043 1 1.83696 53.3993 4.94522
10213 2 0.928976 54.9901 6.21347
3906 1 4.56604 54.9779 4.92271
10212 2 3.65604 53.4123 6.23617
3905 1 7.2932 53.3993 4.94522
10011 2 6.38521 54.9901 6.21347
10032 2 9.11228 53.4123 6.23617
3674 1 10.0223 54.9779 4.92271
9740 2 11.8415 54.9901 6.21347
3373 1 15.4785 54.9779 4.92271
3691 1 12.7494 53.3993 4.94522
9739 2 14.5685 53.4123 6.23617
3372 1 18.2057 53.3993 4.94522
9394 2 17.2977 54.9901 6.21347
3007 1 20.9348 54.9779 4.92271
9403 2 20.0248 53.4123 6.23617
4027 1 1.83881 56.5571 4.90146
10191 2 0.930857 58.1477 6.17201
3887 1 4.56775 58.137 4.88163
10215 2 3.65807 56.5687 6.19203
3908 1 7.29505 56.5571 4.90146
10009 2 9.11431 56.5687 6.19203
10010 2 6.3871 58.1477 6.17201
3673 1 10.024 58.137 4.88163
9719 2 11.8433 58.1477 6.17201
3358 1 15.4802 58.137 4.88163
3672 1 12.7513 56.5571 4.90146
9742 2 14.5705 56.5687 6.19203
3375 1 18.2075 56.5571 4.90146
9393 2 17.2996 58.1477 6.17201
3006 1 20.9365 58.137 4.88163
9392 2 20.0268 56.5687 6.19203
4028 1 1.84038 59.7174 4.8634
10190 2 0.932436 61.3075 6.13693
3886 1 4.56918 61.2985 4.84691
10189 2 3.6598 59.7274 6.15359
3885 1 7.29662 59.7174 4.8634
9983 2 6.38867 61.3075 6.13693
10012 2 9.11604 59.7274 6.15359
3650 1 10.0254 61.2985 4.84691
9718 2 11.8449 61.3075 6.13693
3357 1 15.4817 61.2985 4.84691
3675 1 12.7529 59.7174 4.8634
9717 2 14.5723 59.7274 6.15359
3356 1 18.2091 59.7174 4.8634
9378 2 17.3012 61.3075 6.13693
2999 1 20.9379 61.2985 4.84691
9395 2 20.0285 59.7274 6.15359
4011 1 1.84166 62.88 4.83232
10167 2 0.933669 64.4693 6.10947
3860 1 4.57028 64.4619 4.81975
10192 2 3.66122 62.8882 6.12218
3888 1 7.29789 62.88 4.83232
9981 2 9.11746 62.8882 6.12218
9982 2 6.38991 64.4693 6.10947
3649 1 10.0265 64.4619 4.81975
9689 2 11.8461 64.4693 6.10947
3334 1 15.4828 64.4619 4.81975
3648 1 12.7541 62.88 4.83232
9720 2 14.5737 62.8882 6.12218
3359 1 18.2104 62.88 4.83232
9377 2 17.3024 64.4693 6.10947
2998 1 20.939 64.4619 4.81975
9376 2 20.0299 62.8882 6.12218
4012 1 1.84257 66.0443 4.80931
10166 2 0.93448 67.6326 6.09061
3859 1 4.57099 67.627 4.8011
10165 2 3.66225 66.0508 6.09891
3858 1 7.29881 66.0443 4.80931
9948 2 6.39072 67.6326 6.09061
9984 2 9.11849 66.0508 6.09891
3618 1 10.0272 67.627 4.8011
9688 2 11.847 67.6326 6.09061
3333 1 15.4835 67.627 4.8011
3651 1 12.755 66.0443 4.80931
9687 2 14.5747 66.0508 6.09891
3332 1 18.2113 66.0443 4.80931
9354 2 17.3032 67.6326 6.09061
2983 1 20.9397 67.627 4.8011
9379 2 20.031 66.0508 6.09891
3995 1 1.84306 69.2099 4.79519
10143 2 0.934787 70.7968 6.08104
3832 1 4.57125 70.793 4.79163
10168 2 3.66282 69.2146 6.08463
3861 1 7.2993 69.2099 4.79519
9946 2 9.11906 69.2146 6.08463
9947 2 6.39103 70.7968 6.08104
3617 1 10.0275 70.793 4.79163
9651 2 11.8473 70.7968 6.08104
3302 1 15.4837 70.793 4.79163
3616 1 12.7555 69.2099 4.79519
9690 2 14.5753 69.2146 6.08463
3335 1 18.2118 69.2099 4.79519
9353 2 17.3035 70.7968 6.08104
2982 1 20.94 70.793 4.79163
9352 2 20.0315 69.2146 6.08463
3996 1 1.84307 72.3761 4.79044
10142 2 0.934539 73.9614 6.08111
3831 1 4.57101 73.9593 4.79165
10141 2 3.66285 72.3791 6.07987
3830 1 7.29931 72.3761 4.79044
9912 2 6.39078 73.9614 6.08111
9949 2 9.11909 72.3791 6.07987
3579 1 10.0272 73.9593 4.79165
9650 2 11.847 73.9614 6.08111
3301 1 15.4835 73.9593 4.79165
3619 1 12.7555 72.3761 4.79044
9649 2 14.5753 72.3791 6.07987
3300 1 18.2118 72.3761 4.79044
9322 2 17.3033 73.9614 6.08111
2959 1 20.9397 73.9593 4.79165
9355 2 20.0316 72.3791 6.07987
3979 1 1.84258 75.5424 4.79524
10144 2 3.66233 75.5436 6.08477
3833 1 7.29882 75.5424 4.79524
9910 2 9.11856 75.5436 6.08477
3577 1 12.7551 75.5424 4.79524
9652 2 14.5748 75.5436 6.08477
3303 1 18.2113 75.5424 4.79524
9320 2 20.031 75.5436 6.08477
3980 1 1.84162 78.7081 4.80939
10119 2 0.933741 77.1256 6.09081
3804 1 4.57027 77.1254 4.80117
10117 2 3.66127 78.7074 6.09916
3802 1 7.29786 78.7081 4.80939
9911 2 6.38998 77.1256 6.09081
9913 2 9.11751 78.7074 6.09916
3578 1 10.0265 77.1254 4.80117
9606 2 11.8462 77.1256 6.09081
3262 1 15.4828 77.1254 4.80117
3580 1 12.7541 78.7081 4.80939
9604 2 14.5737 78.7074 6.09916
3260 1 18.2103 78.7081 4.80939
9321 2 17.3025 77.1256 6.09081
2958 1 20.939 77.1254 4.80117
9323 2 20.03 78.7074 6.09916
3963 1 1.84025 81.8725 4.83238
10118 2 0.932455 80.289 6.10975
3803 1 4.5691 80.2905 4.81983
10120 2 3.65978 81.8701 6.12248
3805 1 7.29648 81.8725 4.83238
9874 2 9.11601 81.8701 6.12248
9876 2 6.38869 80.289 6.10975
3539 1 10.0253 80.2905 4.81983
9605 2 11.8449 80.289 6.10975
3261 1 15.4816 80.2905 4.81983
3537 1 12.7527 81.8725 4.83238
9607 2 14.5723 81.8701 6.12248
3263 1 18.209 81.8725 4.83238
9282 2 17.3012 80.289 6.10975
2927 1 20.9378 80.2905 4.81983
9280 2 20.0285 81.8701 6.12248
3964 1 1.83854 85.0352 4.86338
10096 2 0.93077 83.4508 6.13722
3776 1 4.56755 83.4541 4.84694
10094 2 3.65792 85.0311 6.15385
3774 1 7.29478 85.0352 4.86338
9875 2 6.38701 83.4508 6.13722
9877 2 9.11416 85.0311 6.15385
3538 1 10.0238 83.4541 4.84694
9560 2 11.8432 83.4508 6.13722
3215 1 15.48 83.4541 4.84694
3540 1 12.751 85.0352 4.86338
9558 2 14.5704 85.0311 6.15385
3213 1 18.2073 85.0352 4.86338
9281 2 17.2995 83.4508 6.13722
2926 1 20.9363 83.4541 4.84694
9283 2 20.0266 85.0311 6.15385
3948 1 1.83656 88.1959 4.9013
10095 2 0.92877 86.6108 6.17222
3775 1 4.5657 86.6159 4.88155
10097 2 3.65579 88.1901 6.19215
3777 1 7.29279 88.1959 4.9013
9842 2 9.11203 88.1901 6.19215
9844 2 6.38501 86.6108 6.17222
3500 1 10.0219 86.6159 4.88155
9559 2 11.8412 86.6108 6.17222
3214 1 15.4782 86.6159 4.88155
3498 1 12.749 88.1959 4.9013
9561 2 14.5683 88.1901 6.19215
3216 1 18.2053 88.1959 4.9013
9235 2 17.2975 86.6108 6.17222
2887 1 20.9344 86.6159 4.88155
9233 2 20.0245 88.1901 6.19215
3949 1 1.83434 91.3543 4.94485
10080 2 0.926514 89.7687 6.21349
3752 1 4.56359 89.7754 4.92246
10078 2 3.65342 91.3468 6.23604
3750 1 7.29058 91.3543 4.94485
9843 2 6.38275 89.7687 6.21349
9845 2 9.10966 91.3468 6.23604
3499 1 10.0198 89.7754 4.92246
9520 2 11.839 89.7687 6.21349
3168 1 15.4761 89.7754 4.92246
3501 1 12.7468 91.3543 4.94485
9518 2 14.5659 91.3468 6.23604
3166 1 18.2031 91.3543 4.94485
9234 2 17.2952 89.7687 6.21349
2886 1 20.9323 89.7754 4.92246
9236 2 20.0221 91.3468 6.23604
3940 1 1.8319 94.5104 4.9926
10079 2 0.92403 92.9244 6.25962
3751 1 4.56126 92.9326 4.96829
10081 2 3.65083 94.5015 6.28405
3753 1 7.28814 94.5104 4.9926
9818 2 9.10707 94.5015 6.28405
9820 2 6.38027 92.9244 6.25962
3468 1 10.0175 92.9326 4.96829
9519 2 11.8365 92.9244 6.25962
3167 1 15.4737 92.9326 4.96829
3466 1 12.7444 94.5104 4.9926
9521 2 14.5633 94.5015 6.28405
3169 1 18.2006 94.5104 4.9926
9188 2 17.2927 92.9244 6.25962
2841 1 20.93 92.9326 4.96829
9186 2 20.0195 94.5015 6.28405
3941 1 1.82925 97.6642 5.04311
10072 2 0.92134 96.078 6.30914
3736 1 4.55872 96.0876 5.0176
10070 2 3.64805 97.654 6.3347
3734 1 7.28549 97.6642 5.04311
9819 2 6.37758 96.078 6.30914
9821 2 9.10429 97.654 6.3347
3467 1 10.015 96.0876 5.0176
9488 2 11.8338 96.078 6.30914
3128 1 15.4712 96.0876 5.0176
3469 1 12.7417 97.6642 5.04311
9486 2 14.5605 97.654 6.3347
3126 1 18.198 97.6642 5.04311
9187 2 17.2901 96.078 6.30914
2840 1 20.9274 96.0876 5.0176
9189 2 20.0168 97.654 6.3347
10071 2 0.918465 99.2296 6.36059
3735 1 4.55597 99.2407 5.06897
9801 2 6.3747 99.2296 6.36059
3441 1 10.0122 99.2407 5.06897
9487 2 11.8309 99.2296 6.36059
3127 1 15.4684 99.2407 5.06897
9145 2 17.2872 99.2296 6.36059
2795 1 20.9247 99.2407 5.06897
3903 1 2.74632 51.8488 7.54155
3879 1 0.928313 51.8752 10.1134
10007 2 4.56524 51.8621 8.82989
3670 1 8.20256 51.8488 7.54155
3666 1 6.38455 51.8752 10.1134
3350 1 11.8408 51.8752 10.1134
9737 2 10.0215 51.8621 8.82989
3370 1 13.6588 51.8488 7.54155
9390 2 15.4777 51.8621 8.82989
3002 1 17.297 51.8752 10.1134
3005 1 19.115 51.8488 7.54155
9024 2 20.934 51.8621 8.82989
3883 1 2.74863 55.0027 7.49414
4025 1 0.0194009 53.4255 7.51733
3878 1 0.931068 55.0261 10.0645
10211 2 1.83843 53.438 8.8055
3904 1 5.47564 53.4255 7.51733
3877 1 3.65785 53.4504 10.0884
10006 2 4.56779 55.0145 8.78214
3669 1 8.20487 55.0027 7.49414
3642 1 6.38731 55.0261 10.0645
3667 1 9.11409 53.4504 10.0884
10005 2 7.29467 53.438 8.8055
3668 1 10.9319 53.4255 7.51733
3349 1 11.8435 55.0261 10.0645
9715 2 10.024 55.0145 8.78214
3354 1 13.6611 55.0027 7.49414
3348 1 14.5703 53.4504 10.0884
9389 2 15.4803 55.0145 8.78214
9738 2 12.7509 53.438 8.8055
3371 1 16.3881 53.4255 7.51733
2994 1 17.2998 55.0261 10.0645
9388 2 18.2071 53.438 8.8055
3004 1 19.1173 55.0027 7.49414
3003 1 20.0266 53.4504 10.0884
9023 2 20.9365 55.0145 8.78214
3882 1 2.75066 58.1586 7.45172
4026 1 0.0215658 56.5804 7.4722
3852 1 0.933525 58.1789 10.0205
10187 2 1.84084 56.5914 8.76001
3881 1 5.4778 56.5804 7.4722
3880 1 3.66045 56.6023 10.0418
9979 2 4.57006 58.1688 8.73933
3646 1 8.2069 58.1586 7.45172
3640 1 9.11669 56.6023 10.0418
3641 1 6.38976 58.1789 10.0205
10008 2 7.29708 56.5914 8.76001
3671 1 10.934 56.5804 7.4722
3326 1 11.846 58.1789 10.0205
9714 2 10.0263 58.1688 8.73933
3353 1 13.6631 58.1586 7.45172
3351 1 14.5729 56.6023 10.0418
9374 2 15.4825 58.1688 8.73933
9713 2 12.7533 56.5914 8.76001
3352 1 16.3903 56.5804 7.4722
2993 1 17.3022 58.1789 10.0205
9391 2 18.2096 56.5914 8.76001
2997 1 19.1194 58.1586 7.45172
2992 1 20.0292 56.6023 10.0418
9022 2 20.9388 58.1688 8.73933
3856 1 2.75238 61.3166 7.41581
4009 1 0.0234449 59.7374 7.43286
3851 1 0.935676 61.3335 9.98314
10188 2 1.84296 59.7467 8.72026
3884 1 5.47968 59.7374 7.43286
3850 1 3.66276 59.756 10.0009
9978 2 4.57202 61.3251 8.703
3645 1 8.20862 61.3166 7.41581
3610 1 6.39191 61.3335 9.98314
3643 1 9.119 59.756 10.0009
9977 2 7.2992 59.7467 8.72026
3644 1 10.9359 59.7374 7.43286
3325 1 11.8482 61.3335 9.98314
9685 2 10.0283 61.3251 8.703
3330 1 13.6649 61.3166 7.41581
3324 1 14.5752 59.756 10.0009
9373 2 15.4845 61.3251 8.703
9716 2 12.7554 59.7467 8.72026
3355 1 16.3922 59.7374 7.43286
2978 1 17.3044 61.3335 9.98314
9372 2 18.2117 59.7467 8.72026
2996 1 19.1211 61.3166 7.41581
2995 1 20.0315 59.756 10.0009
9015 2 20.9407 61.3251 8.703
3855 1 2.75375 64.4764 7.38768
4010 1 0.0249959 62.8963 7.4007
3824 1 0.937448 64.4898 9.95384
10163 2 1.84475 62.9039 8.68771
3854 1 5.48123 62.8963 7.4007
3853 1 3.66474 62.9115 9.96741
9944 2 4.5736 64.4831 8.67452
3614 1 8.20999 64.4764 7.38768
3608 1 9.12097 62.9115 9.96741
3609 1 6.39369 64.4898 9.95384
9980 2 7.30098 62.9039 8.68771
3647 1 10.9375 62.8963 7.4007
3294 1 11.8499 64.4898 9.95384
9684 2 10.0298 64.4831 8.67452
3329 1 13.6662 64.4764 7.38768
3327 1 14.5772 62.9115 9.96741
9350 2 15.4861 64.4831 8.67452
9683 2 12.7572 62.9039 8.68771
3328 1 16.3937 62.8963 7.4007
2977 1 17.3062 64.4898 9.95384
9375 2 18.2135 62.9039 8.68771
2981 1 19.1225 64.4764 7.38768
2976 1 20.0335 62.9115 9.96741
9014 2 20.9423 64.4831 8.67452
3828 1 2.75466 67.6376 7.36837
3993 1 0.0261479 66.0569 7.37687
3823 1 0.9387 67.6473 9.93371
10164 2 1.8461 66.0627 8.66357
3857 1 5.48239 66.0569 7.37687
3822 1 3.66627 66.0684 9.94257
9943 2 4.57469 67.6425 8.65496
3613 1 8.2109 67.6376 7.36837
3571 1 6.39494 67.6473 9.93371
3611 1 9.12251 66.0684 9.94257
9942 2 7.30234 66.0627 8.66357
3612 1 10.9386 66.0569 7.37687
3293 1 11.8512 67.6473 9.93371
9647 2 10.0309 67.6425 8.65496
3298 1 13.6671 67.6376 7.36837
3292 1 14.5787 66.0684 9.94257
9349 2 15.4872 67.6425 8.65496
9686 2 12.7586 66.0627 8.66357
3331 1 16.3949 66.0569 7.37687
2954 1 17.3074 67.6473 9.93371
9348 2 18.2148 66.0627 8.66357
2980 1 19.1234 67.6376 7.36837
2979 1 20.035 66.0684 9.94257
8999 2 20.9434 67.6425 8.65496
3827 1 2.75504 70.7997 7.35857
3994 1 0.0268039 69.2186 7.36225
3796 1 0.939268 70.8057 9.92353
10139 2 1.8469 69.2226 8.64876
3826 1 5.48304 69.2186 7.36225
3825 1 3.6672 69.2264 9.92734
9908 2 4.57516 70.8028 8.64505
3575 1 8.21128 70.7997 7.35857
3569 1 9.12344 69.2264 9.92734
3570 1 6.39551 70.8057 9.92353
9945 2 7.30313 69.2226 8.64876
3615 1 10.9393 69.2186 7.36225
3254 1 11.8517 70.8057 9.92353
9646 2 10.0314 70.8028 8.64505
3297 1 13.6675 70.7997 7.35857
3295 1 14.5797 69.2264 9.92734
9318 2 15.4876 70.8028 8.64505
9645 2 12.7594 69.2226 8.64876
3296 1 16.3955 69.2186 7.36225
2953 1 17.308 70.8057 9.92353
9351 2 18.2156 69.2226 8.64876
2957 1 19.1238 70.7997 7.35857
2952 1 20.0359 69.2264 9.92734
8998 2 20.9439 70.8028 8.64505
3800 1 2.7548 73.9621 7.35865
3977 1 0.0268784 72.3809 7.35737
3795 1 0.939039 73.9644 9.92368
10140 2 1.84702 72.3831 8.64385
3829 1 5.48312 72.3809 7.35737
3794 1 3.66737 72.385 9.9223
9907 2 4.57493 73.9634 8.64517
3574 1 8.21104 73.9621 7.35865
3531 1 6.39528 73.9644 9.92368
3572 1 9.12361 72.385 9.9223
9906 2 7.30326 72.3831 8.64385
3573 1 10.9394 72.3809 7.35737
3253 1 11.8515 73.9644 9.92368
9602 2 10.0312 73.9634 8.64517
3258 1 13.6673 73.9621 7.35865
3252 1 14.5799 72.385 9.9223
9317 2 15.4874 73.9634 8.64517
9648 2 12.7595 72.3831 8.64385
3299 1 16.3956 72.3809 7.35737
2922 1 17.3078 73.9644 9.92368
9316 2 18.2157 72.3831 8.64385
2956 1 19.1235 73.9621 7.35865
2955 1 20.0361 72.385 9.9223
8975 2 20.9436 73.9634 8.64517
3978 1 0.026339 75.5432 7.36241
10115 2 1.84642 75.5436 8.649
3798 1 5.48258 75.5432 7.36241
3797 1 3.66674 75.5436 9.92763
3529 1 9.12298 75.5436 9.92763
9909 2 7.30266 75.5436 8.649
3576 1 10.9388 75.5432 7.36241
3255 1 14.5792 75.5436 9.92763
9600 2 12.7589 75.5436 8.649
3256 1 16.3951 75.5432 7.36241
9319 2 18.2151 75.5436 8.649
2920 1 20.0355 75.5436 9.92763
3799 1 2.75397 77.1242 7.36859
3961 1 0.0252258 78.7049 7.37715
3768 1 0.938019 77.1227 9.93413
10116 2 1.84517 78.7036 8.664
3801 1 5.48146 78.7049 7.37715
3766 1 3.66537 78.7017 9.9431
9872 2 4.57399 77.1237 8.6553
3535 1 8.21021 77.1242 7.36859
3530 1 6.39426 77.1227 9.93413
3532 1 9.12161 78.7017 9.9431
9870 2 7.30141 78.7036 8.664
3533 1 10.9377 78.7049 7.37715
3207 1 11.8505 77.1227 9.93413
9601 2 10.0302 77.1237 8.6553
3257 1 13.6664 77.1242 7.36859
3205 1 14.5778 78.7017 9.9431
9278 2 15.4865 77.1237 8.6553
9603 2 12.7576 78.7036 8.664
3259 1 16.3939 78.7049 7.37715
2921 1 17.3067 77.1227 9.93413
9276 2 18.2139 78.7036 8.664
2925 1 19.1227 77.1242 7.36859
2923 1 20.0341 78.7017 9.9431
8974 2 20.9427 77.1237 8.6553
3772 1 2.7526 80.2854 7.38799
3962 1 0.0236319 81.8656 7.40103
3767 1 0.936329 80.2803 9.95446
10092 2 1.84337 81.8624 8.68825
3770 1 5.47987 81.8656 7.40103
3769 1 3.66341 81.8586 9.96808
9871 2 4.57245 80.2831 8.67502
3534 1 8.20884 80.2854 7.38799
3490 1 9.11964 81.8586 9.96808
3492 1 6.39257 80.2803 9.95446
9873 2 7.29961 81.8624 8.68825
3536 1 10.9361 81.8656 7.40103
3206 1 11.8488 80.2803 9.95446
9556 2 10.0287 80.2831 8.67502
3211 1 13.6651 80.2854 7.38799
3208 1 14.5759 81.8586 9.96808
9277 2 15.4849 80.2831 8.67502
9554 2 12.7559 81.8624 8.68825
3209 1 16.3923 81.8656 7.40103
2882 1 17.305 80.2803 9.95446
9279 2 18.2121 81.8624 8.68825
2924 1 19.1213 80.2854 7.38799
2880 1 20.0321 81.8586 9.96808
8943 2 20.9412 80.2831 8.67502
3771 1 2.75081 83.4453 7.41613
3946 1 0.0216597 85.0247 7.43316
3744 1 0.934139 83.4366 9.98385
10093 2 1.84117 85.0197 8.7208
3773 1 5.4779 85.0247 7.43316
3742 1 3.66102 85.0142 10.0016
9840 2 4.57044 83.4413 8.70356
3496 1 8.20705 83.4453 7.41613
3491 1 6.39038 83.4366 9.98385
3493 1 9.11726 85.0142 10.0016
9838 2 7.29741 85.0197 8.7208
3494 1 10.9341 85.0247 7.43316
3160 1 11.8466 83.4366 9.98385
9555 2 10.0267 83.4413 8.70356
3210 1 13.6633 83.4453 7.41613
3158 1 14.5735 85.0142 10.0016
9231 2 15.4829 83.4413 8.70356
9557 2 12.7536 85.0197 8.7208
3212 1 16.3904 85.0247 7.43316
2881 1 17.3029 83.4366 9.98385
9229 2 18.2099 85.0197 8.7208
2885 1 19.1195 83.4453 7.41613
2883 1 20.0297 85.0142 10.0016
8942 2 20.9392 83.4413 8.70356
3748 1 2.74868 86.6035 7.45195
3947 1 0.019385 88.1819 7.47234
3743 1 0.93159 86.5914 10.0211
10076 2 1.83867 88.1752 8.76041
3746 1 5.47562 88.1819 7.47234
3745 1 3.65833 88.1681 10.0423
9839 2 4.56807 86.5977 8.73981
3495 1 8.20491 86.6035 7.45195
3458 1 9.11456 88.1681 10.0423
3460 1 6.38783 86.5914 10.0211
9841 2 7.2949 88.1752 8.76041
3497 1 10.9319 88.1819 7.47234
3159 1 11.8441 86.5914 10.0211
9516 2 10.0243 86.5977 8.73981
3164 1 13.6612 86.6035 7.45195
3161 1 14.5708 88.1681 10.0423
9230 2 15.4805 86.5977 8.73981
9514 2 12.7511 88.1752 8.76041
3162 1 16.3881 88.1819 7.47234
2836 1 17.3003 86.5914 10.0211
9232 2 18.2074 88.1752 8.76041
2884 1 19.1174 86.6035 7.45195
2834 1 20.027 88.1681 10.0423
8904 2 20.9368 86.5977 8.73981
3747 1 2.74627 89.7598 7.49415
3938 1 0.0168474 91.3372 7.51719
3728 1 0.928756 89.7444 10.0649
10077 2 1.8359 91.3289 8.80564
3749 1 5.47309 91.3372 7.51719
3726 1 3.65536 91.3202 10.0887
9816 2 4.56543 89.7523 8.78242
3464 1 8.20251 89.7598 7.49415
3459 1 6.38499 89.7444 10.0649
3461 1 9.1116 91.3202 10.0887
9814 2 7.29214 91.3289 8.80564
3462 1 10.9293 91.3372 7.51719
3120 1 11.8412 89.7444 10.0649
9515 2 10.0217 89.7523 8.78242
3163 1 13.6587 89.7598 7.49415
3118 1 14.5678 91.3202 10.0887
9184 2 15.4779 89.7523 8.78242
9517 2 12.7484 91.3289 8.80564
3165 1 16.3856 91.3372 7.51719
2835 1 17.2975 89.7444 10.0649
9182 2 18.2046 91.3289 8.80564
2839 1 19.115 89.7598 7.49415
2837 1 20.0241 91.3202 10.0887
8903 2 20.9341 89.7523 8.78242
3732 1 2.74361 92.9141 7.54126
3939 1 0.0140633 94.4905 7.56617
3727 1 0.925657 92.8956 10.1135
10068 2 1.8329 94.4807 8.85491
3730 1 5.4703 94.4905 7.56617
3729 1 3.65213 94.4707 10.1391
9815 2 4.56255 92.905 8.82987
3463 1 8.19984 92.9141 7.54126
3434 1 9.10837 94.4707 10.1391
3436 1 6.3819 92.8956 10.1135
9817 2 7.28914 94.4807 8.85491
3465 1 10.9265 94.4905 7.56617
3119 1 11.8381 92.8956 10.1135
9484 2 10.0188 92.905 8.82987
3124 1 13.6561 92.9141 7.54126
3121 1 14.5646 94.4707 10.1391
9183 2 15.475 92.905 8.82987
9482 2 12.7454 94.4807 8.85491
3122 1 16.3828 94.4905 7.56617
2791 1 17.2944 92.8956 10.1135
9185 2 18.2016 94.4807 8.85491
2838 1 19.1123 92.9141 7.54126
2789 1 20.0208 94.4707 10.1391
8864 2 20.9313 92.905 8.82987
3731 1 2.74071 96.0664 7.59172
3937 1 0.0110369 97.642 7.61772
3720 1 0.922307 96.0454 10.1653
10069 2 1.82968 97.631 8.90665
3733 1 5.46728 97.642 7.61772
3718 1 3.64867 97.6198 10.1919
9800 2 4.55943 96.056 8.88056
3440 1 8.19695 96.0664 7.59172
3435 1 6.37855 96.0454 10.1653
3437 1 9.10491 97.6198 10.1919
9798 2 7.28591 97.631 8.90665
3438 1 10.9235 97.642 7.61772
3088 1 11.8348 96.0454 10.1653
9483 2 10.0157 96.056 8.88056
3123 1 13.6532 96.0664 7.59172
3086 1 14.5611 97.6198 10.1919
9144 2 15.4719 96.056 8.88056
9485 2 12.7422 97.631 8.90665
3125 1 16.3798 97.642 7.61772
2790 1 17.291 96.0454 10.1653
9142 2 18.1984 97.631 8.90665
2794 1 19.1094 96.0664 7.59172
2792 1 20.0174 97.6198 10.1919
8863 2 20.9281 96.056 8.88056
3721 1 2.73757 99.2171 7.64404
3719 1 0.918753 99.1939 10.2187
9799 2 4.55612 99.2056 8.93299
3439 1 8.19381 99.2171 7.64404
3417 1 6.37499 99.1939 10.2187
3087 1 11.8312 99.1939 10.2187
9457 2 10.0124 99.2056 8.93299
3089 1 13.65 99.2171 7.64404
9143 2 15.4686 99.2056 8.93299
2750 1 17.2875 99.1939 10.2187
2793 1 19.1063 99.2171 7.64404
8824 2 20.9248 99.2056 8.93299
10003 2 2.7471 51.8888 11.4011
3638 1 4.56621 51.9016 12.6856
9711 2 8.20333 51.8888 11.4011
3346 1 10.0225 51.9016 12.6856
2990 1 15.4787 51.9016 12.6856
9386 2 13.6596 51.8888 11.4011
2640 1 20.9349 51.9016 12.6856
9021 2 19.1158 51.8888 11.4011
3876 1 1.83978 53.4754 12.6597
9975 2 2.75015 55.0382 11.3517
10185 2 0.0205397 53.4633 11.3759
3637 1 4.56952 55.0495 12.6348
10004 2 5.47678 53.4633 11.3759
3636 1 7.29602 53.4754 12.6597
9710 2 8.20639 55.0382 11.3517
3322 1 10.0258 55.0495 12.6348
9709 2 10.933 53.4633 11.3759
2989 1 15.482 55.0495 12.6348
3347 1 12.7523 53.4754 12.6597
9370 2 13.6626 55.0382 11.3517
2988 1 18.2085 53.4754 12.6597
9387 2 16.3893 53.4633 11.3759
2639 1 20.9382 55.0495 12.6348
9020 2 19.1189 55.0382 11.3517
3848 1 1.84295 56.6241 12.6111
9974 2 2.75293 58.1893 11.3073
10186 2 0.023457 56.6135 11.3288
3606 1 4.57255 58.199 12.5889
9973 2 5.4797 56.6135 11.3288
3639 1 7.29919 56.6241 12.6111
9681 2 8.20917 58.1893 11.3073
3321 1 10.0288 58.199 12.5889
9712 2 10.9359 56.6135 11.3288
2974 1 15.485 58.199 12.5889
3320 1 12.7554 56.6241 12.6111
9369 2 13.6654 58.1893 11.3073
2991 1 18.2117 56.6241 12.6111
9368 2 16.3922 56.6135 11.3288
2638 1 20.9413 58.199 12.5889
9013 2 19.1216 58.1893 11.3073
3849 1 1.84585 59.7744 12.5684
9940 2 2.75541 61.3421 11.2694
10161 2 0.0260947 59.7655 11.2874
3605 1 4.57531 61.3502 12.5498
9976 2 5.48233 59.7655 11.2874
3604 1 7.30209 59.7744 12.5684
9680 2 8.21165 61.3421 11.2694
3290 1 10.0315 61.3502 12.5498
9679 2 10.9386 59.7655 11.2874
2973 1 15.4878 61.3502 12.5498
3323 1 12.7583 59.7744 12.5684
9346 2 13.6679 61.3421 11.2694
2972 1 18.2146 59.7744 12.5684
9371 2 16.3948 59.7655 11.2874
2631 1 20.944 61.3502 12.5498
9012 2 19.1241 61.3421 11.2694
3820 1 1.84843 62.9264 12.5333
9939 2 2.75751 64.4965 11.2396
10162 2 0.0284002 62.9192 11.2534
3567 1 4.57768 64.5029 12.519
9938 2 5.48464 62.9192 11.2534
3607 1 7.30467 62.9264 12.5333
9643 2 8.21374 64.4965 11.2396
3289 1 10.0339 64.5029 12.519
9682 2 10.9409 62.9192 11.2534
2950 1 15.4902 64.5029 12.519
3288 1 12.7609 62.9264 12.5333
9345 2 13.67 64.4965 11.2396
2975 1 18.2171 62.9264 12.5333
9344 2 16.3971 62.9192 11.2534
2630 1 20.9464 64.5029 12.519
8997 2 19.1262 64.4965 11.2396
3821 1 1.85054 66.0798 12.5072
9904 2 2.75902 67.6522 11.2192
10137 2 0.0302302 66.0743 11.2282
3566 1 4.57945 67.6569 12.4979
9941 2 5.48647 66.0743 11.2282
3565 1 7.30678 66.0798 12.5072
9642 2 8.21526 67.6522 11.2192
3250 1 10.0357 67.6569 12.4979
9641 2 10.9427 66.0743 11.2282
2949 1 15.4919 67.6569 12.4979
3291 1 12.763 66.0798 12.5072
9314 2 13.6715 67.6522 11.2192
2948 1 18.2193 66.0798 12.5072
9347 2 16.3989 66.0743 11.2282
2615 1 20.9482 67.6569 12.4979
8996 2 19.1277 67.6522 11.2192
3792 1 1.8519 69.2341 12.4912
9903 2 2.75973 70.8087 11.2089
10138 2 0.0313695 69.2304 11.2127
3527 1 4.58032 70.8115 12.4872
9902 2 5.48761 69.2304 11.2127
3568 1 7.30814 69.2341 12.4912
9598 2 8.21597 70.8087 11.2089
3249 1 10.0366 70.8115 12.4872
9644 2 10.9438 69.2304 11.2127
2918 1 15.4928 70.8115 12.4872
3248 1 12.7644 69.2341 12.4912
9313 2 13.6722 70.8087 11.2089
2951 1 18.2206 69.2341 12.4912
9312 2 16.4001 69.2304 11.2127
2614 1 20.949 70.8115 12.4872
8973 2 19.1284 70.8087 11.2089
3793 1 1.85223 72.389 12.486
9868 2 2.7595 73.9655 11.2091
10113 2 0.0316202 72.3871 11.2076
3526 1 4.58009 73.9665 12.4875
9905 2 5.48786 72.3871 11.2076
3525 1 7.30847 72.389 12.486
9597 2 8.21574 73.9655 11.2091
3203 1 10.0363 73.9665 12.4875
9596 2 10.9441 72.3871 11.2076
2917 1 15.4926 73.9665 12.4875
3251 1 12.7647 72.389 12.486
9274 2 13.672 73.9655 11.2091
2916 1 18.2209 72.389 12.486
9315 2 16.4003 72.3871 11.2076
2591 1 20.9488 73.9665 12.4875
8972 2 19.1282 73.9655 11.2091
3764 1 1.85143 75.5439 12.4917
10114 2 0.0309061 75.5438 11.2131
9866 2 5.48714 75.5438 11.2131
3528 1 7.30767 75.5439 12.4917
9599 2 10.9434 75.5438 11.2131
3201 1 12.7639 75.5439 12.4917
2919 1 18.2202 75.5439 12.4917
9272 2 16.3996 75.5438 11.2131
3765 1 1.84963 78.6982 12.508
9867 2 2.75833 77.122 11.2197
10090 2 0.0293168 78.6999 11.2289
3488 1 4.57876 77.1211 12.4985
9869 2 5.48556 78.6999 11.2289
3486 1 7.30587 78.6982 12.508
9552 2 8.21457 77.122 11.2197
3202 1 10.035 77.1211 12.4985
9550 2 10.9418 78.6999 11.2289
2878 1 15.4912 77.1211 12.4985
3204 1 12.7621 78.6982 12.508
9273 2 13.6708 77.122 11.2197
2876 1 18.2183 78.6982 12.508
9275 2 16.398 78.6999 11.2289
2590 1 20.9475 77.1211 12.4985
8941 2 19.127 77.122 11.2197
3740 1 1.8471 81.8516 12.5344
9836 2 2.75638 80.2776 11.2404
10091 2 0.0270579 81.855 11.2543
3487 1 4.57656 80.2751 12.52
9834 2 5.4833 81.855 11.2543
3489 1 7.30334 81.8516 12.5344
9551 2 8.21261 80.2776 11.2404
3156 1 10.0328 80.2751 12.52
9553 2 10.9395 81.855 11.2543
2877 1 15.489 80.2751 12.52
3154 1 12.7596 81.8516 12.5344
9227 2 13.6689 80.2776 11.2404
2879 1 18.2158 81.8516 12.5344
9225 2 16.3958 81.855 11.2543
2559 1 20.9453 80.2751 12.52
8940 2 19.1251 80.2776 11.2404
3741 1 1.84411 85.0036 12.5696
9835 2 2.75387 83.4321 11.2703
10074 2 0.0243463 85.0088 11.2883
3456 1 4.57377 83.4278 12.551
9837 2 5.48058 85.0088 11.2883
3454 1 7.30035 85.0036 12.5696
9512 2 8.21011 83.4321 11.2703
3155 1 10.03 83.4278 12.551
9510 2 10.9368 85.0088 11.2883
2832 1 15.4862 83.4278 12.551
3157 1 12.7566 85.0036 12.5696
9226 2 13.6663 83.4321 11.2703
2830 1 18.2128 85.0036 12.5696
9228 2 16.3931 85.0088 11.2883
2558 1 20.9425 83.4278 12.551
8902 2 19.1226 83.4321 11.2703
3724 1 1.84083 88.1541 12.6122
9812 2 2.75099 86.585 11.3082
10075 2 0.0213255 88.1609 11.3296
3455 1 4.57062 86.579 12.5901
9810 2 5.47756 88.1609 11.3296
3457 1 7.29707 88.1541 12.6122
9511 2 8.20723 86.585 11.3082
3116 1 10.0269 86.579 12.5901
9513 2 10.9338 88.1609 11.3296
2831 1 15.4831 86.579 12.5901
3114 1 12.7533 88.1541 12.6122
9180 2 13.6635 86.585 11.3082
2833 1 18.2095 88.1541 12.6122
9178 2 16.39 88.1609 11.3296
2523 1 20.9393 86.579 12.5901
8901 2 19.1197 86.585 11.3082
3725 1 1.8373 91.303 12.6605
9811 2 2.74784 89.7363 11.3524
10066 2 0.0180529 91.3113 11.3765
3432 1 4.56722 89.7287 12.6358
9813 2 5.47429 91.3113 11.3765
3430 1 7.29354 91.303 12.6605
9480 2 8.20408 89.7363 11.3524
3115 1 10.0235 89.7287 12.6358
9478 2 10.9305 91.3113 11.3765
2787 1 15.4797 89.7287 12.6358
3117 1 12.7498 91.303 12.6605
9179 2 13.6603 89.7363 11.3524
2785 1 18.206 91.303 12.6605
9181 2 16.3868 91.3113 11.3765
2522 1 20.9359 89.7287 12.6358
8862 2 19.1166 89.7363 11.3524
3716 1 1.83352 94.4506 12.7126
9796 2 2.74445 92.886 11.4015
10067 2 0.0145456 94.4603 11.4272
3431 1 4.56356 92.8769 12.6862
9794 2 5.47078 94.4603 11.4272
3433 1 7.28976 94.4506 12.7126
9479 2 8.20069 92.886 11.4015
3084 1 10.0198 92.8769 12.6862
9481 2 10.927 94.4603 11.4272
2786 1 15.476 92.8769 12.6862
3082 1 12.746 94.4506 12.7126
9140 2 13.6569 92.886 11.4015
2788 1 18.2022 94.4506 12.7126
9138 2 16.3833 94.4603 11.4272
2487 1 20.9323 92.8769 12.6862
8861 2 19.1132 92.886 11.4015
3717 1 1.82954 97.5972 12.7667
9795 2 2.74083 96.0344 11.4535
10065 2 0.0108379 97.6083 11.4802
3416 1 4.55967 96.024 12.7395
9797 2 5.46708 97.6083 11.4802
3414 1 7.28578 97.5972 12.7667
9456 2 8.19707 96.0344 11.4535
3083 1 10.0159 96.024 12.7395
9454 2 10.9233 97.6083 11.4802
2749 1 15.4722 96.024 12.7395
3085 1 12.742 97.5972 12.7667
9139 2 13.6533 96.0344 11.4535
2747 1 18.1983 97.5972 12.7667
9141 2 16.3796 97.6083 11.4802
2486 1 20.9284 96.024 12.7395
8823 2 19.1095 96.0344 11.4535
9785 2 2.73705 99.1819 11.507
3415 1 4.55563 99.1704 12.7939
9455 2 8.19329 99.1819 11.507
3057 1 10.0119 99.1704 12.7939
2748 1 15.4681 99.1704 12.7939
9105 2 13.6495 99.1819 11.507
2451 1 20.9243 99.1704 12.7939
8822 2 19.1058 99.1819 11.507
9971 2 0.928563 51.916 13.9733
3634 1 2.74744 51.929 15.2585
3874 1 0.0172255 50.357 15.2861
10001 2 3.65475 50.3432 14.0001
3633 1 5.47346 50.357 15.2861
9706 2 9.11099 50.3432 14.0001
9707 2 6.3848 51.916 13.9733
3318 1 8.20368 51.929 15.2585
9366 2 11.841 51.916 13.9733
3344 1 10.9297 50.357 15.2861
9384 2 14.5672 50.3432 14.0001
2986 1 13.6599 51.929 15.2585
9018 2 17.2973 51.916 13.9733
2985 1 16.3859 50.357 15.2861
9017 2 20.0235 50.3432 14.0001
2637 1 19.1162 51.929 15.2585
9970 2 0.932248 55.0623 13.922
3602 1 2.75144 55.0737 15.2055
3846 1 0.0213493 53.5012 15.2316
9969 2 3.65855 53.489 13.9472
3635 1 5.47759 53.5012 15.2316
9677 2 6.38849 55.0623 13.922
9708 2 9.11479 53.489 13.9472
3317 1 8.20768 55.0737 15.2055
9365 2 11.8447 55.0623 13.922
3316 1 10.9338 53.5012 15.2316
9364 2 14.571 53.489 13.9472
2970 1 13.6639 55.0737 15.2055
9010 2 17.301 55.0623 13.922
2987 1 16.3901 53.5012 15.2316
9019 2 20.0273 53.489 13.9472
2636 1 19.1202 55.0737 15.2055
9936 2 0.935698 58.21 13.8755
3601 1 2.75522 58.2198 15.1573
3847 1 0.0252346 56.6466 15.1807
9972 2 3.66212 56.636 13.898
3600 1 5.48147 56.6466 15.1807
9675 2 9.11836 56.636 13.898
9676 2 6.39194 58.21 13.8755
3286 1 8.21146 58.2198 15.1573
9342 2 11.8482 58.21 13.8755
3319 1 10.9377 56.6466 15.1807
9367 2 14.5746 56.636 13.898
2969 1 13.6677 58.2198 15.1573
9009 2 17.3044 58.21 13.8755
2968 1 16.3939 56.6466 15.1807
9008 2 20.0308 56.636 13.898
2629 1 19.1239 58.2198 15.1573
9935 2 0.938901 61.3593 13.8357
3563 1 2.7588 61.3674 15.116
3818 1 0.0289157 59.7934 15.1357
9934 2 3.66545 59.7845 13.8546
3603 1 5.48515 59.7934 15.1357
9639 2 6.39514 61.3593 13.8357
9678 2 9.12169 59.7845 13.8546
3285 1 8.21504 61.3674 15.116
9341 2 11.8514 61.3593 13.8357
3284 1 10.9414 59.7934 15.1357
9340 2 14.5779 59.7845 13.8546
2946 1 13.6713 61.3674 15.116
8994 2 17.3076 61.3593 13.8357
2971 1 16.3976 59.7934 15.1357
9011 2 20.0342 59.7845 13.8546
2628 1 19.1275 61.3674 15.116
9900 2 0.941725 64.5101 13.8044
3562 1 2.76205 64.5165 15.0834
3819 1 0.0323629 62.9418 15.0985
9937 2 3.66849 62.9345 13.8189
3561 1 5.4886 62.9418 15.0985
9637 2 9.12473 62.9345 13.8189
9638 2 6.39796 64.5101 13.8044
3246 1 8.21829 64.5165 15.0834
9310 2 11.8542 64.5101 13.8044
3287 1 10.9448 62.9418 15.0985
9343 2 14.581 62.9345 13.8189
2945 1 13.6745 64.5165 15.0834
8993 2 17.3104 64.5101 13.8044
2944 1 16.4011 62.9418 15.0985
8992 2 20.0372 62.9345 13.8189
2613 1 19.1308 64.5165 15.0834
9899 2 0.943868 67.662 13.7829
3523 1 2.7646 67.6666 15.0611
3790 1 0.0353258 66.0914 15.0709
9898 2 3.67103 66.0859 13.7924
3564 1 5.49156 66.0914 15.0709
9594 2 6.40011 67.662 13.7829
9640 2 9.12726 66.0859 13.7924
3245 1 8.22084 67.6666 15.0611
9309 2 11.8563 67.662 13.7829
3244 1 10.9478 66.0914 15.0709
9308 2 14.5835 66.0859 13.7924
2914 1 13.6771 67.6666 15.0611
8970 2 17.3126 67.662 13.7829
2947 1 16.404 66.0914 15.0709
8995 2 20.0397 66.0859 13.7924
2612 1 19.1333 67.6666 15.0611
9864 2 0.944951 70.8146 13.7721
3522 1 2.76594 70.8174 15.0498
3791 1 0.0373312 69.2419 15.054
9901 2 3.67268 69.2382 13.7761
3521 1 5.49357 69.2419 15.054
9592 2 9.12892 69.2382 13.7761
9593 2 6.40119 70.8146 13.7721
3199 1 8.22217 70.8174 15.0498
9270 2 11.8574 70.8146 13.7721
3247 1 10.9498 69.2419 15.054
9311 2 14.5852 69.2382 13.7761
2913 1 13.6784 70.8174 15.0498
8969 2 17.3137 70.8146 13.7721
2912 1 16.406 69.2419 15.054
8968 2 20.0414 69.2382 13.7761
2589 1 19.1347 70.8174 15.0498
9863 2 0.944711 73.9674 13.7723
3484 1 2.76569 73.9683 15.0502
3762 1 0.0378995 72.3928 15.0486
9862 2 3.67312 72.391 13.7708
3524 1 5.49414 72.3928 15.0486
9548 2 6.40095 73.9674 13.7723
9595 2 9.12936 72.391 13.7708
3198 1 8.22193 73.9683 15.0502
9269 2 11.8572 73.9674 13.7723
3197 1 10.9504 72.3928 15.0486
9268 2 14.5856 72.391 13.7708
2874 1 13.6782 73.9683 15.0502
8938 2 17.3134 73.9674 13.7723
2915 1 16.4066 72.3928 15.0486
8971 2 20.0418 72.391 13.7708
2588 1 19.1344 73.9683 15.0502
3763 1 0.0368385 75.5438 15.0547
9865 2 3.67221 75.5437 13.7767
3482 1 5.49308 75.5438 15.0547
9546 2 9.12844 75.5437 13.7767
3200 1 10.9493 75.5438 15.0547
9271 2 14.5847 75.5437 13.7767
2872 1 16.4056 75.5438 15.0547
8936 2 20.0409 75.5437 13.7767
9832 2 0.94316 77.12 13.7837
3483 1 2.76387 77.1191 15.0621
3738 1 0.0343695 78.6942 15.0722
9830 2 3.67009 78.696 13.7934
3485 1 5.49061 78.6942 15.0722
9547 2 6.3994 77.12 13.7837
9549 2 9.12633 78.696 13.7934
3152 1 8.22011 77.1191 15.0621
9223 2 11.8556 77.12 13.7837
3150 1 10.9468 78.6942 15.0722
9221 2 14.5826 78.696 13.7934
2873 1 13.6763 77.1191 15.0621
8937 2 17.3119 77.12 13.7837
2875 1 16.4031 78.6942 15.0722
8939 2 20.0388 78.696 13.7934
2557 1 19.1326 77.1191 15.0621
9831 2 0.940576 80.2718 13.8056
3452 1 2.76088 80.2691 15.0849
3739 1 0.0309798 81.8438 15.1002
9833 2 3.66714 81.8474 13.8203
3450 1 5.48722 81.8438 15.1002
9506 2 9.12337 81.8474 13.8203
9508 2 6.39681 80.2718 13.8056
3151 1 8.21711 80.2691 15.0849
9222 2 11.8531 80.2718 13.8056
3153 1 10.9435 81.8438 15.1002
9224 2 14.5796 81.8474 13.8203
2828 1 13.6734 80.2691 15.0849
8899 2 17.3093 80.2718 13.8056
2826 1 16.3997 81.8438 15.1002
8897 2 20.0359 81.8474 13.8203
2556 1 19.1296 80.2691 15.0849
9808 2 0.937339 83.4226 13.8371
3451 1 2.75721 83.4182 15.1178
3722 1 0.027131 84.9922 15.1375
9806 2 3.66369 84.9974 13.8561
3453 1 5.48337 84.9922 15.1375
9507 2 6.39358 83.4226 13.8371
9509 2 9.11993 84.9974 13.8561
3112 1 8.21345 83.4182 15.1178
9176 2 11.8498 83.4226 13.8371
3110 1 10.9396 84.9922 15.1375
9174 2 14.5762 84.9974 13.8561
2827 1 13.6697 83.4182 15.1178
8898 2 17.3061 83.4226 13.8371
2829 1 16.3958 84.9922 15.1375
8900 2 20.0324 84.9974 13.8561
2521 1 19.1259 83.4182 15.1178
9807 2 0.933745 86.5719 13.8769
3428 1 2.75324 86.5658 15.1592
3723 1 0.0230637 88.1391 15.1825
9809 2 3.65998 88.146 13.8994
3426 1 5.4793 88.1391 15.1825
9474 2 9.11622 88.146 13.8994
9476 2 6.38998 86.5719 13.8769
3111 1 8.20948 86.5658 15.1592
9175 2 11.8462 86.5719 13.8769
3113 1 10.9355 88.1391 15.1825
9177 2 14.5725 88.146 13.8994
2783 1 13.6657 86.5658 15.1592
8859 2 17.3025 86.5719 13.8769
2781 1 16.3918 88.1391 15.1825
8857 2 20.0287 88.146 13.8994
2520 1 19.122 86.5658 15.1592
9792 2 0.929926 89.7197 13.9233
3427 1 2.74908 89.712 15.2072
3714 1 0.0188152 91.2846 15.233
9790 2 3.65606 91.2932 13.9483
3429 1 5.47505 91.2846 15.233
9475 2 6.38616 89.7197 13.9233
9477 2 9.1123 91.2932 13.9483
3080 1 8.20532 89.712 15.2072
9136 2 11.8424 89.7197 13.9233
3078 1 10.9313 91.2846 15.233
9134 2 14.5685 91.2932 13.9483
2782 1 13.6616 89.712 15.2072
8858 2 17.2986 89.7197 13.9233
2784 1 16.3875 91.2846 15.233
8860 2 20.0248 91.2932 13.9483
2485 1 19.1178 89.712 15.2072
9791 2 0.925904 92.8663 13.9742
3412 1 2.74474 92.857 15.2598
3715 1 0.0143734 94.4291 15.2871
9793 2 3.65194 94.4392 14.0008
3410 1 5.47061 94.4291 15.2871
9450 2 9.10818 94.4392 14.0008
9452 2 6.38214 92.8663 13.9742
3079 1 8.20097 92.857 15.2598
9135 2 11.8384 92.8663 13.9742
3081 1 10.9269 94.4291 15.2871
9137 2 14.5644 94.4392 14.0008
2745 1 13.6572 92.857 15.2598
8820 2 17.2946 92.8663 13.9742
2743 1 16.3831 94.4291 15.2871
8818 2 20.0207 94.4392 14.0008
2484 1 19.1135 92.857 15.2598
9784 2 0.921703 96.012 14.0278
3411 1 2.74021 96.0012 15.3147
3713 1 0.00979785 97.5733 15.3425
9782 2 3.64768 97.5848 14.0551
3413 1 5.46604 97.5733 15.3425
9451 2 6.37794 96.012 14.0278
9453 2 9.10392 97.5848 14.0551
3056 1 8.19645 96.0012 15.3147
9104 2 11.8342 96.012 14.0278
3054 1 10.9223 97.5733 15.3425
9102 2 14.5602 97.5848 14.0551
2744 1 13.6527 96.0012 15.3147
8819 2 17.2904 96.012 14.0278
2746 1 16.3785 97.5733 15.3425
8821 2 20.0164 97.5848 14.0551
2450 1 19.1089 96.0012 15.3147
9783 2 0.917407 99.1575 14.0823
3401 1 2.73562 99.1455 15.3703
5922 1 0.0052326 100.718 15.3978
5681 1 5.46147 100.718 15.3978
9433 2 6.37365 99.1575 14.0823
3055 1 8.19186 99.1455 15.3703
9103 2 11.8299 99.1575 14.0823
5392 1 10.9177 100.718 15.3978
2712 1 13.6481 99.1455 15.3703
8785 2 17.2861 99.1575 14.0823
5033 1 16.3739 100.718 15.3978
2449 1 19.1043 99.1455 15.3703
9967 2 1.83535 50.3736 16.5744
3598 1 0.928076 51.9587 17.8326
9673 2 4.56576 51.9449 16.5466
3632 1 3.65371 50.3883 17.8613
9705 2 7.29159 50.3736 16.5744
3313 1 9.10995 50.3883 17.8613
3314 1 6.38431 51.9587 17.8326
9362 2 10.022 51.9449 16.5466
2966 1 11.8406 51.9587 17.8326
9006 2 15.4782 51.9449 16.5466
9361 2 12.7478 50.3736 16.5744
2984 1 14.5662 50.3883 17.8613
9016 2 18.2041 50.3736 16.5744
2634 1 17.2968 51.9587 17.8326
8704 2 20.9345 51.9449 16.5466
2633 1 20.0224 50.3883 17.8613
9968 2 1.83989 53.5163 16.5194
3597 1 0.932932 55.0999 17.777
9672 2 4.57022 55.0879 16.493
3596 1 3.65864 53.5292 17.8044
9671 2 7.29613 53.5163 16.5194
3282 1 6.38917 55.0999 17.777
3315 1 9.11488 53.5292 17.8044
9338 2 10.0265 55.0879 16.493
2965 1 11.8454 55.0999 17.777
9005 2 15.4827 55.0879 16.493
9363 2 12.7524 53.5163 16.5194
2964 1 14.5711 53.5292 17.8044
9004 2 18.2086 53.5163 16.5194
2626 1 17.3016 55.0999 17.777
8703 2 20.9389 55.0879 16.493
2635 1 20.0274 53.5292 17.8044
9932 2 1.84428 56.6598 16.4677
3559 1 0.93766 58.2423 17.7259
9635 2 4.57453 58.232 16.4439
3599 1 3.66343 56.6709 17.7507
9674 2 7.30052 56.6598 16.4677
3280 1 9.11966 56.6709 17.7507
3281 1 6.3939 58.2423 17.7259
9337 2 10.0308 58.232 16.4439
2942 1 11.8501 58.2423 17.7259
8990 2 15.487 58.232 16.4439
9336 2 12.7568 56.6598 16.4677
2967 1 14.5759 56.6709 17.7507
9007 2 18.213 56.6598 16.4677
2625 1 17.3064 58.2423 17.7259
8702 2 20.9432 58.232 16.4439
2624 1 20.0321 56.6709 17.7507
9933 2 1.84852 59.8046 16.4219
3558 1 0.942337 61.3861 17.6818
9634 2 4.57871 61.3776 16.4018
3557 1 3.66812 59.814 17.7028
9633 2 7.30476 59.8046 16.4219
3242 1 6.39857 61.3861 17.6818
3283 1 9.12436 59.814 17.7028
9306 2 10.0349 61.3776 16.4018
2941 1 11.8548 61.3861 17.6818
8989 2 15.4912 61.3776 16.4018
9339 2 12.761 59.8046 16.4219
2940 1 14.5806 59.814 17.7028
8988 2 18.2172 59.8046 16.4219
2610 1 17.3111 61.3861 17.6818
8695 2 20.9474 61.3776 16.4018
2627 1 20.0368 59.814 17.7028
9896 2 1.85258 62.9508 16.384
3519 1 0.946828 64.5311 17.6471
9590 2 4.58257 64.5244 16.3687
3560 1 3.67275 62.9585 17.6632
9636 2 7.30882 62.9508 16.384
3240 1 9.12899 62.9585 17.6632
3241 1 6.40307 64.5311 17.6471
9305 2 10.0388 64.5244 16.3687
2910 1 11.8593 64.5311 17.6471
8966 2 15.495 64.5244 16.3687
9304 2 12.7651 62.9508 16.384
2943 1 14.5852 62.9585 17.6632
8991 2 18.2213 62.9508 16.384
2609 1 17.3155 64.5311 17.6471
8694 2 20.9513 64.5244 16.3687
2608 1 20.0415 62.9585 17.6632
9897 2 1.85613 66.0982 16.3559
3518 1 0.950548 67.677 17.6234
9589 2 4.58565 67.6722 16.3459
3517 1 3.67696 66.104 17.6338
9588 2 7.31237 66.0982 16.3559
3195 1 6.40679 67.677 17.6234
3243 1 9.1332 66.104 17.6338
9266 2 10.0419 67.6722 16.3459
2909 1 11.863 67.677 17.6234
8965 2 15.4981 67.6722 16.3459
9307 2 12.7686 66.0982 16.3559
2908 1 14.5894 66.104 17.6338
8964 2 18.2248 66.0982 16.3559
2586 1 17.3193 67.677 17.6234
8679 2 20.9544 67.6722 16.3459
2611 1 20.0457 66.104 17.6338
9860 2 1.85857 69.2463 16.3387
3480 1 0.952601 70.8233 17.6115
9544 2 4.58729 70.8205 16.3345
3520 1 3.67996 69.2501 17.6159
9591 2 7.31481 69.2463 16.3387
3193 1 9.13619 69.2501 17.6159
3194 1 6.40884 70.8233 17.6115
9265 2 10.0435 70.8205 16.3345
2870 1 11.8651 70.8233 17.6115
8934 2 15.4998 70.8205 16.3345
9264 2 12.771 69.2463 16.3387
2911 1 14.5924 69.2501 17.6159
8967 2 18.2273 69.2463 16.3387
2585 1 17.3213 70.8233 17.6115
8678 2 20.956 70.8205 16.3345
2584 1 20.0487 69.2501 17.6159
9861 2 1.85929 72.3947 16.3332
3479 1 0.952316 73.9697 17.612
9543 2 4.58703 73.969 16.3349
3478 1 3.68089 72.3965 17.6102
9542 2 7.31553 72.3947 16.3332
3148 1 6.40855 73.9697 17.612
3196 1 9.13713 72.3965 17.6102
9219 2 10.0433 73.969 16.3349
2869 1 11.8648 73.9697 17.612
8933 2 15.4995 73.969 16.3349
9267 2 12.7718 72.3947 16.3332
2868 1 14.5934 72.3965 17.6102
8932 2 18.228 72.3947 16.3332
2554 1 17.321 73.9697 17.612
8655 2 20.9557 73.969 16.3349
2587 1 20.0496 72.3965 17.6102
9828 2 1.85805 75.5432 16.3395
3481 1 3.6794 75.5429 17.6169
9545 2 7.31429 75.5432 16.3395
3146 1 9.13563 75.5429 17.6169
9217 2 12.7705 75.5432 16.3395
2871 1 14.5919 75.5429 17.6169
8935 2 18.2268 75.5432 16.3395
2552 1 20.0481 75.5429 17.6169
9829 2 1.85513 78.6912 16.3573
3448 1 0.949727 77.116 17.6247
9504 2 4.58488 77.1173 16.347
3446 1 3.6759 78.689 17.6356
9502 2 7.31137 78.6912 16.3573
3147 1 6.40597 77.116 17.6247
3149 1 9.13214 78.689 17.6356
9218 2 10.0411 77.1173 16.347
2824 1 11.8622 77.116 17.6247
8895 2 15.4974 77.1173 16.347
9220 2 12.7676 78.6912 16.3573
2822 1 14.5884 78.689 17.6356
8893 2 18.2238 78.6912 16.3573
2553 1 17.3184 77.116 17.6247
8654 2 20.9536 77.1173 16.347
2555 1 20.0446 78.689 17.6356
9804 2 1.85115 81.8385 16.3859
3447 1 0.945544 80.2619 17.6492
9503 2 4.58135 80.265 16.3704
3449 1 3.67126 81.8345 17.6655
9505 2 7.30739 81.8385 16.3859
3106 1 9.1275 81.8345 17.6655
3108 1 6.40178 80.2619 17.6492
9172 2 10.0376 80.265 16.3704
2823 1 11.858 80.2619 17.6492
8894 2 15.4938 80.265 16.3704
9170 2 12.7636 81.8385 16.3859
2825 1 14.5837 81.8345 17.6655
8896 2 18.2199 81.8385 16.3859
2518 1 17.3143 80.2619 17.6492
8627 2 20.9501 80.265 16.3704
2516 1 20.04 81.8345 17.6655
9805 2 1.8467 84.9847 16.424
3424 1 0.940644 83.4069 17.6844
9472 2 4.57708 83.4118 16.4039
3422 1 3.66623 84.9789 17.7055
9470 2 7.30293 84.9847 16.424
3107 1 6.39688 83.4069 17.6844
3109 1 9.12247 84.9789 17.7055
9171 2 10.0333 83.4118 16.4039
2779 1 11.8531 83.4069 17.6844
8855 2 15.4896 83.4118 16.4039
9173 2 12.7592 84.9847 16.424
2777 1 14.5787 84.9789 17.7055
8853 2 18.2154 84.9847 16.424
2517 1 17.3094 83.4069 17.6844
8626 2 20.9458 83.4118 16.4039
2519 1 20.035 84.9789 17.7055
9788 2 1.84207 88.1296 16.4698
3423 1 0.935577 86.5506 17.7285
9471 2 4.57252 86.5573 16.4461
3425 1 3.66115 88.122 17.7533
9473 2 7.29831 88.1296 16.4698
3074 1 9.11739 88.122 17.7533
3076 1 6.39182 86.5506 17.7285
9132 2 10.0288 86.5573 16.4461
2778 1 11.8481 86.5506 17.7285
8854 2 15.485 86.5573 16.4461
9130 2 12.7545 88.1296 16.4698
2780 1 14.5736 88.122 17.7533
8856 2 18.2108 88.1296 16.4698
2482 1 17.3043 86.5506 17.7285
8599 2 20.9412 86.5573 16.4461
2480 1 20.0299 88.122 17.7533
9789 2 1.83734 91.2733 16.5211
3408 1 0.930471 89.6931 17.7795
9448 2 4.56784 89.7016 16.4949
3406 1 3.65601 91.2639 17.8067
9446 2 7.29358 91.2733 16.5211
3075 1 6.38671 89.6931 17.7795
3077 1 9.11224 91.2639 17.8067
9131 2 10.0241 89.7016 16.4949
2741 1 11.8429 89.6931 17.7795
8816 2 15.4803 89.7016 16.4949
9133 2 12.7498 91.2733 16.5211
2739 1 14.5685 91.2639 17.8067
8814 2 18.2061 91.2733 16.5211
2481 1 17.2992 89.6931 17.7795
8598 2 20.9366 89.7016 16.4949
2483 1 20.0247 91.2639 17.8067
9780 2 1.83249 94.4163 16.5756
3407 1 0.925276 92.8346 17.8346
9447 2 4.56304 92.8448 16.5481
3409 1 3.65077 94.4053 17.8629
9449 2 7.28873 94.4163 16.5756
3050 1 9.107 94.4053 17.8629
3052 1 6.38151 92.8346 17.8346
9100 2 10.0193 92.8448 16.5481
2740 1 11.8378 92.8346 17.8346
8815 2 15.4755 92.8448 16.5481
9098 2 12.745 94.4163 16.5756
2742 1 14.5632 94.4053 17.8629
8817 2 18.2012 94.4163 16.5756
2447 1 17.294 92.8346 17.8346
8571 2 20.9318 92.8448 16.5481
2445 1 20.0195 94.4053 17.8629
9781 2 1.8276 97.5594 16.6313
3400 1 0.920018 95.976 17.8914
9432 2 4.55816 95.9878 16.6034
3398 1 3.64553 97.547 17.9198
9430 2 7.28384 97.5594 16.6313
3051 1 6.37626 95.976 17.8914
3053 1 9.10177 97.547 17.9198
9099 2 10.0144 95.9878 16.6034
2711 1 11.8325 95.976 17.8914
8784 2 15.4706 95.9878 16.6034
9101 2 12.7401 97.5594 16.6313
2709 1 14.558 97.547 17.9198
8782 2 18.1963 97.5594 16.6313
2446 1 17.2887 95.976 17.8914
8570 2 20.9269 95.9878 16.6034
2448 1 20.0142 97.547 17.9198
3399 1 0.914858 99.1183 17.9479
12143 2 1.82284 100.703 16.6864
9431 2 4.55331 99.1313 16.659
5680 1 3.6405 100.69 17.9756
3033 1 6.3711 99.1183 17.9479
11881 2 7.27907 100.703 16.6864
5361 1 9.09674 100.69 17.9756
9073 2 10.0095 99.1313 16.659
2710 1 11.8273 99.1183 17.9479
8783 2 15.4658 99.1313 16.659
11537 2 12.7353 100.703 16.6864
5032 1 14.553 100.69 17.9756
2416 1 17.2836 99.1183 17.9479
11192 2 18.1916 100.703 16.6864
8543 2 20.922 99.1313 16.659
4681 1 20.0092 100.69 17.9756
3594 1 1.83309 50.4232 20.4382
9669 2 2.74604 51.9767 19.1212
9966 2 0.0152071 50.4069 19.1501
3278 1 4.56415 51.992 20.4083
9668 2 5.47145 50.4069 19.1501
3312 1 7.28933 50.4232 20.4382
9334 2 8.20228 51.9767 19.1212
2962 1 10.0204 51.992 20.4083
9360 2 10.9277 50.4069 19.1501
2622 1 15.4766 51.992 20.4083
2961 1 12.7456 50.4232 20.4382
9002 2 13.6585 51.9767 19.1212
2632 1 18.2018 50.4232 20.4382
9001 2 16.3839 50.4069 19.1501
2352 1 20.9329 51.992 20.4083
8701 2 19.1148 51.9767 19.1212
3595 1 1.83898 53.5607 20.3786
9631 2 2.75145 55.1161 19.0648
9930 2 0.02063 53.5464 19.0927
3277 1 4.57004 55.1294 20.3495
9670 2 5.47687 53.5464 19.0927
3276 1 7.29522 53.5607 20.3786
9333 2 8.20768 55.1161 19.0648
2938 1 10.0263 55.1294 20.3495
9332 2 10.9331 53.5464 19.0927
2621 1 15.4825 55.1294 20.3495
2963 1 12.7515 53.5607 20.3786
8986 2 13.6639 55.1161 19.0648
2620 1 18.2077 53.5607 20.3786
9003 2 16.3893 53.5464 19.0927
2351 1 20.9388 55.1294 20.3495
8700 2 19.1202 55.1161 19.0648
3555 1 1.84486 56.6984 20.3215
9630 2 2.75683 58.2563 19.0127
9931 2 0.0260165 56.6861 19.0381
9582 2 0.938606 58.2843 21.582
3238 1 4.57594 58.2676 20.2948
9629 2 5.48225 56.6861 19.0381
3279 1 7.3011 56.6984 20.3215
9302 2 8.21307 58.2563 19.0127
9297 2 6.39484 58.2843 21.582
2937 1 10.0322 58.2676 20.2948
9335 2 10.9385 56.6861 19.0381
8958 2 11.8511 58.2843 21.582
2606 1 15.4884 58.2676 20.2948
2936 1 12.7573 56.6984 20.3215
8985 2 13.6693 58.2563 19.0127
2623 1 18.2136 56.6984 20.3215
8984 2 16.3947 56.6861 19.0381
8689 2 17.3073 58.2843 21.582
2350 1 20.9447 58.2676 20.2948
8693 2 19.1255 58.2563 19.0127
3556 1 1.85084 59.8372 20.27
9586 2 2.76227 61.3977 18.9678
9894 2 0.0314251 59.8269 18.9892
9581 2 0.945653 61.421 21.5336
3237 1 4.58203 61.4071 20.2474
9632 2 5.48766 59.8269 18.9892
9580 2 3.6702 59.8525 21.5566
3236 1 7.30707 59.8372 20.27
9301 2 8.21851 61.3977 18.9678
9258 2 6.40189 61.421 21.5336
9299 2 9.12643 59.8525 21.5566
2906 1 10.0383 61.4071 20.2474
9300 2 10.9439 59.8269 18.9892
8957 2 11.8581 61.421 21.5336
2605 1 15.4945 61.4071 20.2474
2939 1 12.7633 59.8372 20.27
8962 2 13.6747 61.3977 18.9678
8956 2 14.5827 59.8525 21.5566
2604 1 18.2196 59.8372 20.27
8987 2 16.4001 59.8269 18.9892
8674 2 17.3144 61.421 21.5336
2343 1 20.9507 61.4071 20.2474
8692 2 19.131 61.3977 18.9678
8691 2 20.0389 59.8525 21.5566
3515 1 1.85703 62.9773 20.2274
9585 2 2.76758 64.5403 18.9324
9895 2 0.0368533 62.9689 18.9488
9536 2 0.95295 64.5587 21.4957
3191 1 4.58824 64.5477 20.2102
9584 2 5.49309 62.9689 18.9488
9583 2 3.67743 62.9898 21.5131
3239 1 7.31327 62.9773 20.2274
9262 2 8.22382 64.5403 18.9324
9256 2 9.13367 62.9898 21.5131
9257 2 6.40919 64.5587 21.4957
2905 1 10.0445 64.5477 20.2102
9303 2 10.9493 62.9689 18.9488
8926 2 11.8654 64.5587 21.4957
2582 1 15.5007 64.5477 20.2102
2904 1 12.7695 62.9773 20.2274
8961 2 13.6801 64.5403 18.9324
8959 2 14.5899 62.9898 21.5131
2607 1 18.2257 62.9773 20.2274
8960 2 16.4056 62.9689 18.9488
8673 2 17.3217 64.5587 21.4957
2342 1 20.957 64.5477 20.2102
8677 2 19.1363 64.5403 18.9324
8672 2 20.0461 62.9898 21.5131
3516 1 1.86303 66.1182 20.1961
9540 2 2.77205 67.6834 18.9082
9858 2 0.0418682 66.1118 18.9188
9535 2 0.959451 67.6963 21.4702
3190 1 4.59369 67.6887 20.185
9587 2 5.49811 66.1118 18.9188
9534 2 3.68453 66.1275 21.4813
3189 1 7.31927 66.1182 20.1961
9261 2 8.22828 67.6834 18.9082
9211 2 6.41569 67.6963 21.4702
9259 2 9.14076 66.1275 21.4813
2866 1 10.0499 67.6887 20.185
9260 2 10.9543 66.1118 18.9188
8925 2 11.8719 67.6963 21.4702
2581 1 15.5062 67.6887 20.185
2907 1 12.7755 66.1182 20.1961
8930 2 13.6845 67.6834 18.9082
8924 2 14.597 66.1275 21.4813
2580 1 18.2317 66.1182 20.1961
8963 2 16.4106 66.1118 18.9188
8650 2 17.3282 67.6963 21.4702
2327 1 20.9624 67.6887 20.185
8676 2 19.1408 67.6834 18.9082
8675 2 20.0532 66.1275 21.4813
3476 1 1.86755 69.2592 20.1772
9539 2 2.77454 70.8267 18.8962
9859 2 0.045488 69.255 18.9007
9496 2 0.963261 70.8333 21.4578
3144 1 4.59686 70.8296 20.1726
9538 2 5.50173 69.255 18.9007
9537 2 3.68993 69.2649 21.4624
3192 1 7.32378 69.2592 20.1772
9215 2 8.23078 70.8267 18.8962
9209 2 9.14617 69.2649 21.4624
9210 2 6.4195 70.8333 21.4578
2865 1 10.0531 70.8296 20.1726
9263 2 10.958 69.255 18.9007
8887 2 11.8757 70.8333 21.4578
2550 1 15.5093 70.8296 20.1726
2864 1 12.78 69.2592 20.1772
8929 2 13.687 70.8267 18.8962
8927 2 14.6024 69.2649 21.4624
2583 1 18.2363 69.2592 20.1772
8928 2 16.4142 69.255 18.9007
8649 2 17.332 70.8333 21.4578
2326 1 20.9656 70.8296 20.1726
8653 2 19.1433 70.8267 18.8962
8648 2 20.0586 69.2649 21.4624
3477 1 1.86904 72.4 20.1713
9500 2 2.77423 73.97 18.8968
9826 2 0.0466393 72.3983 18.8949
9495 2 0.962872 73.97 21.4585
3143 1 4.59651 73.9704 20.1732
9541 2 5.50288 72.3983 18.8949
9494 2 3.69175 72.4017 21.4565
3142 1 7.32528 72.4 20.1713
9214 2 8.23047 73.97 18.8968
9164 2 6.41911 73.97 21.4585
9212 2 9.14799 72.4017 21.4565
2820 1 10.0527 73.9704 20.1732
9213 2 10.9591 72.3983 18.8949
8886 2 11.8753 73.97 21.4585
2549 1 15.509 73.9704 20.1732
2867 1 12.7815 72.4 20.1713
8891 2 13.6867 73.97 18.8968
8885 2 14.6042 72.4017 21.4565
2548 1 18.2378 72.4 20.1713
8931 2 16.4154 72.3983 18.8949
8622 2 17.3316 73.97 21.4585
2304 1 20.9652 73.9704 20.1732
8652 2 19.1429 73.97 18.8968
8651 2 20.0605 72.4017 21.4565
3444 1 1.86686 75.5408 20.1784
9827 2 0.0448831 75.5416 18.9017
9498 2 5.50112 75.5416 18.9017
9497 2 3.68918 75.5385 21.4637
3145 1 7.3231 75.5408 20.1784
9162 2 9.14542 75.5385 21.4637
9216 2 10.9574 75.5416 18.9017
2818 1 12.7793 75.5408 20.1784
8888 2 14.6017 75.5385 21.4637
2551 1 18.2356 75.5408 20.1784
8889 2 16.4136 75.5416 18.9017
8620 2 20.0579 75.5385 21.4637
3445 1 1.86178 78.6818 20.1984
9499 2 2.77117 77.1132 18.9097
9802 2 0.0407382 78.6848 18.9208
9464 2 0.958374 77.1071 21.4721
3104 1 4.59271 77.1113 20.1868
9501 2 5.49698 78.6848 18.9208
9462 2 3.68318 78.6759 21.4838
3102 1 7.31802 78.6818 20.1984
9168 2 8.2274 77.1132 18.9097
9163 2 6.41461 77.1071 21.4721
9165 2 9.13942 78.6759 21.4838
2819 1 10.0489 77.1113 20.1868
9166 2 10.9532 78.6848 18.9208
8847 2 11.8709 77.1071 21.4721
2514 1 15.5052 77.1113 20.1868
2821 1 12.7743 78.6818 20.1984
8890 2 13.6836 77.1132 18.9097
8845 2 14.5957 78.6759 21.4838
2512 1 18.2305 78.6818 20.1984
8892 2 16.4095 78.6848 18.9208
8621 2 17.3271 77.1071 21.4721
2303 1 20.9614 77.1113 20.1868
8625 2 19.1399 77.1132 18.9097
8623 2 20.0519 78.6759 21.4838
3420 1 1.85536 81.8227 20.2306
9468 2 2.76623 80.2563 18.9347
9803 2 0.0352917 81.8277 18.9514
9463 2 0.951377 80.2448 21.4987
3103 1 4.58677 80.2523 20.213
9466 2 5.49153 81.8277 18.9514
9465 2 3.67566 81.8137 21.5166
3105 1 7.3116 81.8227 20.2306
9167 2 8.22247 80.2563 18.9347
9122 2 9.1319 81.8137 21.5166
9124 2 6.40762 80.2448 21.4987
2775 1 10.043 80.2523 20.213
9169 2 10.9478 81.8277 18.9514
8846 2 11.8639 80.2448 21.4987
2513 1 15.4992 80.2523 20.213
2773 1 12.7678 81.8227 20.2306
8851 2 13.6787 80.2563 18.9347
8848 2 14.5881 81.8137 21.5166
2515 1 18.2241 81.8227 20.2306
8849 2 16.404 81.8277 18.9514
8594 2 17.3201 80.2448 21.4987
2280 1 20.9555 80.2523 20.213
8624 2 19.1349 80.2563 18.9347
8592 2 20.0444 81.8137 21.5166
3421 1 1.84879 84.9628 20.2736
9467 2 2.76051 83.3988 18.9706
9786 2 0.0294798 84.9697 18.9921
9440 2 0.943709 83.3824 21.5373
3072 1 4.58017 83.3929 20.2508
9469 2 5.48572 84.9697 18.9921
9438 2 3.66808 84.9509 21.5606
3070 1 7.30503 84.9628 20.2736
9128 2 8.21675 83.3988 18.9706
9123 2 6.39995 83.3824 21.5373
9125 2 9.12431 84.9509 21.5606
2774 1 10.0364 83.3929 20.2508
9126 2 10.942 84.9697 18.9921
8808 2 11.8562 83.3824 21.5373
2478 1 15.4927 83.3929 20.2508
2776 1 12.7613 84.9628 20.2736
8850 2 13.673 83.3988 18.9706
8806 2 14.5806 84.9509 21.5606
2476 1 18.2175 84.9628 20.2736
8852 2 16.3982 84.9697 18.9921
8593 2 17.3124 83.3824 21.5373
2279 1 20.9489 83.3929 20.2508
8597 2 19.1292 83.3988 18.9706
8595 2 20.0368 84.9509 21.5606
3404 1 1.84243 88.1017 20.325
9444 2 2.7547 86.5402 19.0157
9787 2 0.0236988 88.1105 19.041
9439 2 0.936306 86.5192 21.586
3071 1 4.57371 86.5324 20.2984
9442 2 5.47994 88.1105 19.041
9441 2 3.66086 88.0872 21.6132
3073 1 7.29867 88.1017 20.325
9127 2 8.21094 86.5402 19.0157
9090 2 9.1171 88.0872 21.6132
9092 2 6.39254 86.5192 21.586
2737 1 10.0299 86.5324 20.2984
9129 2 10.9362 88.1105 19.041
8807 2 11.8488 86.5192 21.586
2477 1 15.4862 86.5324 20.2984
2735 1 12.7549 88.1017 20.325
8812 2 13.6672 86.5402 19.0157
8809 2 14.5733 88.0872 21.6132
2479 1 18.2111 88.1017 20.325
8810 2 16.3924 88.1105 19.041
8566 2 17.305 86.5192 21.586
2256 1 20.9424 86.5324 20.2984
8596 2 19.1234 86.5402 19.0157
8564 2 20.0296 88.0872 21.6132
3405 1 1.83619 91.2396 20.3817
9443 2 2.74895 89.6805 19.0676
9778 2 0.0179626 91.2504 19.0952
9424 2 0.929248 89.6551 21.6416
3048 1 4.56742 89.6707 20.3529
9445 2 5.4742 91.2504 19.0952
9422 2 3.65393 91.2231 21.6708
3046 1 7.29243 91.2396 20.3817
9096 2 8.20519 89.6805 19.0676
9091 2 6.38549 89.6551 21.6416
9093 2 9.11016 91.2231 21.6708
2736 1 10.0237 89.6707 20.3529
9094 2 10.9304 91.2504 19.0952
8776 2 11.8417 89.6551 21.6416
2443 1 15.4799 89.6707 20.3529
2738 1 12.7487 91.2396 20.3817
8811 2 13.6614 89.6805 19.0676
8774 2 14.5664 91.2231 21.6708
2441 1 18.2049 91.2396 20.3817
8813 2 16.3867 91.2504 19.0952
8565 2 17.298 89.6551 21.6416
2255 1 20.9361 89.6707 20.3529
8569 2 19.1177 89.6805 19.0676
8567 2 20.0226 91.2231 21.6708
3396 1 1.83002 94.3776 20.4404
9428 2 2.74322 92.8203 19.1234
9779 2 0.0122538 94.3903 19.1519
9423 2 0.922425 92.7912 21.7003
3047 1 4.56121 92.8085 20.411
9426 2 5.46849 94.3903 19.1519
3049 1 7.28626 94.3776 20.4404
9095 2 8.19946 92.8203 19.1234
9068 2 6.37866 92.7912 21.7003
2707 1 10.0174 92.8085 20.411
9097 2 10.9247 94.3903 19.1519
8775 2 11.8349 92.7912 21.7003
2442 1 15.4737 92.8085 20.411
2705 1 12.7425 94.3776 20.4404
8780 2 13.6557 92.8203 19.1234
2444 1 18.1987 94.3776 20.4404
8778 2 16.381 94.3903 19.1519
8539 2 17.2911 92.7912 21.7003
2232 1 20.9299 92.8085 20.411
8568 2 19.1119 92.8203 19.1234
3397 1 1.8241 97.517 20.4986
9427 2 2.73756 95.9606 19.1805
9777 2 0.00669904 97.5312 19.2089
3032 1 4.55513 95.9471 20.4697
9429 2 5.46294 97.5312 19.2089
3030 1 7.28034 97.517 20.4986
9072 2 8.1938 95.9606 19.1805
2706 1 10.0114 95.9471 20.4697
9070 2 10.9192 97.5312 19.2089
2415 1 15.4676 95.9471 20.4697
2708 1 12.7366 97.517 20.4986
8779 2 13.65 95.9606 19.1805
2413 1 18.1928 97.517 20.4986
8781 2 16.3754 97.5312 19.2089
2231 1 20.9238 95.9471 20.4697
8542 2 19.1063 95.9606 19.1805
9417 2 2.73217 99.1022 19.237
5642 1 1.81869 100.659 20.5547
12142 2 0.00151092 100.674 19.2645
3031 1 4.54944 99.0876 20.5269
11844 2 5.45775 100.674 19.2645
9071 2 8.1884 99.1022 19.237
5360 1 7.27493 100.659 20.5547
2682 1 10.0057 99.0876 20.5269
11536 2 10.914 100.674 19.2645
2414 1 15.4619 99.0876 20.5269
8753 2 13.6446 99.1022 19.237
5009 1 12.7312 100.659 20.5547
4680 1 18.1874 100.659 20.5547
11177 2 16.3702 100.674 19.2645
2208 1 20.9182 99.0876 20.5269
8541 2 19.1009 99.1022 19.237
3274 1 2.74289 52.0307 22.986
3593 1 0.0113303 50.4635 23.017
9627 2 0.925388 52.0129 21.6974
9623 2 1.82791 50.4887 24.3067
3273 1 5.46757 50.4635 23.017
9667 2 3.65032 50.4447 21.7275
9294 2 4.5597 52.0555 24.2756
2934 1 8.19913 52.0307 22.986
9329 2 9.10656 50.4447 21.7275
9330 2 6.38163 52.0129 21.6974
9328 2 7.28415 50.4887 24.3067
2960 1 10.9238 50.4635 23.017
8982 2 11.8379 52.0129 21.6974
8978 2 10.0159 52.0555 24.2756
2618 1 13.6554 52.0307 22.986
9000 2 14.5628 50.4447 21.7275
8686 2 15.4722 52.0555 24.2756
8977 2 12.7404 50.4887 24.3067
2617 1 16.38 50.4635 23.017
8698 2 17.2941 52.0129 21.6974
8696 2 18.1966 50.4887 24.3067
2349 1 19.1116 52.0307 22.986
8697 2 20.019 50.4447 21.7275
8480 2 20.9284 52.0555 24.2756
3234 1 2.74998 55.1639 22.9237
3553 1 0.0182918 53.5974 22.9547
9626 2 0.931908 55.1486 21.6379
9624 2 1.83541 53.6216 24.2442
3275 1 5.47453 53.5974 22.9547
9625 2 3.65675 53.5808 21.6674
9293 2 4.56749 55.1871 24.2127
2933 1 8.20622 55.1639 22.9237
9298 2 6.38815 55.1486 21.6379
9331 2 9.11299 53.5808 21.6674
9292 2 7.29165 53.6216 24.2442
2932 1 10.9308 53.5974 22.9547
8981 2 11.8444 55.1486 21.6379
8954 2 10.0237 55.1871 24.2127
2602 1 13.6625 55.1639 22.9237
8980 2 14.5692 53.5808 21.6674
8685 2 15.48 55.1871 24.2127
8979 2 12.7479 53.6216 24.2442
2619 1 16.387 53.5974 22.9547
8690 2 17.3006 55.1486 21.6379
8684 2 18.2041 53.6216 24.2442
2348 1 19.1187 55.1639 22.9237
8699 2 20.0255 53.5808 21.6674
8479 2 20.9362 55.1871 24.2127
3233 1 2.7573 58.2972 22.8644
3554 1 0.025484 56.7304 22.8934
9578 2 1.84343 56.7524 24.1818
3232 1 5.48172 56.7304 22.8934
9628 2 3.66335 56.7163 21.6093
9254 2 4.57575 58.3177 24.1522
2902 1 8.21354 58.2972 22.8644
9296 2 9.11958 56.7163 21.6093
9295 2 7.29967 56.7524 24.1818
2935 1 10.938 56.7304 22.8934
8953 2 10.032 58.3177 24.1522
2601 1 13.6698 58.2972 22.8644
8983 2 14.5758 56.7163 21.6093
8670 2 15.4882 58.3177 24.1522
8952 2 12.7559 56.7524 24.1818
2600 1 16.3942 56.7304 22.8934
8687 2 18.2121 56.7524 24.1818
2341 1 19.126 58.2972 22.8644
8688 2 20.0321 56.7163 21.6093
8478 2 20.9445 58.3177 24.1522
3187 1 2.76516 61.4318 22.8128
3513 1 0.0330229 59.8643 22.8373
9579 2 1.85202 59.8831 24.1244
3235 1 5.48926 59.8643 22.8373
9253 2 4.58478 61.4489 24.0992
2901 1 8.2214 61.4318 22.8128
9252 2 7.30826 59.8831 24.1244
2900 1 10.9455 59.8643 22.8373
8922 2 10.041 61.4489 24.0992
2578 1 13.6776 61.4318 22.8128
8669 2 15.4973 61.4489 24.0992
8955 2 12.7645 59.8831 24.1244
2603 1 16.4017 59.8643 22.8373
8668 2 18.2207 59.8831 24.1244
2340 1 19.1339 61.4318 22.8128
8471 2 20.9535 61.4489 24.0992
3186 1 2.7737 64.5674 22.7728
3514 1 0.0412618 62.9996 22.7911
9532 2 1.86157 63.0149 24.0771
3185 1 5.4975 62.9996 22.7911
9207 2 4.59474 64.5808 24.0585
2862 1 8.22993 64.5674 22.7728
9255 2 7.3178 63.0149 24.0771
2903 1 10.9537 62.9996 22.7911
8921 2 10.051 64.5808 24.0585
2577 1 13.6862 64.5674 22.7728
8646 2 15.5072 64.5808 24.0585
8920 2 12.774 63.0149 24.0771
2576 1 16.41 62.9996 22.7911
8671 2 18.2303 63.0149 24.0771
2325 1 19.1424 64.5674 22.7728
8470 2 20.9635 64.5808 24.0585
3140 1 2.78173 67.7026 22.7464
3474 1 0.0498015 66.1352 22.7579
9533 2 1.8716 66.1465 24.0435
3188 1 5.50604 66.1352 22.7579
9206 2 4.60423 67.7118 24.0322
2861 1 8.23797 67.7026 22.7464
9205 2 7.32784 66.1465 24.0435
2860 1 10.9623 66.1352 22.7579
8883 2 10.0605 67.7118 24.0322
2546 1 13.6942 67.7026 22.7464
8645 2 15.5167 67.7118 24.0322
8923 2 12.7841 66.1465 24.0435
2579 1 16.4185 66.1352 22.7579
8644 2 18.2403 66.1465 24.0435
2324 1 19.1504 67.7026 22.7464
8456 2 20.9729 67.7118 24.0322
3139 1 2.78664 70.8366 22.7338
3475 1 0.0566425 69.2698 22.7385
9492 2 1.87971 69.2765 24.0245
3138 1 5.51288 69.2698 22.7385
9160 2 4.61008 70.8408 24.0201
2816 1 8.24288 70.8366 22.7338
9208 2 7.33595 69.2765 24.0245
2863 1 10.9691 69.2698 22.7385
8882 2 10.0663 70.8408 24.0201
2545 1 13.6991 70.8366 22.7338
8618 2 15.5226 70.8408 24.0201
8881 2 12.7922 69.2765 24.0245
2544 1 16.4254 69.2698 22.7385
8647 2 18.2484 69.2765 24.0245
2302 1 19.1554 70.8366 22.7338
8455 2 20.9788 70.8408 24.0201
3100 1 2.78617 73.9699 22.7346
3442 1 0.0590173 72.4032 22.7326
9493 2 1.88256 72.4047 24.0189
3141 1 5.51526 72.4032 22.7326
9159 2 4.60956 73.9687 24.0209
2815 1 8.24241 73.9699 22.7346
9158 2 7.3388 72.4047 24.0189
2814 1 10.9715 72.4032 22.7326
8843 2 10.0658 73.9687 24.0209
2510 1 13.6987 73.9699 22.7346
8617 2 15.522 73.9687 24.0209
8884 2 12.795 72.4047 24.0189
2547 1 16.4277 72.4032 22.7326
8616 2 18.2513 72.4047 24.0189
2301 1 19.1549 73.9699 22.7346
8440 2 20.9783 73.9687 24.0209
3443 1 0.0557401 75.5368 22.74
9460 2 1.87871 75.533 24.026
3098 1 5.51198 75.5368 22.74
9161 2 7.33495 75.533 24.026
2817 1 10.9682 75.5368 22.74
8841 2 12.7912 75.533 24.026
2508 1 16.4245 75.5368 22.74
8619 2 18.2474 75.533 24.026
3099 1 2.78046 77.104 22.7487
3418 1 0.0482587 78.6715 22.7608
9461 2 1.86992 78.6633 24.0466
3101 1 5.5045 78.6715 22.7608
9120 2 4.60284 77.0979 24.0346
2771 1 8.2367 77.104 22.7487
9118 2 7.32615 78.6633 24.0466
2769 1 10.9607 78.6715 22.7608
8842 2 10.0591 77.0979 24.0346
2509 1 13.6929 77.104 22.7487
8590 2 15.5153 77.0979 24.0346
8844 2 12.7824 78.6633 24.0466
2511 1 16.417 78.6715 22.7608
8588 2 18.2386 78.6633 24.0466
2278 1 19.1492 77.104 22.7487
8439 2 20.9716 77.0979 24.0346
3068 1 2.77194 80.2394 22.7763
3419 1 0.0393316 81.8072 22.7952
9436 2 1.85951 81.7952 24.0815
3066 1 5.49557 81.8072 22.7952
9119 2 4.59285 80.2292 24.0623
2770 1 8.22818 80.2394 22.7763
9121 2 7.31575 81.7952 24.0815
2772 1 10.9518 81.8072 22.7952
8804 2 10.0491 80.2292 24.0623
2474 1 13.6844 80.2394 22.7763
8589 2 15.5053 80.2292 24.0623
8802 2 12.772 81.7952 24.0815
2472 1 16.408 81.8072 22.7952
8591 2 18.2282 81.7952 24.0815
2277 1 19.1407 80.2394 22.7763
8424 2 20.9616 80.2292 24.0623
3067 1 2.76307 83.375 22.8173
3402 1 0.0307627 84.9425 22.8421
9437 2 1.84967 84.9269 24.1295
3069 1 5.487 84.9425 22.8421
9088 2 4.58258 83.3612 24.104
2733 1 8.21931 83.375 22.8173
9086 2 7.3059 84.9269 24.1295
2731 1 10.9432 84.9425 22.8421
8803 2 10.0388 83.3612 24.104
2473 1 13.6756 83.375 22.8173
8562 2 15.4951 83.3612 24.104
8805 2 12.7621 84.9269 24.1295
2475 1 16.3995 84.9425 22.8421
8560 2 18.2184 84.9269 24.1295
2254 1 19.1318 83.375 22.8173
8423 2 20.9513 83.3612 24.104
3044 1 2.75486 86.5096 22.8692
3403 1 0.0228492 88.0765 22.8981
9420 2 1.84073 88.0579 24.1868
3042 1 5.47909 88.0765 22.8981
9087 2 4.57322 86.4925 24.1573
2732 1 8.2111 86.5096 22.8692
9089 2 7.29697 88.0579 24.1868
2734 1 10.9353 88.0765 22.8981
8772 2 10.0295 86.4925 24.1573
2439 1 13.6673 86.5096 22.8692
8561 2 15.4857 86.4925 24.1573
8770 2 12.7532 88.0579 24.1868
2437 1 16.3916 88.0765 22.8981
8563 2 18.2094 88.0579 24.1868
2253 1 19.1236 86.5096 22.8692
8408 2 20.9419 86.4925 24.1573
3043 1 2.74716 89.6432 22.9281
3394 1 0.0153066 91.2099 22.9587
9421 2 1.83239 91.1893 24.2484
3045 1 5.47154 91.2099 22.9587
9064 2 4.56461 89.6234 24.2174
2703 1 8.2034 89.6432 22.9281
9062 2 7.28863 91.1893 24.2484
2701 1 10.9278 91.2099 22.9587
8771 2 10.0209 89.6234 24.2174
2438 1 13.6596 89.6432 22.9281
8535 2 15.4771 89.6234 24.2174
8773 2 12.7449 91.1893 24.2484
2440 1 16.384 91.2099 22.9587
8533 2 18.2011 91.1893 24.2484
2230 1 19.1159 89.6432 22.9281
8407 2 20.9333 89.6234 24.2174
3028 1 2.73977 92.777 22.9894
3395 1 0.00811946 94.3446 23.0198
9412 2 1.82471 94.3231 24.3097
3026 1 5.46436 94.3446 23.0198
9425 2 3.64725 94.3598 21.7299
9063 2 4.55657 92.7558 24.2792
2702 1 8.19601 92.777 22.9894
9066 2 9.10349 94.3598 21.7299
9065 2 7.28095 94.3231 24.3097
2704 1 10.9206 94.3446 23.0198
8748 2 10.0128 92.7558 24.2792
2411 1 13.6522 92.777 22.9894
8777 2 14.5597 94.3598 21.7299
8534 2 15.469 92.7558 24.2792
8746 2 12.7372 94.3231 24.3097
2409 1 16.3768 94.3446 23.0198
8536 2 18.1934 94.3231 24.3097
2229 1 19.1085 92.777 22.9894
8537 2 20.016 94.3598 21.7299
8392 2 20.9253 92.7558 24.2792
3027 1 2.73287 95.9129 23.0497
3393 1 0.00158792 97.4821 23.0788
9416 2 0.915951 95.9289 21.7592
9413 2 1.81804 97.4609 24.3683
3029 1 5.45783 97.4821 23.0788
9414 2 3.64105 97.4987 21.788
9048 2 4.54935 95.8915 24.3394
2681 1 8.18911 95.9129 23.0497
9067 2 6.37219 95.9289 21.7592
9069 2 9.09729 97.4987 21.788
9046 2 7.27427 97.4609 24.3683
2679 1 10.9141 97.4821 23.0788
8752 2 11.8284 95.9289 21.7592
8747 2 10.0056 95.8915 24.3394
2410 1 13.6453 95.9129 23.0497
8750 2 14.5535 97.4987 21.788
8515 2 15.4618 95.8915 24.3394
8749 2 12.7305 97.4609 24.3683
2412 1 16.3703 97.4821 23.0788
8538 2 17.2847 95.9289 21.7592
8513 2 18.1868 97.4609 24.3683
2207 1 19.1016 95.9129 23.0497
8540 2 20.0098 97.4987 21.788
8391 2 20.9181 95.8915 24.3394
3017 1 2.72678 99.0524 23.1072
9415 2 0.91009 99.0693 21.8162
5641 1 -0.00401023 100.624 23.1346
11799 2 1.81256 100.603 24.4235
9047 2 4.54326 99.0315 24.3964
5321 1 5.45223 100.624 23.1346
11843 2 3.63558 100.641 21.8437
2680 1 8.18302 99.0524 23.1072
9049 2 6.36633 99.0693 21.8162
11505 2 9.09181 100.641 21.8437
11504 2 7.2688 100.603 24.4235
8751 2 11.8226 99.0693 21.8162
8729 2 9.9995 99.0315 24.3964
5008 1 10.9085 100.624 23.1346
2388 1 13.6393 99.0524 23.1072
8514 2 15.4557 99.0315 24.3964
11176 2 14.5481 100.641 21.8437
11153 2 12.725 100.603 24.4235
8516 2 17.2788 99.0693 21.8162
4665 1 16.3647 100.624 23.1346
10872 2 18.1813 100.603 24.4235
2206 1 19.0955 99.0524 23.1072
8376 2 20.912 99.0315 24.3964
10873 2 20.0043 100.641 21.8437
3230 1 0.92013 52.0769 25.5662
9290 2 2.73607 52.1066 26.8561
9622 2 0.00391091 50.5407 26.8879
3272 1 3.64434 50.5111 25.598
9289 2 5.46015 50.5407 26.8879
2929 1 9.10057 50.5111 25.598
2930 1 6.37637 52.0769 25.5662
8950 2 8.19231 52.1066 26.8561
2598 1 11.8326 52.0769 25.5662
8976 2 10.9164 50.5407 26.8879
2616 1 14.5568 50.5111 25.598
8682 2 13.6485 52.1066 26.8561
2346 1 17.2888 52.0769 25.5662
8681 2 16.3726 50.5407 26.8879
2345 1 20.0131 50.5111 25.598
8477 2 19.1048 52.1066 26.8561
3229 1 0.928559 55.2056 25.5003
9250 2 2.74517 55.2344 26.7899
9576 2 0.0123578 53.6711 26.8233
3228 1 3.65239 53.6416 25.5334
9291 2 5.4686 53.6711 26.8233
2898 1 6.3848 55.2056 25.5003
2931 1 9.10862 53.6416 25.5334
8949 2 8.20141 55.2344 26.7899
2597 1 11.841 55.2056 25.5003
8948 2 10.9248 53.6711 26.8233
2596 1 14.5649 53.6416 25.5334
8666 2 13.6576 55.2344 26.7899
2338 1 17.2973 55.2056 25.5003
8683 2 16.3811 53.6711 26.8233
2347 1 20.0211 53.6416 25.5334
8476 2 19.1139 55.2344 26.7899
3183 1 0.937547 58.333 25.4354
9249 2 2.75524 58.3589 26.7235
9577 2 0.0219723 56.7968 26.7563
3231 1 3.66109 56.7692 25.4673
9248 2 5.47821 56.7968 26.7563
2896 1 9.11733 56.7692 25.4673
2897 1 6.39379 58.333 25.4354
8918 2 8.21148 58.3589 26.7235
2574 1 11.85 58.333 25.4354
8951 2 10.9344 56.7968 26.7563
2599 1 14.5736 56.7692 25.4673
8665 2 13.6677 58.3589 26.7235
2337 1 17.3063 58.333 25.4354
8664 2 16.3907 56.7968 26.7563
2336 1 20.0298 56.7692 25.4673
8469 2 19.124 58.3589 26.7235
3182 1 0.947573 61.4618 25.3781
9203 2 2.76667 61.4833 26.6646
9530 2 0.0326022 59.921 26.6927
3181 1 3.6705 59.8972 25.4053
9251 2 5.48884 59.921 26.6927
2858 1 6.40381 61.4618 25.3781
2899 1 9.12674 59.8972 25.4053
8917 2 8.22291 61.4833 26.6646
2573 1 11.86 61.4618 25.3781
8916 2 10.9451 59.921 26.6927
2572 1 14.583 59.8972 25.4053
8642 2 13.6791 61.4833 26.6646
2322 1 17.3163 61.4618 25.3781
8667 2 16.4013 59.921 26.6927
2339 1 20.0392 59.8972 25.4053
8468 2 19.1354 61.4833 26.6646
3136 1 0.959243 64.5916 25.3349
9202 2 2.78017 64.6082 26.6207
9531 2 0.0450437 63.0458 26.6405
3184 1 3.68136 63.0267 25.3544
9201 2 5.50128 63.0458 26.6405
2856 1 9.13759 63.0267 25.3544
2857 1 6.41548 64.5916 25.3349
8879 2 8.23641 64.6082 26.6207
2542 1 11.8717 64.5916 25.3349
8919 2 10.9575 63.0458 26.6405
2575 1 14.5938 63.0267 25.3544
8641 2 13.6926 64.6082 26.6207
2321 1 17.328 64.5916 25.3349
8640 2 16.4138 63.0458 26.6405
2320 1 20.0501 63.0267 25.3544
8454 2 19.1489 64.6082 26.6207
3135 1 0.971078 67.7199 25.3084
9156 2 2.79401 67.731 26.5948
9490 2 0.0591763 66.17 26.6055
3134 1 3.6935 66.1561 25.3195
9204 2 5.51541 66.17 26.6055
2812 1 6.42732 67.7199 25.3084
2859 1 9.14974 66.1561 25.3195
8878 2 8.25025 67.731 26.5948
2541 1 11.8836 67.7199 25.3084
8877 2 10.9717 66.17 26.6055
2540 1 14.606 66.1561 25.3195
8614 2 13.7065 67.731 26.5948
2299 1 17.3398 67.7199 25.3084
8643 2 16.4279 66.17 26.6055
2323 1 20.0622 66.1561 25.3195
8453 2 19.1627 67.731 26.5948
3096 1 0.978721 70.8447 25.2969
9155 2 2.80299 70.8493 26.5847
9491 2 0.0713534 69.2907 26.5882
3137 1 3.70389 69.2827 25.301
9154 2 5.52759 69.2907 26.5882
2810 1 9.16013 69.2827 25.301
2811 1 6.43496 70.8447 25.2969
8839 2 8.25923 70.8493 26.5847
2506 1 11.8912 70.8447 25.2969
8880 2 10.9838 69.2907 26.5882
2543 1 14.6164 69.2827 25.301
8613 2 13.7155 70.8493 26.5847
2298 1 17.3474 70.8447 25.2969
8612 2 16.4401 69.2907 26.5882
2297 1 20.0726 69.2827 25.301
8438 2 19.1717 70.8493 26.5847
3095 1 0.97806 73.9675 25.2977
9116 2 2.80223 73.9654 26.5854
9458 2 0.0758677 72.4073 26.5839
3094 1 3.70767 72.4061 25.2958
9157 2 5.53211 72.4073 26.5839
2767 1 6.4343 73.9675 25.2977
2813 1 9.16391 72.4061 25.2958
8838 2 8.25847 73.9654 26.5854
2505 1 11.8905 73.9675 25.2977
8837 2 10.9883 72.4073 26.5839
2504 1 14.6201 72.4061 25.2958
8586 2 13.7147 73.9654 26.5854
2275 1 17.3468 73.9675 25.2977
8615 2 16.4446 72.4073 26.5839
2300 1 20.0764 72.4061 25.2958
8437 2 19.1709 73.9654 26.5854
9459 2 0.0699623 75.5243 26.5897
3097 1 3.70264 75.5297 25.3026
9114 2 5.5262 75.5243 26.5897
2765 1 9.15888 75.5297 25.3026
8840 2 10.9824 75.5243 26.5897
2507 1 14.6151 75.5297 25.3026
8584 2 16.4387 75.5243 26.5897
2273 1 20.0714 75.5297 25.3026
3064 1 0.969379 77.0928 25.3109
9115 2 2.79214 77.0844 26.5974
9434 2 0.0570103 78.6457 26.6091
3062 1 3.69152 78.6568 25.323
9117 2 5.51325 78.6457 26.6091
2766 1 6.42562 77.0928 25.3109
2768 1 9.14776 78.6568 25.323
8800 2 8.24838 77.0844 26.5974
2470 1 11.8819 77.0928 25.3109
8798 2 10.9695 78.6457 26.6091
2468 1 14.604 78.6568 25.323
8585 2 13.7046 77.0844 26.5974
2274 1 17.3381 77.0928 25.3109
8587 2 16.4257 78.6457 26.6091
2276 1 20.0602 78.6568 25.323
8422 2 19.1609 77.0844 26.5974
3063 1 0.957074 80.2216 25.3392
9084 2 2.77784 80.2079 26.6252
9435 2 0.0426255 81.7704 26.6459
3065 1 3.67907 81.7866 25.3596
9082 2 5.49886 81.7704 26.6459
2727 1 9.13531 81.7866 25.3596
2729 1 6.41331 80.2216 25.3392
8799 2 8.23408 80.2079 26.6252
2469 1 11.8696 80.2216 25.3392
8801 2 10.9551 81.7704 26.6459
2471 1 14.5915 81.7866 25.3596
8558 2 13.6903 80.2079 26.6252
2251 1 17.3258 80.2216 25.3392
8556 2 16.4113 81.7704 26.6459
2249 1 20.0478 81.7866 25.3596
8421 2 19.1466 80.2079 26.6252
3040 1 0.945172 83.3515 25.3839
9083 2 2.76415 83.333 26.6708
9418 2 0.0299594 84.8954 26.6992
3038 1 3.66796 84.9162 25.4115
9085 2 5.4862 84.8954 26.6992
2728 1 6.40141 83.3515 25.3839
2730 1 9.1242 84.9162 25.4115
8768 2 8.22039 83.333 26.6708
2435 1 11.8576 83.3515 25.3839
8766 2 10.9424 84.8954 26.6992
2433 1 14.5804 84.9162 25.4115
8557 2 13.6766 83.333 26.6708
2250 1 17.3139 83.3515 25.3839
8559 2 16.3987 84.8954 26.6992
2252 1 20.0367 84.9162 25.4115
8406 2 19.1329 83.333 26.6708
3039 1 0.934827 86.4803 25.4416
9060 2 2.75243 86.4576 26.7302
9419 2 0.0189825 88.0199 26.7626
3041 1 3.65819 88.0442 25.4733
9058 2 5.47522 88.0199 26.7626
2697 1 9.11442 88.0442 25.4733
2699 1 6.39107 86.4803 25.4416
8767 2 8.20867 86.4576 26.7302
2434 1 11.8473 86.4803 25.4416
8769 2 10.9315 88.0199 26.7626
2436 1 14.5707 88.0442 25.4733
8531 2 13.6649 86.4576 26.7302
2227 1 17.3035 86.4803 25.4416
8529 2 16.3877 88.0199 26.7626
2225 1 20.0269 88.0442 25.4733
8405 2 19.1211 86.4576 26.7302
3024 1 0.925476 89.6082 25.5058
9059 2 2.74202 89.5828 26.7956
9410 2 0.00910977 91.1467 26.8283
3022 1 3.64916 91.1726 25.5383
9061 2 5.46535 91.1467 26.8283
2698 1 6.38171 89.6082 25.5058
2700 1 9.1054 91.1726 25.5383
8744 2 8.19826 89.5828 26.7956
2407 1 11.838 89.6082 25.5058
8742 2 10.9216 91.1467 26.8283
2405 1 14.5616 91.1726 25.5383
8530 2 13.6545 89.5828 26.7956
2226 1 17.2942 89.6082 25.5058
8532 2 16.3778 91.1467 26.8283
2228 1 20.0179 91.1726 25.5383
8390 2 19.1107 89.5828 26.7956
3023 1 0.916825 92.7378 25.5702
9044 2 2.73278 92.7119 26.8602
9411 2 0.000624596 94.2786 26.8911
3025 1 3.641 94.3043 25.6013
9042 2 5.45686 94.2786 26.8911
2675 1 9.09723 94.3043 25.6013
2677 1 6.37306 92.7378 25.5702
8743 2 8.18902 92.7119 26.8602
2406 1 11.8293 92.7378 25.5702
8745 2 10.9131 94.2786 26.8911
2408 1 14.5535 94.3043 25.6013
8511 2 13.6453 92.7119 26.8602
2204 1 17.2855 92.7378 25.5702
8509 2 16.3693 94.2786 26.8911
2202 1 20.0097 94.3043 25.6013
8389 2 19.1015 92.7119 26.8602
3016 1 0.909257 95.872 25.6313
9043 2 2.72515 95.8469 26.9209
9409 2 -0.00611853 97.4167 26.9495
3014 1 3.63411 97.4411 25.6603
9045 2 5.45012 97.4167 26.9495
2676 1 6.3655 95.872 25.6313
2678 1 9.09035 97.4411 25.6603
8728 2 8.18139 95.8469 26.9209
2387 1 11.8217 95.872 25.6313
8726 2 10.9064 97.4167 26.9495
2385 1 14.5466 97.4411 25.6603
8510 2 13.6376 95.8469 26.9209
2203 1 17.278 95.872 25.6313
8512 2 16.3626 97.4167 26.9495
2205 1 20.0028 97.4411 25.6603
8375 2 19.0939 95.8469 26.9209
3015 1 0.903103 99.0117 25.6882
9033 2 2.71928 98.988 26.977
11798 2 -0.011158 100.561 27.0034
5320 1 3.62869 100.584 25.7151
11465 2 5.44508 100.561 27.0034
2660 1 6.35934 99.0117 25.6882
8727 2 8.17552 98.988 26.977
4977 1 9.08493 100.584 25.7151
2386 1 11.8156 99.0117 25.6882
11152 2 10.9013 100.561 27.0034
8496 2 13.6318 98.988 26.977
4664 1 14.5412 100.584 25.7151
2185 1 17.2718 99.0117 25.6882
10857 2 16.3576 100.561 27.0034
8374 2 19.088 98.988 26.977
4393 1 19.9974 100.584 25.7151
3226 1 1.81933 50.5682 28.1812
9246 2 0.910348 52.1686 29.4386
2894 1 4.55166 52.1334 28.1492
9288 2 3.63438 50.6025 29.4703
2928 1 7.27557 50.5682 28.1812
8945 2 9.09062 50.6025 29.4703
8946 2 6.36659 52.1686 29.4386
2594 1 10.0079 52.1334 28.1492
8662 2 11.8228 52.1686 29.4386
2334 1 15.4641 52.1334 28.1492
2593 1 12.7318 50.5682 28.1812
8680 2 14.5469 50.6025 29.4703
2344 1 18.188 50.5682 28.1812
8474 2 17.2791 52.1686 29.4386
2160 1 20.9204 52.1334 28.1492
8473 2 20.0031 50.6025 29.4703
3227 1 1.82821 53.6966 28.1156
9245 2 0.920409 55.2941 29.3701
2893 1 4.56138 55.258 28.0807
9244 2 3.6432 53.7325 29.4051
2892 1 7.28445 53.6966 28.1156
8914 2 6.37665 55.2941 29.3701
8947 2 9.09944 53.7325 29.4051
2570 1 10.0176 55.258 28.0807
8661 2 11.8329 55.2941 29.3701
2333 1 15.4739 55.258 28.0807
2595 1 12.7407 53.6966 28.1156
8660 2 14.5557 53.7325 29.4051
2332 1 18.1969 53.6966 28.1156
8466 2 17.2891 55.2941 29.3701
2159 1 20.9301 55.258 28.0807
8475 2 20.0119 53.7325 29.4051
3179 1 1.83856 56.8183 28.0448
9199 2 0.932476 58.4118 29.2971
2854 1 4.57221 58.378 28.0091
9247 2 3.65436 56.8537 29.3338
2895 1 7.2948 56.8183 28.0448
8912 2 9.1106 56.8537 29.3338
8913 2 6.38871 58.4118 29.2971
2569 1 10.0284 58.378 28.0091
8638 2 11.845 58.4118 29.2971
2318 1 15.4847 58.378 28.0091
2568 1 12.751 56.8183 28.0448
8663 2 14.5668 56.8537 29.3338
2335 1 18.2073 56.8183 28.0448
8465 2 17.3012 58.4118 29.2971
2158 1 20.9409 58.378 28.0091
8464 2 20.0231 56.8537 29.3338
3180 1 1.85008 59.9382 27.9749
9198 2 0.94667 61.5269 29.2296
2853 1 4.58484 61.499 27.9439
9197 2 3.66729 59.9693 29.2617
2852 1 7.30631 59.9382 27.9749
8875 2 6.40291 61.5269 29.2296
8915 2 9.12353 59.9693 29.2617
2538 1 10.0411 61.499 27.9439
8637 2 11.8591 61.5269 29.2296
2317 1 15.4973 61.499 27.9439
2571 1 12.7626 59.9382 27.9749
8636 2 14.5798 59.9693 29.2617
2316 1 18.2188 59.9382 27.9749
8451 2 17.3154 61.5269 29.2296
2151 1 20.9536 61.499 27.9439
8467 2 20.036 59.9693 29.2617
3132 1 1.86426 63.0604 27.9174
9152 2 0.964829 64.6424 29.1814
2808 1 4.60078 64.6219 27.8967
9200 2 3.68327 63.0847 29.2024
2855 1 7.32049 63.0604 27.9174
8873 2 9.13951 63.0847 29.2024
8874 2 6.42107 64.6424 29.1814
2537 1 10.057 64.6219 27.8967
8610 2 11.8773 64.6424 29.1814
2295 1 15.5133 64.6219 27.8967
2536 1 12.7767 63.0604 27.9174
8639 2 14.5957 63.0847 29.2024
2319 1 18.233 63.0604 27.9174
8450 2 17.3335 64.6424 29.1814
2150 1 20.9695 64.6219 27.8967
8449 2 20.052 63.0847 29.2024
3133 1 1.88166 66.1826 27.8816
9151 2 0.985163 67.7544 29.1585
2807 1 4.6183 67.7418 27.8722
9150 2 3.70323 66.1992 29.167
2806 1 7.3379 66.1826 27.8816
8835 2 6.4414 67.7544 29.1585
8876 2 9.15947 66.1992 29.167
2502 1 10.0745 67.7418 27.8722
8609 2 11.8976 67.7544 29.1585
2294 1 15.5308 67.7418 27.8722
2539 1 12.7941 66.1826 27.8816
8608 2 14.6157 66.1992 29.167
2293 1 18.2504 66.1826 27.8816
8435 2 17.3539 67.7544 29.1585
2139 1 20.987 67.7418 27.8722
8452 2 20.0719 66.1992 29.167
3092 1 1.89735 69.2992 27.8668
9112 2 0.998851 70.8587 29.1545
2763 1 4.63026 70.8544 27.8649
9153 2 3.72152 69.3075 29.155
2809 1 7.35359 69.2992 27.8668
8833 2 9.17776 69.3075 29.155
8834 2 6.45509 70.8587 29.1545
2501 1 10.0865 70.8544 27.8649
8582 2 11.9113 70.8587 29.1545
2271 1 15.5427 70.8544 27.8649
2500 1 12.8098 69.2992 27.8668
8611 2 14.634 69.3075 29.155
2296 1 18.2661 69.2992 27.8668
8434 2 17.3676 70.8587 29.1545
2138 1 20.999 70.8544 27.8649
8433 2 20.0902 69.3075 29.155
3093 1 1.90356 72.4083 27.8647
9111 2 0.997738 73.9602 29.1547
2762 1 4.62924 73.9625 27.8653
9110 2 3.72843 72.4094 29.1546
2761 1 7.3598 72.4083 27.8647
8796 2 6.45398 73.9602 29.1547
8836 2 9.18466 72.4094 29.1546
2466 1 10.0855 73.9625 27.8653
8581 2 11.9102 73.9602 29.1547
2270 1 15.5417 73.9625 27.8653
2503 1 12.816 72.4083 27.8647
8580 2 14.6409 72.4094 29.1546
2269 1 18.2723 72.4083 27.8647
8419 2 17.3665 73.9602 29.1547
2127 1 20.998 73.9625 27.8653
8436 2 20.0971 72.4094 29.1546
3060 1 1.89556 75.5183 27.8681
9113 2 3.71952 75.512 29.1559
2764 1 7.3518 75.5183 27.8681
8794 2 9.17576 75.512 29.1559
2464 1 12.808 75.5183 27.8681
8583 2 14.632 75.512 29.1559
2272 1 18.2643 75.5183 27.8681
8417 2 20.0882 75.512 29.1559
3061 1 1.87904 78.6361 27.8853
9080 2 0.9826 77.0658 29.1607
2725 1 4.61595 77.0763 27.8746
9078 2 3.70035 78.6217 29.1707
2723 1 7.33528 78.6361 27.8853
8795 2 6.43884 77.0658 29.1607
8797 2 9.15659 78.6217 29.1707
2465 1 10.0722 77.0763 27.8746
8554 2 11.8951 77.0658 29.1607
2247 1 15.5284 77.0763 27.8746
2467 1 12.7915 78.6361 27.8853
8552 2 14.6128 78.6217 29.1707
2245 1 18.2478 78.6361 27.8853
8418 2 17.3513 77.0658 29.1607
2126 1 20.9847 77.0763 27.8746
8420 2 20.0691 78.6217 29.1707
3036 1 1.86149 81.7589 27.9239
9079 2 0.961946 80.179 29.1867
2724 1 4.59805 80.1972 27.9019
9081 2 3.68041 81.737 29.2091
2726 1 7.31773 81.7589 27.9239
8762 2 9.13665 81.737 29.2091
8764 2 6.41818 80.179 29.1867
2431 1 10.0543 80.1972 27.9019
8553 2 11.8744 80.179 29.1867
2246 1 15.5105 80.1972 27.9019
2429 1 12.774 81.7589 27.9239
8555 2 14.5929 81.737 29.2091
2248 1 18.2302 81.7589 27.9239
8403 2 17.3307 80.179 29.1867
2115 1 20.9668 80.1972 27.9019
8401 2 20.0491 81.737 29.2091
3037 1 1.84718 84.8812 27.9828
9056 2 0.943802 83.2949 29.2375
2695 1 4.58206 83.3203 27.9514
9054 2 3.6643 84.8526 29.2702
2693 1 7.30341 84.8812 27.9828
8763 2 6.40004 83.2949 29.2375
8765 2 9.12054 84.8526 29.2702
2430 1 10.0383 83.3203 27.9514
8527 2 11.8563 83.2949 29.2375
2223 1 15.4945 83.3203 27.9514
2432 1 12.7597 84.8812 27.9828
8525 2 14.5768 84.8526 29.2702
2221 1 18.2159 84.8812 27.9828
8402 2 17.3125 83.2949 29.2375
2114 1 20.9508 83.3203 27.9514
8404 2 20.033 84.8526 29.2702
3020 1 1.83531 88.0015 28.0522
9055 2 0.929294 86.4105 29.3055
2694 1 4.56917 86.4414 28.017
9057 2 3.65099 87.9694 29.3415
2696 1 7.29155 88.0015 28.0522
8738 2 9.10723 87.9694 29.3415
8740 2 6.38553 86.4105 29.3055
2403 1 10.0254 86.4414 28.017
8526 2 11.8418 86.4105 29.3055
2222 1 15.4816 86.4414 28.017
2401 1 12.7478 88.0015 28.0522
8528 2 14.5635 87.9694 29.3415
2224 1 18.204 88.0015 28.0522
8387 2 17.298 86.4105 29.3055
2103 1 20.9379 86.4414 28.017
8385 2 20.0197 87.9694 29.3415
3021 1 1.82475 91.1246 28.121
9040 2 0.916964 89.5299 29.3767
2673 1 4.55797 89.5623 28.0871
9038 2 3.63976 91.0925 29.4107
2671 1 7.28099 91.1246 28.121
8739 2 6.3732 89.5299 29.3767
8741 2 9.096 91.0925 29.4107
2402 1 10.0142 89.5623 28.0871
8507 2 11.8294 89.5299 29.3767
2200 1 15.4704 89.5623 28.0871
2404 1 12.7372 91.1246 28.121
8505 2 14.5522 91.0925 29.4107
2198 1 18.1935 91.1246 28.121
8386 2 17.2857 89.5299 29.3767
2102 1 20.9267 89.5623 28.0871
8388 2 20.0085 91.0925 29.4107
3012 1 1.81594 94.2548 28.1845
9039 2 0.906985 92.6574 29.443
2672 1 4.5482 92.6887 28.1535
9041 2 3.63112 94.2246 29.4737
2674 1 7.27217 94.2548 28.1845
8722 2 9.08736 94.2246 29.4737
8724 2 6.36322 92.6574 29.443
2383 1 10.0044 92.6887 28.1535
8506 2 11.8195 92.6574 29.443
2199 1 15.4607 92.6887 28.1535
2381 1 12.7284 94.2548 28.1845
8508 2 14.5436 94.2246 29.4737
2201 1 18.1847 94.2548 28.1845
8372 2 17.2757 92.6574 29.443
2091 1 20.9169 92.6887 28.1535
8370 2 19.9998 94.2246 29.4737
3013 1 1.80926 97.393 28.2424
9032 2 0.899671 95.7939 29.5028
2659 1 4.54045 95.823 28.2141
9030 2 3.62504 97.3653 29.5306
2657 1 7.2655 97.393 28.2424
8723 2 6.35591 95.7939 29.5028
8725 2 9.08128 97.3653 29.5306
2382 1 9.99669 95.823 28.2141
8495 2 11.8121 95.7939 29.5028
2184 1 15.4529 95.823 28.2141
2384 1 12.7217 97.393 28.2424
8493 2 14.5375 97.3653 29.5306
2182 1 18.178 97.393 28.2424
8371 2 17.2684 95.7939 29.5028
2090 1 20.9092 95.823 28.2141
8373 2 19.9938 97.3653 29.5306
9031 2 0.894687 98.9384 29.5571
5274 1 1.80454 100.538 28.2953
2658 1 4.5348 98.9648 28.2694
11464 2 3.62101 100.513 29.5825
8713 2 6.35093 98.9384 29.5571
4976 1 7.26078 100.538 28.2953
11121 2 9.07725 100.513 29.5825
2368 1 9.99104 98.9648 28.2694
8494 2 11.8072 98.9384 29.5571
2183 1 15.4473 98.9648 28.2694
4641 1 12.717 100.538 28.2953
10856 2 14.5335 100.513 29.5825
8361 2 17.2634 98.9384 29.5571
4392 1 18.1733 100.538 28.2953
2079 1 20.9035 98.9648 28.2694
10649 2 19.9897 100.513 29.5825
2890 1 2.72466 52.203 30.7346
9242 2 1.80717 50.6755 32.0527
2889 1 5.44873 50.6366 30.7656
8910 2 4.5388 52.2438 32.0218
2566 1 8.1809 52.203 30.7346
8944 2 7.26341 50.6755 32.0527
2592 1 10.905 50.6366 30.7656
8658 2 9.99504 52.2438 32.0218
2330 1 13.6371 52.203 30.7346
8462 2 15.4513 52.2438 32.0218
8657 2 12.7196 50.6755 32.0527
2329 1 16.3612 50.6366 30.7656
8472 2 18.1759 50.6755 32.0527
3225 1 21.8174 50.6366 30.7656
2157 1 19.0934 52.203 30.7346
8352 2 20.9075 52.2438 32.0218
2850 1 2.73511 55.3264 30.6661
9243 2 1.81509 53.8089 31.9887
2891 1 5.45764 53.7663 30.7015
8909 2 4.5486 55.3705 31.9531
2565 1 8.19135 55.3264 30.6661
8908 2 7.27133 53.8089 31.9887
2564 1 10.9139 53.7663 30.7015
8634 2 10.0048 55.3705 31.9531
2314 1 13.6476 55.3264 30.6661
8461 2 15.4611 55.3705 31.9531
8659 2 12.7276 53.8089 31.9887
2331 1 16.3701 53.7663 30.7015
8460 2 18.1838 53.8089 31.9887
3177 1 21.8264 53.7663 30.7015
2156 1 19.1038 55.3264 30.6661
8351 2 20.9173 55.3705 31.9531
2849 1 2.74788 58.4381 30.589
3178 1 0.0132059 56.8834 30.6285
9195 2 1.82685 56.9285 31.9148
2848 1 5.46944 56.8834 30.6285
8871 2 4.56228 58.4828 31.8741
2534 1 8.20412 58.4381 30.589
8911 2 7.28309 56.9285 31.9148
2567 1 10.9257 56.8834 30.6285
8633 2 10.0185 58.4828 31.8741
2313 1 13.6604 58.4381 30.589
8447 2 15.4748 58.4828 31.8741
8632 2 12.7393 56.9285 31.9148
2312 1 16.3819 56.8834 30.6285
8463 2 18.1956 56.9285 31.9148
2149 1 19.1166 58.4381 30.589
8350 2 20.931 58.4828 31.8741
2804 1 2.76291 61.5471 30.5125
3130 1 0.0267229 59.9919 30.5491
9196 2 1.84212 60.0343 31.8323
2851 1 5.48296 59.9919 30.5491
8870 2 4.57936 61.5845 31.7929
2533 1 8.21915 61.5471 30.5125
8869 2 7.29836 60.0343 31.8323
2532 1 10.9392 59.9919 30.5491
8606 2 10.0356 61.5845 31.7929
2291 1 13.6754 61.5471 30.5125
8446 2 15.4918 61.5845 31.7929
8635 2 12.7546 60.0343 31.8323
2315 1 16.3954 59.9919 30.5491
8445 2 18.2108 60.0343 31.8323
2148 1 19.1316 61.5471 30.5125
8347 2 20.9481 61.5845 31.7929
2803 1 2.78481 64.6602 30.4589
3131 1 0.045084 63.1035 30.4816
9148 2 1.86222 63.135 31.7612
2802 1 5.50132 63.1035 30.4816
8831 2 4.60352 64.685 31.738
2498 1 8.24105 64.6602 30.4589
8872 2 7.31846 63.135 31.7612
2535 1 10.9576 63.1035 30.4816
8605 2 10.0598 64.685 31.738
2290 1 13.6973 64.6602 30.4589
8431 2 15.516 64.685 31.738
8604 2 12.7747 63.135 31.7612
2289 1 16.4138 63.1035 30.4816
8448 2 18.2309 63.135 31.7612
2137 1 19.1535 64.6602 30.4589
8346 2 20.9722 64.685 31.738
2759 1 2.81085 67.7698 30.4398
3090 1 0.0705582 66.2161 30.4455
9149 2 1.89085 66.2342 31.7263
2754 1 1.00835 67.7989 33.0232
2805 1 5.5268 66.2161 30.4455
8830 2 4.63424 67.7806 31.7233
2753 1 3.71291 66.2604 33.0132
2497 1 8.26708 67.7698 30.4398
8829 2 7.34708 66.2342 31.7263
2458 1 6.46459 67.7989 33.0232
2495 1 9.16914 66.2604 33.0132
2496 1 10.983 66.2161 30.4455
8578 2 10.0905 67.7806 31.7233
2262 1 11.9208 67.7989 33.0232
2267 1 13.7233 67.7698 30.4398
8430 2 15.5467 67.7806 31.7233
8607 2 12.8033 66.2342 31.7263
2261 1 14.6254 66.2604 33.0132
2292 1 16.4393 66.2161 30.4455
8429 2 18.2596 66.2342 31.7263
2122 1 17.3771 67.7989 33.0232
2136 1 19.1796 67.7698 30.4398
8343 2 21.003 67.7806 31.7233
2135 1 20.0816 66.2604 33.0132
2758 1 2.83053 70.8643 30.443
3091 1 0.0949488 69.3189 30.4404
9108 2 1.91907 69.3238 31.729
2717 1 1.03566 70.8714 33.0317
2757 1 5.55119 69.3189 30.4404
8792 2 4.65493 70.8673 31.7329
2756 1 3.7562 69.3314 33.031
2462 1 8.28677 70.8643 30.443
8832 2 7.37531 69.3238 31.729
2456 1 9.21244 69.3314 33.031
2457 1 6.49189 70.8714 33.0317
2499 1 11.0074 69.3189 30.4404
8577 2 10.1112 70.8673 31.7329
2239 1 11.9481 70.8714 33.0317
2266 1 13.743 70.8643 30.443
8415 2 15.5674 70.8673 31.7329
8576 2 12.8315 69.3238 31.729
2264 1 14.6687 69.3314 33.031
2265 1 16.4637 69.3189 30.4404
8432 2 18.2878 69.3238 31.729
2121 1 17.4044 70.8714 33.0317
2125 1 19.1992 70.8643 30.443
8342 2 21.0236 70.8673 31.7329
2120 1 20.1249 69.3314 33.031
2721 1 2.82897 73.956 30.4425
3058 1 0.104069 72.4101 30.4433
9109 2 1.92894 72.4112 31.7337
2716 1 1.03425 73.9527 33.0314
2760 1 5.56031 72.4101 30.4433
8791 2 4.65336 73.955 31.732
2715 1 3.76586 72.4121 33.0324
2461 1 8.28521 73.956 30.4425
8790 2 7.38518 72.4112 31.7337
2423 1 6.49049 73.9526 33.0314
2459 1 9.22209 72.4121 33.0324
2460 1 11.0165 72.4101 30.4433
8550 2 10.1096 73.955 31.732
2238 1 11.9467 73.9527 33.0314
2243 1 13.7415 73.956 30.4425
8579 2 12.8414 72.4112 31.7337
2237 1 14.6783 72.4121 33.0324
8414 2 15.5658 73.955 31.732
2268 1 16.4728 72.4101 30.4433
8413 2 18.2977 72.4112 31.7337
2110 1 17.403 73.9526 33.0314
2124 1 19.1977 73.956 30.4425
8339 2 21.0221 73.955 31.732
2123 1 20.1346 72.4121 33.0324
3059 1 0.0921054 75.5024 30.4403
9076 2 1.91612 75.4987 31.7278
2719 1 5.54834 75.5024 30.4403
2718 1 3.75219 75.4913 33.0293
8793 2 7.37236 75.4987 31.7278
2421 1 9.20843 75.4913 33.0293
2463 1 11.0046 75.5024 30.4403
8548 2 12.8286 75.4987 31.7278
2240 1 14.6647 75.4913 33.0293
2241 1 16.4608 75.5024 30.4403
8416 2 18.2848 75.4987 31.7278
2108 1 20.1209 75.4913 33.0293
2720 1 2.80757 77.053 30.4414
3034 1 0.0671645 78.6077 30.4489
9077 2 1.88686 78.5907 31.7296
2687 1 1.00247 77.0253 33.0212
2722 1 5.5234 78.6077 30.4489
8760 2 4.63057 77.0429 31.7237
2685 1 3.70864 78.5677 33.0151
2427 1 8.26381 77.053 30.4414
8758 2 7.34309 78.5907 31.7296
2422 1 6.4587 77.0253 33.0212
2424 1 9.16488 78.5677 33.0151
2425 1 10.9796 78.6077 30.4489
8549 2 10.0868 77.0429 31.7237
2215 1 11.9149 77.0253 33.0212
2242 1 13.72 77.053 30.4414
8551 2 12.7993 78.5907 31.7296
2213 1 14.6211 78.5677 33.0151
8399 2 15.543 77.0429 31.7237
2244 1 16.4359 78.6077 30.4489
8397 2 18.2556 78.5907 31.7296
2109 1 17.3712 77.0253 33.0212
2113 1 19.1763 77.053 30.4414
8338 2 20.9993 77.0429 31.7237
2111 1 20.0774 78.5677 33.0151
2691 1 2.78125 80.1643 30.4647
3035 1 0.0417031 81.7214 30.4898
9052 2 1.85906 81.6909 31.7699
2686 1 0.959329 80.1189 33.0342
2689 1 5.49794 81.7214 30.4898
8759 2 4.59981 80.1405 31.7438
2688 1 3.67163 81.6675 33.0631
2426 1 8.23749 80.1643 30.4647
8761 2 7.3153 81.6909 31.7699
2393 1 9.12787 81.6675 33.0631
2395 1 6.41557 80.1189 33.0342
2428 1 10.9542 81.7214 30.4898
8523 2 10.0561 80.1405 31.7438
2214 1 11.8718 80.1189 33.0342
2219 1 13.6937 80.1643 30.4647
8398 2 15.5123 80.1405 31.7438
8521 2 12.7715 81.6909 31.7699
2216 1 14.5841 81.6675 33.0631
2217 1 16.4104 81.7214 30.4898
8400 2 18.2278 81.6909 31.7699
2098 1 17.328 80.1189 33.0342
2112 1 19.15 80.1643 30.4647
8335 2 20.9685 80.1405 31.7438
2096 1 20.0403 81.6675 33.0631
2690 1 2.75976 83.2777 30.522
3018 1 0.0235967 84.8326 30.5594
9053 2 1.83871 84.7923 31.8438
2665 1 0.93244 83.2134 33.1042
2692 1 5.47983 84.8326 30.5594
8736 2 4.57601 83.2416 31.8037
2663 1 3.65205 84.7574 33.1487
2399 1 8.216 83.2777 30.522
8734 2 7.29495 84.7923 31.8438
2394 1 6.38868 83.2134 33.1042
2396 1 9.10829 84.7574 33.1487
2397 1 10.9361 84.8326 30.5594
8522 2 10.0323 83.2416 31.8037
2192 1 11.8449 83.2134 33.1042
2218 1 13.6722 83.2777 30.522
8383 2 15.4885 83.2416 31.8037
8524 2 12.7512 84.7923 31.8438
2190 1 14.5645 84.7574 33.1487
2220 1 16.3923 84.8326 30.5594
8381 2 18.2074 84.7923 31.8438
2097 1 17.3012 83.2134 33.1042
2101 1 19.1285 83.2777 30.522
8334 2 20.9447 83.2416 31.8037
2099 1 20.0208 84.7574 33.1487
2669 1 2.74446 86.3868 30.5985
3019 1 0.00951601 87.9426 30.6366
9036 2 1.82313 87.9012 31.9237
2667 1 5.46575 87.9426 30.6366
8735 2 4.55851 86.3451 31.8845
2398 1 8.2007 86.3868 30.5985
8737 2 7.27937 87.9012 31.9237
2400 1 10.922 87.9426 30.6366
8503 2 10.0147 86.3451 31.8845
2196 1 13.6569 86.3868 30.5985
8382 2 15.471 86.3451 31.8845
8501 2 12.7356 87.9012 31.9237
2194 1 16.3782 87.9426 30.6366
8384 2 18.1918 87.9012 31.9237
2100 1 19.1132 86.3868 30.5985
8331 2 20.9272 86.3451 31.8845
2668 1 2.73142 89.501 30.6728
3010 1 -0.00221957 91.0625 30.7068
9037 2 1.81165 91.024 31.9944
2670 1 5.45402 91.0625 30.7068
8720 2 4.54497 89.4608 31.9604
2379 1 8.18766 89.501 30.6728
8718 2 7.26788 91.024 31.9944
2377 1 10.9103 91.0625 30.7068
8502 2 10.0012 89.4608 31.9604
2195 1 13.6439 89.501 30.6728
8368 2 15.4575 89.4608 31.9604
8504 2 12.7241 91.024 31.9944
2197 1 16.3665 91.0625 30.7068
8366 2 18.1804 91.024 31.9944
2089 1 19.1001 89.501 30.6728
8330 2 20.9137 89.4608 31.9604
2655 1 2.7212 92.6272 30.7386
3011 1 -0.0107939 94.1948 30.7686
9028 2 1.80413 94.1601 32.0558
2653 1 5.44544 94.1948 30.7686
8719 2 4.53556 92.5906 32.0261
2378 1 8.17744 92.6272 30.7386
8721 2 7.26037 94.1601 32.0558
2380 1 10.9017 94.1948 30.7686
8491 2 9.9918 92.5906 32.0261
2180 1 13.6337 92.6272 30.7386
8367 2 15.448 92.5906 32.0261
8489 2 12.7166 94.1601 32.0558
2178 1 16.3579 94.1948 30.7686
8369 2 18.1728 94.1601 32.0558
2088 1 19.0899 92.6272 30.7386
8327 2 20.9043 92.5906 32.0261
2654 1 2.7142 95.7649 30.7969
9029 2 1.79964 97.3065 32.1102
2656 1 5.43985 97.3373 30.8238
8712 2 4.52969 95.7322 32.0837
2367 1 8.17044 95.7649 30.7969
8710 2 7.25588 97.3065 32.1102
2365 1 10.8961 97.3373 30.8238
8490 2 9.98593 95.7322 32.0837
2179 1 13.6267 95.7649 30.7969
8360 2 15.4422 95.7322 32.0837
8492 2 12.7121 97.3065 32.1102
2181 1 16.3523 97.3373 30.8238
8358 2 18.1684 97.3065 32.1102
3009 1 21.8086 97.3373 30.8238
2078 1 19.0829 95.7649 30.7969
8326 2 20.8984 95.7322 32.0837
2646 1 2.70982 98.9117 30.8495
11418 2 1.79717 100.461 32.1597
8711 2 4.52632 98.8827 32.1354
4937 1 5.43648 100.488 30.8741
2366 1 8.16606 98.9117 30.8495
11120 2 7.25341 100.461 32.1597
8484 2 9.98256 98.8827 32.1354
4640 1 10.8927 100.488 30.8741
2169 1 13.6223 98.9117 30.8495
8359 2 15.4388 98.8827 32.1354
10833 2 12.7096 100.461 32.1597
4377 1 16.349 100.488 30.8741
10648 2 18.1659 100.461 32.1597
2077 1 19.0785 98.9117 30.8495
8323 2 20.895 98.8827 32.1354
5273 1 21.8052 100.488 30.8741
2846 1 0.89557 52.2878 33.3205
8906 2 2.70999 52.3328 34.6029
2888 1 3.62056 50.7174 33.3493
8905 2 5.43588 50.7597 34.6323
2561 1 9.0768 50.7174 33.3493
2562 1 6.35181 52.2878 33.3205
8630 2 8.16623 52.3328 34.6029
2310 1 11.808 52.2878 33.3205
8656 2 10.8921 50.7597 34.6323
2328 1 14.533 50.7174 33.3493
8458 2 13.6225 52.3328 34.6029
2154 1 17.2643 52.2878 33.3205
8457 2 16.3484 50.7597 34.6323
9241 2 21.8046 50.7597 34.6323
2153 1 19.9893 50.7174 33.3493
8349 2 19.0787 52.3328 34.6029
2845 1 0.905112 55.4172 33.2566
8867 2 2.7175 55.4676 34.5364
2843 1 1.7955 53.9646 35.8761
2844 1 3.62786 53.8547 33.2898
8907 2 5.44127 53.9024 34.5712
2525 1 4.52669 55.537 35.848
2530 1 6.36135 55.4172 33.2566
2563 1 9.0841 53.8547 33.2898
8629 2 8.17374 55.4676 34.5364
2524 1 7.25174 53.9646 35.8761
2309 1 11.8176 55.4172 33.2566
8628 2 10.8975 53.9024 34.5712
2283 1 9.98292 55.537 35.848
2308 1 14.5403 53.8547 33.2898
8443 2 13.63 55.4676 34.5364
2307 1 12.708 53.9646 35.8761
2141 1 15.4392 55.537 35.848
2146 1 17.2738 55.4172 33.2566
8459 2 16.3537 53.9024 34.5712
2140 1 18.1642 53.9646 35.8761
9193 2 21.81 53.9024 34.5712
2155 1 19.9966 53.8547 33.2898
8348 2 19.0862 55.4676 34.5364
2063 1 20.8954 55.537 35.848
2800 1 0.919226 58.5256 33.1808
8866 2 2.73035 58.581 34.4543
2796 1 1.80282 57.1042 35.8181
2847 1 3.63974 56.9743 33.2204
8865 2 5.45131 57.0274 34.4977
2490 1 4.5361 58.6631 35.7849
2528 1 9.09598 56.9743 33.2204
2529 1 6.37546 58.5256 33.1808
8602 2 8.18659 58.581 34.4543
2527 1 7.25906 57.1042 35.8181
2287 1 11.8317 58.5256 33.1808
8631 2 10.9076 57.0274 34.4977
2282 1 9.99234 58.6631 35.7849
2311 1 14.5522 56.9743 33.2204
8442 2 13.6428 58.581 34.4543
2281 1 12.7153 57.1042 35.8181
2130 1 15.4486 58.6631 35.7849
2145 1 17.2879 58.5256 33.1808
8441 2 16.3638 57.0274 34.4977
2143 1 18.1715 57.1042 35.8181
9194 2 21.82 57.0274 34.4977
2144 1 20.0085 56.9743 33.2204
8345 2 19.0991 58.581 34.4543
2062 1 20.9048 58.6631 35.7849
2799 1 0.934596 61.6145 33.0912
8827 2 2.74943 61.6666 34.354
9146 2 0.0112624 60.1271 34.406
2797 1 1.8151 60.2123 35.7493
2798 1 3.65516 60.0709 33.1369
8868 2 5.4675 60.1271 34.406
2489 1 4.54782 61.7433 35.7054
2494 1 6.39083 61.6145 33.0912
2531 1 9.11139 60.0709 33.1369
8601 2 8.20567 61.6666 34.354
2488 1 7.27134 60.2123 35.7493
2286 1 11.8471 61.6145 33.0912
8600 2 10.9237 60.1271 34.406
2259 1 10.0041 61.7433 35.7054
2285 1 14.5676 60.0709 33.1369
8427 2 13.6619 61.6666 34.354
2284 1 12.7276 60.2123 35.7493
2129 1 15.4603 61.7433 35.7054
2134 1 17.3033 61.6145 33.0912
8444 2 16.38 60.1271 34.406
2128 1 18.1838 60.2123 35.7493
2147 1 20.0239 60.0709 33.1369
8344 2 19.1181 61.6666 34.354
2061 1 20.9165 61.7433 35.7054
2755 1 0.964097 64.711 33.0278
8826 2 2.78226 64.7389 34.2856
9147 2 0.0331696 63.2017 34.3106
2751 1 1.82696 63.2648 35.6486
2801 1 3.6755 63.1616 33.052
8825 2 5.48941 63.2017 34.3106
2454 1 4.57347 64.8021 35.6159
2492 1 9.13173 63.1616 33.052
2493 1 6.42034 64.711 33.0278
8574 2 8.2385 64.7389 34.2856
2491 1 7.2832 63.2648 35.6486
2263 1 11.8766 64.711 33.0278
8603 2 10.9456 63.2017 34.3106
2258 1 10.0297 64.8021 35.6159
2288 1 14.588 63.1616 33.052
8426 2 13.6947 64.7389 34.2856
2257 1 12.7394 63.2648 35.6486
2118 1 15.4859 64.8021 35.6159
2133 1 17.3328 64.711 33.0278
8425 2 16.4019 63.2017 34.3106
2131 1 18.1957 63.2648 35.6486
2132 1 20.0442 63.1616 33.052
8341 2 19.151 64.7389 34.2856
2060 1 20.9422 64.8021 35.6159
8788 2 2.83095 67.7976 34.2989
9106 2 0.0745043 66.2708 34.2791
2752 1 1.91339 66.2954 35.6263
8828 2 5.53074 66.2708 34.2791
2453 1 4.66712 67.7901 35.6501
8573 2 8.28719 67.7976 34.2989
2452 1 7.36963 66.2954 35.6263
8572 2 10.987 66.2708 34.2791
2235 1 10.1234 67.7901 35.6501
8411 2 13.7434 67.7976 34.2989
2260 1 12.8259 66.2954 35.6263
2117 1 15.5796 67.7901 35.6501
8428 2 16.4432 66.2708 34.2791
2116 1 18.2821 66.2954 35.6263
8340 2 19.1997 67.7976 34.2989
2059 1 21.0358 67.7901 35.6501
8787 2 2.86509 70.8728 34.3195
9107 2 0.123105 69.3331 34.313
2713 1 1.95623 69.3366 35.6278
8786 2 5.57934 69.3331 34.313
2419 1 4.69398 70.8726 35.6245
8546 2 8.32133 70.8728 34.3195
2455 1 7.41247 69.3366 35.6278
8575 2 11.0356 69.3331 34.313
2234 1 10.1502 70.8726 35.6245
8410 2 13.7776 70.8728 34.3195
2233 1 12.8687 69.3366 35.6278
8409 2 16.4918 69.3331 34.313
2106 1 15.6065 70.8726 35.6245
2119 1 18.3249 69.3366 35.6278
8337 2 19.2338 70.8728 34.3195
2058 1 21.0627 70.8726 35.6245
8756 2 2.86264 73.9534 34.318
9074 2 0.141214 72.4132 34.3221
2714 1 1.96704 72.4152 35.6287
8789 2 5.59745 72.4132 34.3221
2418 1 4.69392 73.9537 35.6264
8545 2 8.31888 73.9534 34.318
2417 1 7.42328 72.4152 35.6287
8544 2 11.0537 72.4132 34.3221
2211 1 10.1502 73.9537 35.6264
8395 2 13.7751 73.9534 34.318
2236 1 12.8795 72.4152 35.6287
8412 2 16.5099 72.4132 34.3221
2105 1 15.6064 73.9537 35.6264
2104 1 18.3358 72.4152 35.6287
8336 2 19.2314 73.9534 34.318
2057 1 21.0626 73.9537 35.6264
9075 2 0.117983 75.492 34.3088
2683 1 1.95419 75.491 35.6316
8754 2 5.57422 75.492 34.3088
2420 1 7.41043 75.491 35.6316
8547 2 11.0305 75.492 34.3088
2209 1 12.8667 75.491 35.6316
8393 2 16.4867 75.492 34.3088
2107 1 18.3229 75.491 35.6316
8755 2 2.82467 77.0265 34.2925
9050 2 0.0688293 78.5544 34.2791
2684 1 1.9005 78.5307 35.6156
8757 2 5.52507 78.5544 34.2791
2391 1 4.6606 77.0298 35.6479
8519 2 8.28091 77.0265 34.2925
2389 1 7.35674 78.5307 35.6156
8517 2 10.9813 78.5544 34.2791
2210 1 10.1168 77.0298 35.6479
8394 2 13.7372 77.0265 34.2925
2212 1 12.813 78.5307 35.6156
8396 2 16.4375 78.5544 34.2791
2094 1 15.5731 77.0298 35.6479
2092 1 18.2692 78.5307 35.6156
8333 2 19.1934 77.0265 34.2925
2056 1 21.0293 77.0298 35.6479
8732 2 2.77785 80.0886 34.2925
9051 2 0.0292882 81.6246 34.3225
2661 1 1.82865 81.5654 35.6687
8730 2 5.48553 81.6246 34.3225
2390 1 4.56667 80.0258 35.627
8518 2 8.23409 80.0886 34.2925
2392 1 7.28489 81.5654 35.6687
8520 2 10.9418 81.6246 34.3225
2188 1 10.0229 80.0258 35.627
8379 2 13.6903 80.0886 34.2925
2186 1 12.7411 81.5654 35.6687
8377 2 16.398 81.6246 34.3225
2093 1 15.4791 80.0258 35.627
2095 1 18.1974 81.5654 35.6687
8332 2 19.1466 80.0886 34.2925
2055 1 20.9354 80.0258 35.627
8731 2 2.7461 83.1615 34.3711
9034 2 0.00671316 84.704 34.4207
2662 1 1.81157 84.6279 35.7544
8733 2 5.46295 84.704 34.4207
2371 1 4.54988 83.0833 35.7173
8499 2 8.20233 83.1615 34.3711
2369 1 7.26781 84.6279 35.7544
8497 2 10.9192 84.704 34.4207
2187 1 10.0061 83.0833 35.7173
8378 2 13.6586 83.1615 34.3711
2189 1 12.724 84.6279 35.7544
2082 1 15.4624 83.0833 35.7173
8380 2 16.3754 84.704 34.4207
2080 1 18.1803 84.6279 35.7544
8329 2 19.1148 83.1615 34.3711
2054 1 20.9186 83.0833 35.7173
2664 1 0.915203 86.3058 33.1897
8716 2 2.72626 86.2533 34.4666
9035 2 -0.00873991 87.8098 34.5074
2647 1 1.79996 87.7421 35.8221
2666 1 3.63587 87.8593 33.2278
8714 2 5.4475 87.8098 34.5074
2370 1 4.53352 86.179 35.7909
2373 1 9.09211 87.8593 33.2278
2375 1 6.37144 86.3058 33.1897
8498 2 8.1825 86.2533 34.4666
2372 1 7.2562 87.7421 35.8221
2191 1 11.8277 86.3058 33.1897
8500 2 10.9037 87.8098 34.5074
2172 1 9.98975 86.179 35.7909
2193 1 14.5483 87.8593 33.2278
8364 2 13.6387 86.2533 34.4666
2170 1 12.7124 87.7421 35.8221
2081 1 15.446 86.179 35.7909
2086 1 17.2839 86.3058 33.1897
8362 2 16.36 87.8098 34.5074
2083 1 18.1687 87.7421 35.8221
2084 1 20.0046 87.8593 33.2278
8328 2 19.095 86.2533 34.4666
2053 1 20.9022 86.179 35.7909
9026 2 -0.0181175 90.9395 34.5767
8715 2 2.714 89.3722 34.5438
2651 1 0.901368 89.4188 33.2623
2648 1 1.79298 90.8852 35.8784
8717 2 5.43812 90.9395 34.5767
2649 1 3.62442 90.9832 33.294
2359 1 4.52395 89.3112 35.8511
8487 2 8.17024 89.3722 34.5438
2376 1 9.08066 90.9832 33.294
2374 1 6.35761 89.4188 33.2623
2357 1 7.24922 90.8852 35.8784
8485 2 10.8944 90.9395 34.5767
2176 1 11.8138 89.4188 33.2623
2171 1 9.98018 89.3112 35.8511
8363 2 13.6265 89.3722 34.5438
2174 1 14.5369 90.9832 33.294
2173 1 12.7055 90.8852 35.8784
2071 1 15.4364 89.3112 35.8511
8365 2 16.3506 90.9395 34.5767
2085 1 17.2701 89.4188 33.2623
2069 1 18.1617 90.8852 35.8784
8325 2 19.0827 89.3722 34.5438
2087 1 19.9931 90.9832 33.294
2052 1 20.8927 89.3112 35.8511
8708 2 2.70714 92.5108 34.6068
2650 1 0.892411 92.5517 33.3235
2641 1 1.79021 94.0417 35.9297
8706 2 5.43327 94.0853 34.6349
2652 1 3.61766 94.1234 33.3513
2358 1 4.51934 92.4622 35.9045
8486 2 8.16338 92.5108 34.6068
2363 1 6.34865 92.5517 33.3235
2361 1 9.0739 94.1234 33.3513
2360 1 7.24645 94.0417 35.9297
8488 2 10.8895 94.0853 34.6349
2175 1 11.8049 92.5517 33.3235
2164 1 9.97558 92.4622 35.9045
8356 2 13.6196 92.5108 34.6068
2177 1 14.5301 94.1234 33.3513
2162 1 12.7027 94.0417 35.9297
2070 1 15.4318 92.4622 35.9045
8354 2 16.3458 94.0853 34.6349
2075 1 17.2611 92.5517 33.3235
2072 1 18.1589 94.0417 35.9297
8324 2 19.0759 92.5108 34.6068
2073 1 19.9864 94.1234 33.3513
9027 2 21.802 94.0853 34.6349
2051 1 20.8881 92.4622 35.9045
8707 2 2.70384 95.6623 34.6613
2645 1 0.887494 95.6978 33.3777
2642 1 1.78971 97.2054 35.9775
8709 2 5.43114 97.2413 34.6864
2643 1 3.6142 97.2744 33.4028
2355 1 4.51789 95.6228 35.9539
8483 2 8.16008 95.6623 34.6613
2364 1 9.07044 97.2744 33.4028
2362 1 6.34373 95.6978 33.3777
2353 1 7.24595 97.2054 35.9775
8481 2 10.8874 97.2413 34.6864
2168 1 11.8 95.6978 33.3777
2163 1 9.97413 95.6228 35.9539
8355 2 13.6163 95.6623 34.6613
2166 1 14.5267 97.2744 33.4028
2165 1 12.7022 97.2054 35.9775
2067 1 15.4304 95.6228 35.9539
8357 2 16.3436 97.2413 34.6864
2074 1 17.2562 95.6978 33.3777
2065 1 18.1584 97.2054 35.9775
8322 2 19.0726 95.6623 34.6613
2076 1 19.9829 97.2744 33.4028
9025 2 21.7999 97.2413 34.6864
2050 1 20.8866 95.6228 35.9539
8705 2 2.70259 98.8218 34.7104
2644 1 0.885152 98.8527 33.427
4936 1 3.61271 100.432 33.4503
11081 2 5.43056 100.404 34.7336
8482 2 8.15883 98.8218 34.7104
2356 1 6.34139 98.8527 33.427
4609 1 9.06895 100.432 33.4503
2167 1 11.7976 98.8527 33.427
10832 2 10.8868 100.404 34.7336
8353 2 13.6151 98.8218 34.7104
4376 1 14.5252 100.432 33.4503
2068 1 17.2539 98.8527 33.427
10633 2 16.343 100.404 34.7336
8321 2 19.0713 98.8218 34.7104
11417 2 21.7993 100.404 34.7336
4201 1 19.9814 100.432 33.4503
10494 2 0.882469 52.4344 37.1776
2842 1 1.79236 50.8099 35.9287
16495 1 2.69236 52.5033 38.4756
10496 2 3.61003 50.8533 37.2056
2526 1 4.52164 52.3886 35.9029
16494 1 5.4224 50.9119 38.4995
10462 2 9.06627 50.8533 37.2056
10463 2 6.33871 52.4344 37.1776
2560 1 7.2486 50.8099 35.9287
16398 1 8.1486 52.5033 38.4756
10430 2 11.7949 52.4344 37.1776
2306 1 9.97788 52.3886 35.9029
16400 1 10.8786 50.9119 38.4995
10432 2 14.5225 50.8533 37.2056
2305 1 12.7048 50.8099 35.9287
16207 1 13.6048 52.5033 38.4756
2142 1 15.4341 52.3886 35.9029
10399 2 17.2512 52.4344 37.1776
16206 1 16.3349 50.9119 38.4995
2152 1 18.1611 50.8099 35.9287
16512 1 21.7911 50.9119 38.4995
10398 2 19.9787 50.8533 37.2056
15920 1 19.0611 52.5033 38.4756
2064 1 20.8904 52.3886 35.9029
10493 2 0.886013 55.5872 37.1136
16491 1 2.68533 55.6913 38.4277
10492 2 3.61185 54.0128 37.1472
16496 1 5.41775 54.0961 38.4516
10460 2 6.34225 55.5872 37.1136
10464 2 9.06809 54.0128 37.1472
16397 1 8.14157 55.6913 38.4277
10429 2 11.7985 55.5872 37.1136
16396 1 10.874 54.0961 38.4516
10428 2 14.5243 54.0128 37.1472
16203 1 13.5978 55.6913 38.4277
10396 2 17.2547 55.5872 37.1136
16208 1 16.3302 54.0961 38.4516
16510 1 21.7865 54.0961 38.4516
10400 2 19.9806 54.0128 37.1472
15919 1 19.054 55.6913 38.4277
10490 2 0.894893 58.7171 37.0314
16490 1 2.66714 58.8966 38.3811
10495 2 3.61784 57.1559 37.0756
16489 1 5.40642 57.2904 38.4048
10458 2 9.07407 57.1559 37.0756
10459 2 6.35113 58.7171 37.0314
16390 1 8.12338 58.8966 38.3811
10426 2 11.8074 58.7171 37.0314
16399 1 10.8627 57.2904 38.4048
10431 2 14.5303 57.1559 37.0756
16202 1 13.5796 58.8966 38.3811
10395 2 17.2636 58.7171 37.0314
16201 1 16.3189 57.2904 38.4048
16511 1 21.7751 57.2904 38.4048
10394 2 19.9866 57.1559 37.0756
15914 1 19.0359 58.8966 38.3811
10489 2 0.91396 61.7987 36.9136
16480 1 2.55363 62.1838 38.3716
10488 2 3.63042 60.2656 36.9776
16492 1 5.37185 60.5095 38.3549
10456 2 6.3702 61.7987 36.9136
10461 2 9.08666 60.2656 36.9776
16389 1 8.00987 62.1838 38.3716
10425 2 11.8264 61.7987 36.9136
16388 1 10.8281 60.5095 38.3549
10424 2 14.5429 60.2656 36.9776
16191 1 13.4661 62.1838 38.3716
10392 2 17.2827 61.7987 36.9136
16204 1 16.2843 60.5095 38.3549
16508 1 21.7406 60.5095 38.3549
10397 2 19.9991 60.2656 36.9776
15913 1 18.9223 62.1838 38.3716
10486 2 0.916906 64.8021 36.8044
10491 2 3.64582 63.3099 36.8478
16478 1 5.06043 63.9692 38.3994
10454 2 9.10206 63.3099 36.8478
10455 2 6.37314 64.8021 36.8044
10422 2 11.8294 64.8021 36.8044
16391 1 10.5167 63.9692 38.3994
10427 2 14.5583 63.3099 36.8478
10391 2 17.2856 64.8021 36.8044
16189 1 15.9729 63.9692 38.3994
16509 1 21.4291 63.9692 38.3994
10390 2 20.0145 63.3099 36.8478
10485 2 1.05205 67.786 36.8726
16479 1 2.12973 65.7041 38.3471
10484 2 3.69911 66.2741 36.8716
16481 1 4.90541 67.5358 38.2807
10452 2 6.50829 67.786 36.8726
10457 2 9.15535 66.2741 36.8716
16374 1 7.58596 65.7041 38.3471
10421 2 11.9645 67.786 36.8726
16372 1 10.3617 67.5358 38.2807
10420 2 14.6116 66.2741 36.8716
16190 1 13.0422 65.7041 38.3471
10388 2 17.4208 67.786 36.8726
16192 1 15.8179 67.5358 38.2807
16506 1 21.2741 67.5358 38.2807
10393 2 20.0678 66.2741 36.8716
15900 1 18.4984 65.7041 38.3471
10482 2 1.107 70.8673 36.9045
16468 1 2.1787 69.2047 38.2343
10487 2 3.82158 69.323 36.8927
16466 1 4.90766 70.8292 38.232
10450 2 9.27782 69.323 36.8927
10451 2 6.56324 70.8673 36.9045
16373 1 7.63494 69.2047 38.2343
10418 2 12.0195 70.8673 36.9045
16375 1 10.3639 70.8292 38.232
10423 2 14.7341 69.323 36.8927
16171 1 13.0912 69.2047 38.2343
10387 2 17.4757 70.8673 36.9045
16169 1 15.8201 70.8292 38.232
15899 1 18.5474 69.2047 38.2343
16507 1 21.2764 70.8292 38.232
10386 2 20.1903 69.323 36.8927
10481 2 1.10183 73.9663 36.9039
16467 1 2.18203 72.4299 38.2386
10480 2 3.83725 72.4162 36.9027
16469 1 4.90292 74.0221 38.2412
10448 2 6.55807 73.9663 36.9039
10453 2 9.29348 72.4162 36.9027
16351 1 7.63827 72.4299 38.2386
10417 2 12.0143 73.9663 36.9039
16349 1 10.3592 74.0221 38.2412
10416 2 14.7497 72.4162 36.9027
16170 1 13.0945 72.4299 38.2386
10384 2 17.4705 73.9663 36.9039
16172 1 15.8154 74.0221 38.2412
15878 1 18.5507 72.4299 38.2386
16504 1 21.2716 74.0221 38.2412
10389 2 20.206 72.4162 36.9027
16456 1 2.17869 75.6728 38.2336
10483 2 3.81699 75.5061 36.8867
10446 2 9.27323 75.5061 36.8867
16350 1 7.63493 75.6728 38.2336
10419 2 14.7295 75.5061 36.8867
16143 1 13.0912 75.6728 38.2336
15877 1 18.5474 75.6728 38.2336
10382 2 20.1857 75.5061 36.8867
10478 2 1.0376 77.0478 36.8592
16455 1 2.16912 79.224 38.3752
10476 2 3.6795 78.5352 36.8551
16454 1 4.90988 77.3746 38.3016
10447 2 6.49384 77.0478 36.8592
10449 2 9.13574 78.5352 36.8551
16327 1 7.62536 79.224 38.3752
10414 2 11.9501 77.0478 36.8592
16352 1 10.3661 77.3746 38.3016
10412 2 14.592 78.5352 36.8551
16142 1 13.0816 79.224 38.3752
10383 2 17.4063 77.0478 36.8592
16141 1 15.8224 77.3746 38.3016
15848 1 18.5378 79.224 38.3752
16505 1 21.2786 77.3746 38.3016
10385 2 20.0482 78.5352 36.8551
10477 2 0.91268 80.0164 36.8104
16444 1 2.63165 82.7599 38.3242
10479 2 3.6514 81.5074 36.8728
16457 1 5.16423 80.9527 38.4219
10442 2 9.10764 81.5074 36.8728
10444 2 6.36892 80.0164 36.8104
16326 1 8.08789 82.7599 38.3242
10413 2 11.8252 80.0164 36.8104
16325 1 10.6205 80.9527 38.4219
10415 2 14.5639 81.5074 36.8728
16108 1 13.5441 82.7599 38.3242
10380 2 17.2814 80.0164 36.8104
16144 1 16.0767 80.9527 38.4219
15847 1 19.0004 82.7599 38.3242
16502 1 21.5329 80.9527 38.4219
10378 2 20.0201 81.5074 36.8728
10474 2 0.909364 83.035 36.9336
16443 1 2.67328 85.9797 38.3828
10472 2 3.62502 84.5712 36.9969
16442 1 5.38669 84.3655 38.3558
10443 2 6.3656 83.035 36.9336
10445 2 9.08126 84.5712 36.9969
16303 1 8.12952 85.9797 38.3828
10410 2 11.8218 83.035 36.9336
16328 1 10.8429 84.3655 38.3558
10408 2 14.5375 84.5712 36.9969
16107 1 13.5858 85.9797 38.3828
10379 2 17.2781 83.035 36.9336
16106 1 16.2992 84.3655 38.3558
16503 1 21.7554 84.3655 38.3558
10381 2 19.9937 84.5712 36.9969
15810 1 19.042 85.9797 38.3828
10473 2 0.891216 86.1273 37.0448
10475 2 3.61422 87.6917 37.0856
16445 1 5.40934 87.579 38.4047
10438 2 9.07046 87.6917 37.0856
10440 2 6.34745 86.1273 37.0448
10409 2 11.8037 86.1273 37.0448
16301 1 10.8656 87.579 38.4047
10411 2 14.5267 87.6917 37.0856
10376 2 17.2599 86.1273 37.0448
16109 1 16.3218 87.579 38.4047
16500 1 21.7781 87.579 38.4047
10374 2 19.9829 87.6917 37.0856
16432 1 2.68666 89.1763 38.4283
10470 2 0.88302 89.2635 37.1209
10468 2 3.60929 90.8401 37.1524
16430 1 5.4178 90.7694 38.4523
16302 1 8.14289 89.1763 38.4283
10439 2 6.33926 89.2635 37.1209
10441 2 9.06553 90.8401 37.1524
10406 2 11.7955 89.2635 37.1209
16304 1 10.874 90.7694 38.4523
16072 1 13.5991 89.1763 38.4283
10404 2 14.5218 90.8401 37.1524
10375 2 17.2517 89.2635 37.1209
16070 1 16.3303 90.7694 38.4523
15809 1 19.0554 89.1763 38.4283
16501 1 21.7865 90.7694 38.4523
10377 2 19.978 90.8401 37.1524
16431 1 2.69174 92.3613 38.4762
10469 2 0.880209 92.42 37.1811
10471 2 3.60796 94.0022 37.2078
16433 1 5.42137 93.952 38.4997
16279 1 8.14797 92.3613 38.4762
10434 2 9.0642 94.0022 37.2078
10436 2 6.33645 92.42 37.1811
10405 2 11.7927 92.42 37.1811
16277 1 10.8776 93.952 38.4997
16071 1 13.6042 92.3613 38.4762
10407 2 14.5204 94.0022 37.2078
10372 2 17.2489 92.42 37.1811
16073 1 16.3338 93.952 38.4997
15765 1 19.0605 92.3613 38.4762
16498 1 21.7901 93.952 38.4997
10370 2 19.9767 94.0022 37.2078
10467 2 0.87989 95.5861 37.2331
16420 1 2.69459 95.5423 38.5229
10465 2 3.60833 97.1712 37.2573
16418 1 5.42396 97.1323 38.5456
10435 2 6.33613 95.5861 37.2331
10437 2 9.06457 97.1712 37.2573
16278 1 8.15083 95.5423 38.5229
10403 2 11.7924 95.5861 37.2331
16280 1 10.8802 97.1323 38.5456
10401 2 14.5208 97.1712 37.2573
16036 1 13.6071 95.5423 38.5229
10371 2 17.2486 95.5861 37.2331
16034 1 16.3364 97.1323 38.5456
16499 1 21.7927 97.1323 38.5456
10373 2 19.977 97.1712 37.2573
15764 1 19.0633 95.5423 38.5229
4890 1 1.79033 100.373 36.0225
10466 2 0.880732 98.7572 37.2805
16419 1 2.69706 98.7222 38.5679
12672 2 3.6095 100.344 37.303
2354 1 4.51805 98.789 36.0003
16421 1 5.42638 100.312 38.5896
4608 1 7.24657 100.373 36.0225
12638 2 9.06574 100.344 37.303
10433 2 6.33697 98.7572 37.2805
16256 1 8.1533 98.7222 38.5679
10402 2 11.7932 98.7572 37.2805
16254 1 10.8826 100.312 38.5896
2161 1 9.97429 98.789 36.0003
4353 1 12.7028 100.373 36.0225
12608 2 14.522 100.344 37.303
16035 1 13.6095 98.7222 38.5679
2066 1 15.4305 98.789 36.0003
4200 1 18.159 100.373 36.0225
10369 2 17.2494 98.7572 37.2805
16037 1 16.3389 100.312 38.5896
12574 2 19.9782 100.344 37.303
16497 1 21.7951 100.312 38.5896
15719 1 19.0658 98.7222 38.5679
2049 1 20.8868 98.789 36.0003
16487 1 0.86989 52.6191 41.033
22151 2 1.7881 50.9523 39.7694
16493 1 3.60148 51.0153 41.0583
22118 2 4.51546 52.5442 39.7412
16393 1 9.05772 51.0153 41.0583
16394 1 6.32613 52.6191 41.033
22120 2 7.24434 50.9523 39.7694
16199 1 11.7824 52.6191 41.033
21991 2 9.9717 52.5442 39.7412
16205 1 14.514 51.0153 41.0583
21766 2 15.4279 52.5442 39.7412
21990 2 12.7006 50.9523 39.7694
15917 1 17.2386 52.6191 41.033
21768 2 18.1568 50.9523 39.7694
15916 1 19.9702 51.0153 41.0583
21448 2 20.8842 52.5442 39.7412
16486 1 0.85878 55.8411 40.9797
22152 2 1.78679 54.1363 39.7106
16485 1 3.59331 54.2271 41.007
22117 2 4.51436 55.7292 39.6772
16386 1 6.31502 55.8411 40.9797
16395 1 9.04955 54.2271 41.007
22116 2 7.24303 54.1363 39.7106
16198 1 11.7713 55.8411 40.9797
21987 2 9.9706 55.7292 39.6772
16197 1 14.5058 54.2271 41.007
21765 2 15.4268 55.7292 39.6772
21992 2 12.6993 54.1363 39.7106
15911 1 17.2275 55.8411 40.9797
21764 2 18.1555 54.1363 39.7106
15918 1 19.962 54.2271 41.007
21447 2 20.8831 55.7292 39.6772
22148 2 1.7855 57.324 39.6395
16476 1 0.835008 59.0963 40.9183
16488 1 3.57745 57.4634 40.9501
22110 2 4.51111 58.9247 39.5978
16384 1 9.03369 57.4634 40.9501
22119 2 7.24174 57.324 39.6395
16385 1 6.29125 59.0963 40.9183
16187 1 11.7475 59.0963 40.9183
21986 2 9.96735 58.9247 39.5978
16200 1 14.4899 57.4634 40.9501
21985 2 12.698 57.324 39.6395
21758 2 15.4236 58.9247 39.5978
21767 2 18.1542 57.324 39.6395
15910 1 17.2037 59.0963 40.9183
15909 1 19.9462 57.4634 40.9501
21446 2 20.8798 58.9247 39.5978
22149 2 1.77828 60.5327 39.5481
16474 1 3.54438 60.7474 40.8814
22109 2 4.4936 62.168 39.4851
16387 1 9.00061 60.7474 40.8814
22108 2 7.23451 60.5327 39.5481
21975 2 9.94984 62.168 39.4851
16185 1 14.4569 60.7474 40.8814
21988 2 12.6908 60.5327 39.5481
21757 2 15.4061 62.168 39.4851
21756 2 18.147 60.5327 39.5481
15912 1 19.9131 60.7474 40.8814
21439 2 20.8623 62.168 39.4851
16475 1 0.80293 62.4101 40.8157
22144 2 1.71229 63.8695 39.4291
16477 1 3.56374 64.0502 40.6567
16368 1 9.01998 64.0502 40.6567
16370 1 6.25917 62.4101 40.8157
22111 2 7.16852 63.8695 39.4291
16186 1 11.7154 62.4101 40.8157
16188 1 14.4762 64.0502 40.6567
21973 2 12.6248 63.8695 39.4291
15897 1 17.1716 62.4101 40.8157
21759 2 18.081 63.8695 39.4291
15895 1 19.9325 64.0502 40.6567
16464 1 0.809158 65.6828 40.5846
22145 2 1.5645 67.4828 39.4198
16462 1 3.46436 67.3847 40.6516
22095 2 4.3457 65.7235 39.3834
16369 1 6.2654 65.6828 40.5846
16371 1 8.92059 67.3847 40.6516
22093 2 7.02074 67.4828 39.4198
16167 1 11.7216 65.6828 40.5846
21974 2 9.80194 65.7235 39.3834
16165 1 14.3768 67.3847 40.6516
21742 2 15.2582 65.7235 39.3834
21976 2 12.477 67.4828 39.4198
15896 1 17.1779 65.6828 40.5846
21740 2 17.9332 67.4828 39.4198
15898 1 19.8331 67.3847 40.6516
21438 2 20.7144 65.7235 39.3834
16463 1 0.674513 69.0815 40.7283
22140 2 1.51082 70.8012 39.4793
16465 1 3.37136 70.7686 40.7639
22094 2 4.25516 69.1648 39.4596
16347 1 6.13075 69.0815 40.7283
16345 1 8.8276 70.7686 40.7639
22096 2 6.96706 70.8012 39.4793
16166 1 11.587 69.0815 40.7283
21955 2 9.7114 69.1647 39.4596
21953 2 12.4233 70.8012 39.4793
16168 1 14.2838 70.7686 40.7639
21741 2 15.1676 69.1648 39.4596
15875 1 17.0432 69.0815 40.7283
21743 2 17.8795 70.8012 39.4793
15873 1 19.7401 70.7686 40.7639
21423 2 20.6239 69.1647 39.4596
16452 1 0.641293 72.4488 40.76
22141 2 1.51381 74.0779 39.4716
16450 1 3.3778 74.1296 40.7527
22079 2 4.23192 72.4327 39.4891
16346 1 6.09753 72.4488 40.76
16348 1 8.83404 74.1296 40.7527
22077 2 6.97004 74.0779 39.4716
16139 1 11.5538 72.4488 40.76
21954 2 9.68816 72.4327 39.4891
21956 2 12.4263 74.0779 39.4716
16137 1 14.2903 74.1296 40.7527
21718 2 15.1444 72.4327 39.4891
15874 1 17.01 72.4488 40.76
21716 2 17.8825 74.0779 39.4716
15876 1 19.7465 74.1296 40.7527
21422 2 20.6006 72.4327 39.4891
16451 1 0.68786 75.8237 40.7099
22078 2 4.26324 75.7189 39.4444
16323 1 6.1441 75.8237 40.7099
16138 1 11.6003 75.8237 40.7099
21928 2 9.71948 75.7189 39.4444
21717 2 15.1757 75.7189 39.4444
15845 1 17.0566 75.8237 40.7099
21399 2 20.632 75.7189 39.4444
16440 1 0.82987 79.2371 40.5594
22136 2 1.57768 77.4189 39.4039
16453 1 3.48807 77.5201 40.6191
22063 2 4.36156 79.2188 39.3725
16322 1 6.28611 79.2371 40.5594
16321 1 8.94431 77.5201 40.6191
22080 2 7.03391 77.4189 39.4039
16104 1 11.7423 79.2371 40.5594
21927 2 9.81779 79.2188 39.3725
21926 2 12.4902 77.4189 39.4039
16140 1 14.4006 77.5201 40.6191
21686 2 15.274 79.2188 39.3725
15844 1 17.1986 79.2371 40.5594
21719 2 17.9464 77.4189 39.4039
15843 1 19.8568 77.5201 40.6191
21398 2 20.7303 79.2188 39.3725
16439 1 0.803891 82.4966 40.8511
22137 2 1.74214 81.0886 39.4316
16438 1 3.55171 80.83 40.6962
22062 2 4.50261 82.7226 39.5069
16299 1 6.26013 82.4966 40.8511
16324 1 9.00795 80.83 40.6962
22061 2 7.19838 81.0886 39.4316
16103 1 11.7164 82.4966 40.8511
21900 2 9.95885 82.7226 39.5069
21929 2 12.6546 81.0886 39.4316
16102 1 14.4642 80.83 40.6962
21685 2 15.4151 82.7226 39.5069
15807 1 17.1726 82.4966 40.8511
21684 2 18.1109 81.0886 39.4316
15846 1 19.9204 80.83 40.6962
21367 2 20.8713 82.7226 39.5069
16428 1 0.841668 85.7974 40.9219
22132 2 1.77896 84.3433 39.5652
16441 1 3.54964 84.1504 40.8914
22047 2 4.51149 85.9461 39.6087
16297 1 9.00588 84.1504 40.8914
16298 1 6.29791 85.7974 40.9219
22064 2 7.2352 84.3433 39.5652
16068 1 11.7541 85.7974 40.9219
21899 2 9.96773 85.9461 39.6087
16105 1 14.4621 84.1504 40.8914
21647 2 15.424 85.9461 39.6087
21898 2 12.6914 84.3433 39.5652
15806 1 17.2104 85.7974 40.9219
21687 2 18.1477 84.3433 39.5652
15805 1 19.9184 84.1504 40.8914
21366 2 20.8802 85.9461 39.6087
16427 1 0.861041 89.0422 40.9822
22133 2 1.78391 87.5443 39.6494
16426 1 3.58191 87.4231 40.9534
16275 1 6.31728 89.0422 40.9822
16300 1 9.03815 87.4231 40.9534
22045 2 7.24015 87.5443 39.6494
16067 1 11.7735 89.0422 40.9822
16066 1 14.4944 87.4231 40.9534
21901 2 12.6964 87.5443 39.6494
15762 1 17.2298 89.0422 40.9822
21645 2 18.1526 87.5443 39.6494
15808 1 19.9506 87.4231 40.9534
22128 2 1.78503 90.7304 39.7159
22046 2 4.51277 89.1376 39.6843
16429 1 3.59443 90.6527 41.0085
16273 1 9.05067 90.6527 41.0085
22048 2 7.24126 90.7304 39.7159
21872 2 9.96901 89.1376 39.6843
21646 2 15.4252 89.1376 39.6843
16069 1 14.5069 90.6527 41.0085
21870 2 12.6975 90.7304 39.7159
21648 2 18.1537 90.7304 39.7159
21327 2 20.8815 89.1376 39.6843
15760 1 19.9631 90.6527 41.0085
16416 1 0.870151 92.2587 41.0341
22129 2 1.78648 93.9147 39.7717
22031 2 4.51379 92.3226 39.7448
16414 1 3.60116 93.8608 41.0588
16274 1 6.32639 92.2587 41.0341
16276 1 9.0574 93.8608 41.0588
22029 2 7.24272 93.9147 39.7717
16032 1 11.7826 92.2587 41.0341
21871 2 9.97003 92.3226 39.7448
21607 2 15.4263 92.3226 39.7448
16030 1 14.5136 93.8608 41.0588
21873 2 12.699 93.9147 39.7717
15761 1 17.2389 92.2587 41.0341
21605 2 18.1552 93.9147 39.7717
21326 2 20.8825 92.3226 39.7448
15763 1 19.9699 93.8608 41.0588
16415 1 0.875366 95.4604 41.0828
22124 2 1.78854 97.0988 39.8213
16417 1 3.60547 97.0581 41.1062
22030 2 4.51558 95.5068 39.7971
16250 1 9.06171 97.0581 41.1062
16252 1 6.3316 95.4604 41.0828
22032 2 7.24478 97.0988 39.8213
16031 1 11.7878 95.4604 41.0828
21844 2 9.97182 95.5068 39.7971
16033 1 14.518 97.0581 41.1062
21606 2 15.4281 95.5068 39.7971
21842 2 12.701 97.0988 39.8213
15716 1 17.2441 95.4604 41.0828
21608 2 18.1573 97.0988 39.8213
15714 1 19.9742 97.0581 41.1062
21280 2 20.8843 95.5068 39.7971
16408 1 0.879135 98.6545 41.1289
22125 2 1.79086 100.283 39.8672
16406 1 3.6089 100.25 41.1511
22016 2 4.5178 98.6908 39.8446
16251 1 6.33537 98.6545 41.1289
16253 1 9.06513 100.25 41.1511
22014 2 7.24709 100.283 39.8672
16000 1 11.7916 98.6545 41.1289
21843 2 9.97404 98.6908 39.8446
15998 1 14.5214 100.25 41.1511
21568 2 15.4303 98.6908 39.8446
21845 2 12.7033 100.283 39.8672
15715 1 17.2479 98.6545 41.1289
21566 2 18.1596 100.283 39.8672
15717 1 19.9776 100.25 41.1511
21279 2 20.8865 98.6908 39.8446
16483 1 1.78645 51.1124 43.6059
22114 2 2.69734 52.6525 42.293
16382 1 4.5113 52.7247 43.5769
22113 2 5.42692 51.0503 42.3231
16392 1 7.24269 51.1124 43.6059
21983 2 8.15358 52.6525 42.293
16195 1 9.96754 52.7247 43.5769
21989 2 10.8832 51.0503 42.3231
15907 1 15.4238 52.7247 43.5769
16194 1 12.6989 51.1124 43.6059
21762 2 13.6098 52.6525 42.293
15915 1 18.1552 51.1124 43.6059
21761 2 16.3394 51.0503 42.3231
22150 2 21.7956 51.0503 42.3231
15552 1 20.88 52.7247 43.5769
21445 2 19.0661 52.6525 42.293
16484 1 1.7791 54.3419 43.5457
22106 2 2.69342 55.8659 42.2241
16381 1 4.50198 55.9651 43.5115
22115 2 5.42379 54.2572 42.2602
16380 1 7.23534 54.3419 43.5457
21982 2 8.14966 55.8659 42.2241
16183 1 9.95822 55.9651 43.5115
21981 2 10.88 54.2572 42.2602
15906 1 15.4145 55.9651 43.5115
16196 1 12.6916 54.3419 43.5457
21754 2 13.6059 55.8659 42.2241
15905 1 18.1478 54.3419 43.5457
21763 2 16.3363 54.2572 42.2602
22146 2 21.7925 54.2572 42.2602
15551 1 20.8707 55.9651 43.5115
21444 2 19.0621 55.8659 42.2241
16472 1 1.76765 57.5956 43.4732
22105 2 2.68384 59.1039 42.1375
22104 2 5.41803 57.4803 42.1836
16366 1 4.49039 59.2338 43.4262
16383 1 7.22388 57.5956 43.4732
21971 2 8.14008 59.1039 42.1375
21984 2 10.8743 57.4803 42.1836
16182 1 9.94663 59.2338 43.4262
16181 1 12.6801 57.5956 43.4732
15893 1 15.4029 59.2338 43.4262
21753 2 13.5963 59.1039 42.1375
15908 1 18.1364 57.5956 43.4732
21752 2 16.3305 57.4803 42.1836
22147 2 21.7867 57.4803 42.1836
15550 1 20.8591 59.2338 43.4262
21437 2 19.0526 59.1039 42.1375
16473 1 1.75902 60.8784 43.362
22107 2 5.40127 60.744 42.0831
16364 1 7.21526 60.8784 43.362
21969 2 10.8575 60.744 42.0831
16184 1 12.6715 60.8784 43.362
15891 1 18.1277 60.8784 43.362
21755 2 16.3137 60.744 42.0831
22142 2 21.77 60.744 42.0831
16460 1 1.72576 64.1633 43.2454
22091 2 2.65435 62.4104 42.02
16365 1 4.4756 62.5237 43.2924
22089 2 5.35397 64.0887 41.9645
16367 1 7.182 64.1633 43.2454
21970 2 8.11059 62.4104 42.02
16163 1 9.93184 62.5237 43.2924
21972 2 10.8102 64.0887 41.9645
15892 1 15.3881 62.5237 43.2924
16161 1 12.6382 64.1633 43.2454
21738 2 13.5668 62.4104 42.02
15894 1 18.0945 64.1633 43.2454
21736 2 16.2664 64.0887 41.9645
22143 2 21.7227 64.0887 41.9645
15543 1 20.8443 62.5237 43.2924
21436 2 19.0231 62.4104 42.02
16461 1 1.68345 67.4307 43.1956
22090 2 2.5934 65.7531 41.9379
16343 1 4.42864 65.7971 43.214
22092 2 5.28454 67.4299 41.9464
16341 1 7.13969 67.4307 43.1956
21951 2 8.04964 65.7531 41.9379
16162 1 9.88488 65.7971 43.214
21949 2 10.7408 67.4299 41.9464
15871 1 15.3411 65.7971 43.214
16164 1 12.5959 67.4307 43.1956
21737 2 13.5059 65.7531 41.9379
15869 1 18.0522 67.4307 43.1956
21739 2 16.197 67.4299 41.9464
22138 2 21.6533 67.4299 41.9464
15542 1 20.7974 65.7971 43.214
21421 2 18.9621 65.7531 41.9379
16448 1 1.65223 70.7709 43.2384
22075 2 2.5303 69.1112 41.9742
16342 1 4.39755 69.0932 43.2112
22073 2 5.24419 70.7847 41.992
16344 1 7.10847 70.7709 43.2384
21950 2 7.98654 69.1112 41.9742
16135 1 9.85379 69.0932 43.2112
21952 2 10.7004 70.7847 41.992
15870 1 15.31 69.0932 43.2112
16133 1 12.5647 70.7709 43.2384
21714 2 13.4428 69.1112 41.9742
15872 1 18.0209 70.7709 43.2384
21712 2 16.1567 70.7847 41.992
22139 2 21.6129 70.7847 41.992
15527 1 20.7663 69.0932 43.2112
21420 2 18.899 69.1112 41.9742
16449 1 1.65634 74.1376 43.2294
22074 2 2.51083 72.4472 41.9959
16319 1 4.37448 72.4549 43.2473
22076 2 5.24735 74.1113 41.9844
16317 1 7.11258 74.1376 43.2294
21924 2 7.96706 72.4472 41.9959
16134 1 9.83071 72.4549 43.2473
21922 2 10.7036 74.1113 41.9844
15841 1 15.287 72.4549 43.2473
16136 1 12.5688 74.1376 43.2294
21713 2 13.4233 72.4472 41.9959
15839 1 18.0251 74.1376 43.2294
21715 2 16.1598 74.1113 41.9844
22134 2 21.6161 74.1113 41.9844
15526 1 20.7432 72.4549 43.2473
21397 2 18.8795 72.4472 41.9959
22059 2 2.53673 75.7889 41.9624
16318 1 4.4036 75.8121 43.1976
21923 2 7.99297 75.7889 41.9624
16100 1 9.85983 75.8121 43.1976
15840 1 15.3161 75.8121 43.1976
21682 2 13.4492 75.7889 41.9624
15503 1 20.7723 75.8121 43.1976
21396 2 18.9054 75.7889 41.9624
16436 1 1.68769 77.4695 43.1868
22058 2 2.60288 79.1484 41.9324
16295 1 4.4366 79.0963 43.2131
22057 2 5.29349 77.473 41.9327
16320 1 7.14392 77.4695 43.1868
21896 2 8.05912 79.1484 41.9324
16099 1 9.89284 79.0963 43.2131
21925 2 10.7497 77.473 41.9327
15803 1 15.3491 79.0963 43.2131
16098 1 12.6002 77.4695 43.1868
21681 2 13.5154 79.1484 41.9324
15842 1 18.0564 77.4695 43.1868
21680 2 16.206 77.473 41.9327
22135 2 21.6622 77.473 41.9327
15502 1 20.8053 79.0963 43.2131
21365 2 18.9716 79.1484 41.9324
16437 1 1.7329 80.7322 43.2496
22043 2 2.66145 82.493 42.04
16294 1 4.48417 82.3733 43.3026
22060 2 5.36423 80.8141 41.9667
16293 1 7.18913 80.7322 43.2496
21895 2 8.11769 82.493 42.04
16064 1 9.94041 82.3733 43.3026
21894 2 10.8205 80.8141 41.9667
15802 1 15.3966 82.3733 43.3026
16101 1 12.6454 80.7322 43.2496
21643 2 13.5739 82.493 42.04
15801 1 18.1016 80.7322 43.2496
21683 2 16.2767 80.8141 41.9667
22130 2 21.7329 80.8141 41.9667
15471 1 20.8529 82.3733 43.3026
21364 2 19.0302 82.493 42.04
16424 1 1.76193 84.0218 43.3806
22042 2 2.68554 85.7851 42.1506
16271 1 4.49169 85.6652 43.4395
22041 2 5.40527 84.1553 42.0996
16296 1 7.21817 84.0218 43.3806
21868 2 8.14178 85.7851 42.1506
16063 1 9.94793 85.6652 43.4395
21897 2 10.8615 84.1553 42.0996
15758 1 15.4042 85.6652 43.4395
16062 1 12.6744 84.0218 43.3806
21642 2 13.598 85.7851 42.1506
15804 1 18.1306 84.0218 43.3806
21641 2 16.3177 84.1553 42.0996
22131 2 21.774 84.1553 42.0996
15470 1 20.8604 85.6652 43.4395
21325 2 19.0543 85.7851 42.1506
16425 1 1.76961 87.3007 43.4808
22027 2 2.69282 89.0158 42.232
16270 1 4.50356 88.9283 43.5169
22044 2 5.41815 87.4041 42.1939
16269 1 7.22585 87.3007 43.4808
21867 2 8.14906 89.0158 42.232
16028 1 9.9598 88.9283 43.5169
21866 2 10.8744 87.4041 42.1939
15757 1 15.416 88.9283 43.5169
16065 1 12.6821 87.3007 43.4808
21603 2 13.6053 89.0158 42.232
15756 1 18.1383 87.3007 43.4808
21644 2 16.3306 87.4041 42.1939
22126 2 21.7869 87.4041 42.1939
15431 1 20.8723 88.9283 43.5169
21324 2 19.0615 89.0158 42.232
16412 1 1.78 90.5489 43.5496
22025 2 5.42273 90.6228 42.2662
16272 1 7.23624 90.5489 43.5496
21869 2 10.879 90.6228 42.2662
16026 1 12.6925 90.5489 43.5496
15759 1 18.1487 90.5489 43.5496
21601 2 16.3352 90.6228 42.2662
22127 2 21.7914 90.6228 42.2662
22026 2 2.69614 92.2265 42.2972
16413 1 1.78626 93.7744 43.6076
16248 1 4.51156 92.1639 43.5796
22028 2 5.42563 93.8281 42.3259
21840 2 8.15238 92.2265 42.2972
16246 1 7.2425 93.7744 43.6076
16027 1 9.9678 92.1639 43.5796
21838 2 10.8819 93.8281 42.3259
15712 1 15.424 92.1639 43.5796
21602 2 13.6086 92.2265 42.2972
16029 1 12.6987 93.7744 43.6076
15710 1 18.155 93.7744 43.6076
21604 2 16.3381 93.8281 42.3259
15430 1 20.8803 92.1639 43.5796
21278 2 19.0649 92.2265 42.2972
22122 2 21.7943 93.8281 42.3259
16404 1 1.79065 96.9858 43.6593
22012 2 2.69888 95.4281 42.3528
16247 1 4.51673 95.3815 43.634
22010 2 5.42836 97.0268 42.3782
16249 1 7.24689 96.9858 43.6593
21839 2 8.15512 95.4281 42.3528
15996 1 9.97297 95.3815 43.634
21841 2 10.8846 97.0268 42.3782
15711 1 15.4292 95.3815 43.634
15994 1 12.7031 96.9858 43.6593
21564 2 13.6114 95.4281 42.3528
15713 1 18.1594 96.9858 43.6593
21562 2 16.3408 97.0268 42.3782
22123 2 21.7971 97.0268 42.3782
15385 1 20.8854 95.3815 43.634
21277 2 19.0676 95.4281 42.3528
16405 1 1.79416 100.189 43.707
22011 2 2.70161 98.6246 42.4025
16232 1 4.5206 98.5881 43.6835
22013 2 5.43108 100.222 42.4258
16230 1 7.2504 100.189 43.707
21816 2 8.15784 98.6246 42.4025
15995 1 9.97683 98.5881 43.6835
21814 2 10.8873 100.222 42.4258
15672 1 15.4331 98.5881 43.6835
15997 1 12.7066 100.189 43.707
21563 2 13.6141 98.6246 42.4025
15670 1 18.1629 100.189 43.707
21565 2 16.3436 100.222 42.4258
22121 2 21.7998 100.222 42.4258
15384 1 20.8893 98.5881 43.6835
21231 2 19.0703 98.6246 42.4025
22102 2 0.883282 52.7526 44.8363
16378 1 2.70139 52.8165 46.1133
22112 2 3.61314 51.1425 44.8689
16377 1 5.4319 51.1995 46.1462
21978 2 9.06937 51.1425 44.8689
21979 2 6.33952 52.7526 44.8363
16179 1 8.15763 52.8165 46.1133
21750 2 11.7958 52.7526 44.8363
16193 1 10.8881 51.1995 46.1462
21760 2 14.5256 51.1425 44.8689
15903 1 13.6139 52.8165 46.1133
21442 2 17.252 52.7526 44.8363
15902 1 16.3444 51.1995 46.1462
21441 2 19.9819 51.1425 44.8689
16482 1 21.8006 51.1995 46.1462
15549 1 19.0701 52.8165 46.1133
22101 2 0.87808 55.9845 44.7617
16362 1 2.69551 56.0633 46.0379
22100 2 3.60922 54.3662 44.8007
16379 1 5.42674 54.4376 46.0775
21967 2 6.33432 55.9845 44.7617
21980 2 9.06546 54.3662 44.8007
16178 1 8.15175 56.0633 46.0379
21749 2 11.7906 55.9845 44.7617
16177 1 10.883 54.4376 46.0775
21748 2 14.5217 54.3662 44.8007
15889 1 13.608 56.0633 46.0379
21434 2 17.2468 55.9845 44.7617
15904 1 16.3392 54.4376 46.0775
21443 2 19.9779 54.3662 44.8007
16470 1 21.7955 54.4376 46.0775
15548 1 19.0642 56.0633 46.0379
22087 2 0.866884 59.2422 44.6704
22083 2 1.78966 57.708 47.2547
16361 1 2.68698 59.3269 45.9427
22103 2 3.60179 57.6091 44.7185
16360 1 5.42014 57.6934 45.993
21943 2 4.51116 59.3382 47.2099
21965 2 9.05803 57.6091 44.7185
21966 2 6.32312 59.2422 44.6704
21964 2 7.2459 57.708 47.2547
16159 1 8.14322 59.3269 45.9427
21734 2 11.7794 59.2422 44.6704
16180 1 10.8764 57.6934 45.993
21729 2 9.9674 59.3382 47.2099
21751 2 14.5143 57.6091 44.7185
21728 2 12.7021 57.708 47.2547
15888 1 13.5995 59.3269 45.9427
21414 2 15.4236 59.3382 47.2099
21433 2 17.2356 59.2422 44.6704
15887 1 16.3326 57.6934 45.993
21431 2 18.1584 57.708 47.2547
21432 2 19.9705 57.6091 44.7185
16471 1 21.7889 57.6934 45.993
15541 1 19.0557 59.3269 45.9427
21062 2 20.8799 59.3382 47.2099
22084 2 1.77439 60.9704 47.1658
22085 2 3.58446 60.8831 44.6188
16363 1 5.40665 60.9614 45.891
21968 2 9.0407 60.8831 44.6188
21941 2 7.23063 60.9704 47.1658
16157 1 10.8629 60.9614 45.891
21732 2 14.4969 60.8831 44.6188
21731 2 12.6869 60.9704 47.1658
15890 1 16.3191 60.9614 45.891
21412 2 18.1431 60.9704 47.1658
21435 2 19.9532 60.8831 44.6188
16458 1 21.7754 60.9614 45.891
22086 2 0.841834 62.527 44.5689
16339 1 2.66612 62.594 45.8453
22067 2 1.75265 64.2368 47.0928
22088 2 3.55261 64.1713 44.5306
16337 1 5.37998 64.2258 45.8082
21942 2 4.49231 62.6033 47.1259
21945 2 9.00885 64.1713 44.5306
21947 2 6.29807 62.527 44.5689
16158 1 8.12236 62.594 45.8453
21944 2 7.20889 64.2368 47.0928
21733 2 11.7543 62.527 44.5689
16160 1 10.8362 64.2258 45.8082
21706 2 9.94855 62.6033 47.1259
21735 2 14.4651 64.1713 44.5306
15867 1 13.5786 62.594 45.8453
21413 2 15.4048 62.6033 47.1259
21704 2 12.6651 64.2368 47.0928
21418 2 17.2105 62.527 44.5689
15865 1 16.2925 64.2258 45.8082
21415 2 18.1214 64.2368 47.0928
21416 2 19.9213 64.1713 44.5306
16459 1 21.7487 64.2258 45.8082
15540 1 19.0348 62.594 45.8453
21055 2 20.861 62.6033 47.1259
22071 2 0.804691 65.8181 44.5068
16338 1 2.63759 65.8596 45.782
22068 2 1.73051 67.5113 47.053
22069 2 3.51379 67.4678 44.4981
16340 1 5.35378 67.4976 45.7656
21916 2 4.46916 65.8722 47.0685
21946 2 6.26093 65.8181 44.5068
21948 2 8.97002 67.4678 44.4981
16131 1 8.09383 65.8596 45.782
21914 2 7.18674 67.5113 47.053
21710 2 11.7172 65.8181 44.5068
16129 1 10.81 67.4976 45.7656
21705 2 9.9254 65.8722 47.0685
21708 2 14.4263 67.4678 44.4981
15866 1 13.5501 65.8596 45.782
21390 2 15.3816 65.8722 47.0685
21707 2 12.643 67.5113 47.053
21417 2 17.1734 65.8181 44.5068
15868 1 16.2663 67.4976 45.7656
21388 2 18.0992 67.5113 47.053
21419 2 19.8825 67.4678 44.4981
16446 1 21.7225 67.4976 45.7656
15525 1 19.0063 65.8596 45.782
21054 2 20.8379 65.8722 47.0685
22070 2 0.771351 69.1234 44.5005
16315 1 2.61817 69.1417 45.7561
22051 2 1.71762 70.8041 47.0399
22072 2 3.4922 70.7864 44.5054
21920 2 6.22759 69.1234 44.5005
16313 1 5.34352 70.7955 45.7538
21915 2 4.45035 69.1553 47.0442
21918 2 8.94844 70.7864 44.5054
16130 1 8.07441 69.1417 45.7561
21917 2 7.17386 70.8041 47.0399
21709 2 11.6838 69.1234 44.5005
16132 1 10.7998 70.7955 45.7538
21674 2 9.90659 69.1553 47.0442
21711 2 14.4047 70.7864 44.5054
15837 1 13.5306 69.1417 45.7561
21389 2 15.3628 69.1553 47.0442
21672 2 12.6301 70.8041 47.0399
21394 2 17.1401 69.1234 44.5005
15835 1 16.256 70.7955 45.7538
21391 2 18.0863 70.8041 47.0399
21392 2 19.8609 70.7864 44.5054
16447 1 21.7122 70.7955 45.7538
15524 1 18.9869 69.1417 45.7561
21039 2 20.8191 69.1553 47.0442
22055 2 0.762395 72.4534 44.5068
16314 1 2.61518 72.4551 45.753
22052 2 1.71856 74.1073 47.0387
22053 2 3.49381 74.1198 44.5016
21919 2 6.21863 72.4534 44.5068
16316 1 5.34419 74.1137 45.7515
21888 2 4.44453 72.456 47.0383
21921 2 8.95005 74.1198 44.5016
16096 1 8.07141 72.4551 45.753
21886 2 7.1748 74.1073 47.0387
21678 2 11.6749 72.4534 44.5068
16094 1 10.8004 74.1137 45.7515
21673 2 9.90076 72.456 47.0383
21676 2 14.4063 74.1198 44.5016
15836 1 13.5277 72.4551 45.753
21358 2 15.357 72.456 47.0383
21675 2 12.631 74.1073 47.0387
21393 2 17.1311 72.4534 44.5068
15838 1 16.2567 74.1137 45.7515
21356 2 18.0873 74.1073 47.0387
21395 2 19.8625 74.1198 44.5016
16434 1 21.7129 74.1137 45.7515
15501 1 18.9839 72.4551 45.753
21038 2 20.8132 72.456 47.0383
22054 2 0.774553 75.7814 44.4944
16291 1 2.61993 75.765 45.7528
21892 2 6.23079 75.7814 44.4944
21887 2 4.45227 75.7545 47.0427
16095 1 8.07617 75.765 45.7528
21677 2 11.687 75.7814 44.4944
21635 2 9.90851 75.7545 47.0427
15799 1 13.5324 75.765 45.7528
21357 2 15.3647 75.7545 47.0427
21362 2 17.1433 75.7814 44.4944
15500 1 18.9886 75.765 45.7528
21015 2 20.821 75.7545 47.0427
22039 2 0.810655 79.084 44.5055
16290 1 2.64202 79.0422 45.7816
22035 2 1.73334 77.3967 47.0521
22056 2 3.51874 77.435 44.4928
21891 2 6.26689 79.084 44.5055
16289 1 5.3569 77.4061 45.7634
21860 2 4.47248 79.0341 47.0697
21890 2 8.97497 77.435 44.4928
16060 1 8.09826 79.0422 45.7816
21889 2 7.18958 77.3967 47.0521
21639 2 11.7231 79.084 44.5055
16097 1 10.8131 77.4061 45.7634
21634 2 9.92872 79.0341 47.0697
21679 2 14.4312 77.435 44.4928
15798 1 13.5545 79.0422 45.7816
21318 2 15.385 79.0341 47.0697
21633 2 12.6458 77.3967 47.0521
21361 2 17.1794 79.084 44.5055
15797 1 16.2694 77.4061 45.7634
21359 2 18.1021 77.3967 47.0521
21360 2 19.8875 77.435 44.4928
16435 1 21.7256 77.4061 45.7634
15469 1 19.0107 79.0422 45.7816
21014 2 20.8412 79.0341 47.0697
22038 2 0.84609 82.3734 44.5789
16267 1 2.67127 82.3062 45.8515
22036 2 1.75622 80.6684 47.0968
22037 2 3.55895 80.7292 44.5342
21864 2 6.30233 82.3734 44.5789
16292 1 5.38458 80.6747 45.8119
21859 2 4.49543 82.3015 47.133
21893 2 9.01519 80.7292 44.5342
16059 1 8.12751 82.3062 45.8515
21858 2 7.21245 80.6684 47.0968
21638 2 11.7586 82.3734 44.5789
16058 1 10.8408 80.6747 45.8119
21595 2 9.95167 82.3015 47.133
21637 2 14.4714 80.7292 44.5342
15754 1 13.5838 82.3062 45.8515
21317 2 15.4079 82.3015 47.133
21636 2 12.6687 80.6684 47.0968
21322 2 17.2148 82.3734 44.5789
15800 1 16.2971 80.6747 45.8119
21316 2 18.1249 80.6684 47.0968
21363 2 19.9277 80.7292 44.5342
16422 1 21.7533 80.6747 45.8119
15468 1 19.04 82.3062 45.8515
20983 2 20.8641 82.3015 47.133
22023 2 0.868937 85.6572 44.6832
16266 1 2.6893 85.5753 45.9541
22019 2 1.77698 83.9344 47.1748
22040 2 3.58837 84.0179 44.6318
16265 1 5.41051 83.9398 45.9009
21832 2 4.51305 85.5665 47.2199
21862 2 9.04461 84.0179 44.6318
21863 2 6.32518 85.6572 44.6832
16024 1 8.14554 85.5753 45.9541
21861 2 7.23322 83.9344 47.1748
21599 2 11.7814 85.6572 44.6832
16061 1 10.8668 83.9398 45.9009
21594 2 9.96928 85.5665 47.2199
21640 2 14.5008 84.0179 44.6318
15753 1 13.6018 85.5753 45.9541
21271 2 15.4255 85.5665 47.2199
21593 2 12.6895 83.9344 47.1748
21321 2 17.2377 85.6572 44.6832
15752 1 16.323 83.9398 45.9009
21319 2 18.1457 83.9344 47.1748
21320 2 19.9571 84.0179 44.6318
16423 1 21.7792 83.9398 45.9009
15429 1 19.058 85.5753 45.9541
20982 2 20.8818 85.5665 47.2199
22022 2 0.878032 88.9089 44.7703
16244 1 2.6961 88.8374 46.0456
22020 2 1.79072 87.1959 47.2644
22021 2 3.60254 87.2871 44.7292
16268 1 5.42125 87.2085 46.0031
21831 2 4.52275 88.8211 47.3062
21836 2 6.33427 88.9089 44.7703
21865 2 9.05878 87.2871 44.7292
16023 1 8.15234 88.8374 46.0456
21830 2 7.24696 87.1959 47.2644
21598 2 11.7905 88.9089 44.7703
16022 1 10.8775 87.2085 46.0031
21556 2 9.97899 88.8211 47.3062
21597 2 14.515 87.2871 44.7292
15708 1 13.6086 88.8374 46.0456
21270 2 15.4352 88.8211 47.3062
21596 2 12.7032 87.1959 47.2644
21275 2 17.2467 88.9089 44.7703
15755 1 16.3337 87.2085 46.0031
21269 2 18.1594 87.1959 47.2644
21323 2 19.9713 87.2871 44.7292
16410 1 21.79 87.2085 46.0031
15428 1 19.0648 88.8374 46.0456
20943 2 20.8915 88.8211 47.3062
22004 2 1.79738 90.4419 47.345
22024 2 3.60867 90.5253 44.8075
16242 1 5.42703 90.4615 46.0833
21834 2 9.06491 90.5253 44.8075
21833 2 7.25362 90.4419 47.345
16025 1 10.8833 90.4615 46.0833
21600 2 14.5211 90.5253 44.8075
21554 2 12.7099 90.4419 47.345
15706 1 16.3395 90.4615 46.0833
21272 2 18.1661 90.4419 47.345
21273 2 19.9774 90.5253 44.8075
16411 1 21.7957 90.4615 46.0833
22008 2 0.882433 92.1375 44.8413
16243 1 2.70136 92.0811 46.1176
22005 2 1.801 93.6729 47.4144
22006 2 3.61212 93.7466 44.8725
21808 2 4.52753 92.059 47.381
16245 1 5.43158 93.6967 46.1492
21835 2 6.33867 92.1375 44.8413
21837 2 9.06836 93.7466 44.8725
15992 1 8.1576 92.0811 46.1176
21806 2 7.25724 93.6729 47.4144
21560 2 11.7949 92.1375 44.8413
21555 2 9.98377 92.059 47.381
15990 1 10.8878 93.6967 46.1492
21558 2 14.5246 93.7466 44.8725
15707 1 13.6138 92.0811 46.1176
21224 2 15.44 92.059 47.381
21557 2 12.7135 93.6729 47.4144
21274 2 17.2511 92.1375 44.8413
15709 1 16.3441 93.6967 46.1492
21222 2 18.1697 93.6729 47.4144
21276 2 19.9808 93.7466 44.8725
15383 1 19.0701 92.0811 46.1176
20942 2 20.8962 92.059 47.381
16402 1 21.8003 93.6967 46.1492
22007 2 0.885413 95.3531 44.9015
16228 1 2.7053 95.3088 46.1787
22009 2 3.61488 96.9576 44.9288
16226 1 5.43508 96.9181 46.2065
21810 2 9.07111 96.9576 44.9288
21812 2 6.34165 95.3531 44.9015
15991 1 8.16154 95.3088 46.1787
21559 2 11.7979 95.3531 44.9015
15993 1 10.8913 96.9181 46.2065
21561 2 14.5274 96.9576 44.9288
15668 1 13.6178 95.3088 46.1787
21228 2 17.2541 95.3531 44.9015
15666 1 16.3476 96.9181 46.2065
21226 2 19.9836 96.9576 44.9288
16403 1 21.8038 96.9181 46.2065
15382 1 19.074 95.3088 46.1787
22000 2 0.888065 98.5606 44.9547
16227 1 2.70849 98.5249 46.2329
21998 2 3.61747 100.162 44.9795
16229 1 5.43805 100.13 46.2581
21811 2 6.3443 98.5606 44.9547
21813 2 9.07371 100.162 44.9795
15968 1 8.16473 98.5249 46.2329
21528 2 11.8005 98.5606 44.9547
15966 1 10.8943 100.13 46.2581
21526 2 14.5299 100.162 44.9795
15667 1 13.621 98.5249 46.2329
21227 2 17.2568 98.5606 44.9547
15669 1 16.3505 100.13 46.2581
21229 2 19.9862 100.162 44.9795
16401 1 21.8068 100.13 46.2581
15338 1 19.0772 98.5249 46.2329
22098 2 1.80179 51.226 47.4101
16358 1 0.893278 52.8946 48.6481
21959 2 2.71805 52.9165 49.9141
21963 2 4.52809 52.8409 47.3754
16376 1 3.62313 51.2759 48.6837
21958 2 5.44803 51.2994 49.95
21977 2 7.25802 51.226 47.4101
16174 1 9.07937 51.2759 48.6837
16175 1 6.34952 52.8946 48.6481
21726 2 8.17429 52.9165 49.9141
21746 2 9.98433 52.8409 47.3754
15885 1 11.8058 52.8946 48.6481
21744 2 10.9043 51.2994 49.95
21430 2 15.4406 52.8409 47.3754
21745 2 12.7143 51.226 47.4101
15901 1 14.5356 51.2759 48.6837
21426 2 13.6305 52.9165 49.9141
21440 2 18.1705 51.226 47.4101
15546 1 17.262 52.8946 48.6481
21425 2 16.3605 51.2994 49.95
21064 2 20.8968 52.8409 47.3754
22097 2 21.8167 51.2994 49.95
15545 1 19.9918 51.2759 48.6837
21061 2 19.0868 52.9165 49.9141
22099 2 1.7976 54.4592 47.338
16357 1 0.888485 56.1407 48.5686
21939 2 2.71227 56.1581 49.8368
21962 2 4.52246 56.0815 47.2978
16356 1 3.61931 54.5163 48.6098
21960 2 5.44371 54.5361 49.8763
21961 2 7.25384 54.4592 47.338
16155 1 6.34472 56.1407 48.5686
16176 1 9.07555 54.5163 48.6098
21725 2 8.1685 56.1581 49.8368
21730 2 9.9787 56.0815 47.2978
15884 1 11.801 56.1407 48.5686
21724 2 10.9 54.5361 49.8763
21429 2 15.4349 56.0815 47.2978
21747 2 12.7101 54.4592 47.338
15883 1 14.5318 54.5163 48.6098
21410 2 13.6247 56.1581 49.8368
21428 2 18.1663 54.4592 47.338
15538 1 17.2572 56.1407 48.5686
21427 2 16.3562 54.5361 49.8763
21063 2 20.8912 56.0815 47.2978
22081 2 21.8124 54.5361 49.8763
15547 1 19.988 54.5163 48.6098
21060 2 19.081 56.1581 49.8368
16359 1 3.61273 57.7672 48.5248
21937 2 5.43596 57.7823 49.7962
16153 1 9.06897 57.7672 48.5248
21727 2 10.8922 57.7823 49.7962
15886 1 14.5252 57.7672 48.5248
21408 2 16.3484 57.7823 49.7962
22082 2 21.8047 57.7823 49.7962
15536 1 19.9814 57.7672 48.5248
16335 1 0.878911 59.3947 48.4805
21938 2 2.70225 59.4079 49.7559
16333 1 3.59938 61.0221 48.4383
21940 2 5.42374 61.0341 49.7175
16154 1 6.33515 59.3947 48.4805
16156 1 9.05562 61.0221 48.4383
21702 2 8.15849 59.4079 49.7559
15863 1 11.7914 59.3947 48.4805
21700 2 10.88 61.0341 49.7175
15861 1 14.5119 61.0221 48.4383
21409 2 13.6147 59.4079 49.7559
15537 1 17.2476 59.3947 48.4805
21411 2 16.3362 61.0341 49.7175
22065 2 21.7925 61.0341 49.7175
15539 1 19.9681 61.0221 48.4383
21053 2 19.071 59.4079 49.7559
16334 1 0.862125 62.6495 48.4006
21912 2 2.68823 62.6609 49.6826
16336 1 3.58067 64.2775 48.3685
21910 2 5.4087 64.2884 49.6526
16125 1 9.03691 64.2775 48.3685
16127 1 6.31836 62.6495 48.4006
21701 2 8.14447 62.6609 49.6826
15862 1 11.7746 62.6495 48.4006
21703 2 10.8649 64.2884 49.6526
15864 1 14.4932 64.2775 48.3685
21386 2 13.6007 62.6609 49.6826
15522 1 17.2308 62.6495 48.4006
21384 2 16.3212 64.2884 49.6526
22066 2 21.7774 64.2884 49.6526
15520 1 19.9494 64.2775 48.3685
21052 2 19.0569 62.6609 49.6826
16311 1 0.843875 65.9072 48.3428
21911 2 2.67323 65.9175 49.6283
16309 1 3.56525 67.5399 48.3232
21913 2 5.39492 67.5489 49.61
16126 1 6.30011 65.9072 48.3428
16128 1 9.02149 67.5399 48.3232
21670 2 8.12947 65.9175 49.6283
15833 1 11.7564 65.9072 48.3428
21668 2 10.8512 67.5489 49.61
15831 1 14.4777 67.5399 48.3232
21385 2 13.5857 65.9175 49.6283
15521 1 17.2126 65.9072 48.3428
21387 2 16.3074 67.5489 49.61
22049 2 21.7636 67.5489 49.61
15523 1 19.934 67.5399 48.3232
21037 2 19.0419 65.9175 49.6283
16310 1 0.832778 69.1761 48.3092
21884 2 2.66187 69.1833 49.5975
16312 1 3.55873 70.8152 48.3004
21882 2 5.38698 70.8201 49.5901
16090 1 9.01497 70.8152 48.3004
16092 1 6.28902 69.1761 48.3092
21669 2 8.11811 69.1833 49.5975
15832 1 11.7453 69.1761 48.3092
21671 2 10.8432 70.8201 49.5901
15834 1 14.4712 70.8152 48.3004
21354 2 13.5744 69.1833 49.5975
15498 1 17.2015 69.1761 48.3092
21352 2 16.2995 70.8201 49.5901
22050 2 21.7557 70.8201 49.5901
15496 1 19.9274 70.8152 48.3004
21036 2 19.0306 69.1833 49.5975
16287 1 0.830181 72.4562 48.2973
21883 2 2.65802 72.4581 49.5877
16285 1 3.55905 74.0968 48.3004
21885 2 5.38756 74.0957 49.5902
16091 1 6.28642 72.4562 48.2973
16093 1 9.01529 74.0968 48.3004
21631 2 8.11426 72.4581 49.5877
15795 1 11.7427 72.4562 48.2973
21629 2 10.8438 74.0957 49.5902
15793 1 14.4715 74.0968 48.3004
21353 2 13.5705 72.4581 49.5877
15497 1 17.1989 72.4562 48.2973
21355 2 16.3 74.0957 49.5902
22033 2 21.7563 74.0957 49.5902
15499 1 19.9278 74.0968 48.3004
21013 2 19.0267 72.4581 49.5877
16286 1 0.833689 75.7348 48.3093
21856 2 2.66299 75.7315 49.598
16056 1 6.28993 75.7348 48.3093
21630 2 8.11923 75.7315 49.598
15794 1 11.7462 75.7348 48.3093
21314 2 13.5755 75.7315 49.598
15466 1 17.2024 75.7348 48.3093
21012 2 19.0317 75.7315 49.598
16263 1 0.846281 79.0008 48.3446
21855 2 2.67518 78.9949 49.631
16288 1 3.56685 77.3696 48.3239
21854 2 5.39653 77.3646 49.6114
16054 1 9.02309 77.3696 48.3239
16055 1 6.30252 79.0008 48.3446
21591 2 8.13142 78.9949 49.631
15750 1 11.7588 79.0008 48.3446
21632 2 10.8528 77.3646 49.6114
15796 1 14.4793 77.3696 48.3239
21313 2 13.5877 78.9949 49.631
15465 1 17.215 79.0008 48.3446
21312 2 16.309 77.3646 49.6114
22034 2 21.7652 77.3646 49.6114
15464 1 19.9356 77.3696 48.3239
20981 2 19.0439 78.9949 49.631
16262 1 0.865299 82.2571 48.4059
21828 2 2.69029 82.2501 49.6884
16261 1 3.58355 80.6295 48.3721
21857 2 5.41083 80.6231 49.6568
16020 1 6.32154 82.2571 48.4059
16057 1 9.03979 80.6295 48.3721
21590 2 8.14653 82.2501 49.6884
15749 1 11.7778 82.2571 48.4059
21589 2 10.8671 80.6231 49.6568
15748 1 14.496 80.6295 48.3721
21267 2 13.6028 82.2501 49.6884
15426 1 17.234 82.2571 48.4059
21315 2 16.3233 80.6231 49.6568
22017 2 21.7795 80.6231 49.6568
15467 1 19.9523 80.6295 48.3721
20980 2 19.059 82.2501 49.6884
16240 1 0.881047 85.5122 48.4888
21827 2 2.70369 85.5029 49.7638
16264 1 3.60213 83.8845 48.4454
21826 2 5.42558 83.8767 49.7246
16018 1 9.05837 83.8845 48.4454
16019 1 6.33729 85.5122 48.4888
21552 2 8.15993 85.5029 49.7638
15704 1 11.7935 85.5122 48.4888
21592 2 10.8818 83.8767 49.7246
15751 1 14.5146 83.8845 48.4454
21266 2 13.6162 85.5029 49.7638
15425 1 17.2498 85.5122 48.4888
21265 2 16.3381 83.8767 49.7246
22018 2 21.7943 83.8767 49.7246
15424 1 19.9709 83.8845 48.4454
20941 2 19.0724 85.5029 49.7638
16239 1 0.889073 88.7662 48.5764
21804 2 2.71275 88.752 49.8444
16238 1 3.61403 87.14 48.5334
21829 2 5.43694 87.1283 49.8043
15988 1 6.34531 88.7662 48.5764
16021 1 9.07026 87.14 48.5334
21551 2 8.16899 88.752 49.8444
15703 1 11.8015 88.7662 48.5764
21550 2 10.8932 87.1283 49.8043
15702 1 14.5265 87.14 48.5334
21220 2 13.6252 88.752 49.8444
15380 1 17.2578 88.7662 48.5764
21268 2 16.3494 87.1283 49.8043
22002 2 21.8057 87.1283 49.8043
15427 1 19.9827 87.14 48.5334
20940 2 19.0815 88.752 49.8444
21803 2 2.71775 91.9921 49.9198
16241 1 3.61944 90.39 48.6163
21802 2 5.44375 90.3733 49.883
15986 1 9.07568 90.39 48.6163
21520 2 8.17399 91.9921 49.9198
21553 2 10.9 90.3733 49.883
15705 1 14.5319 90.39 48.6163
21219 2 13.6302 91.9921 49.9198
21218 2 16.3562 90.3733 49.883
22003 2 21.8125 90.3733 49.883
15378 1 19.9882 90.39 48.6163
20897 2 19.0865 91.9921 49.9198
16224 1 0.893108 92.0109 48.6533
16222 1 3.62274 93.6287 48.6876
21805 2 5.44748 93.6083 49.9546
15987 1 6.34935 92.0109 48.6533
15989 1 9.07898 93.6287 48.6876
15664 1 11.8056 92.0109 48.6533
21518 2 10.9037 93.6083 49.9546
15662 1 14.5352 93.6287 48.6876
15379 1 17.2618 92.0109 48.6533
21221 2 16.36 93.6083 49.9546
21994 2 21.8162 93.6083 49.9546
15381 1 19.9915 93.6287 48.6876
21996 2 1.80355 96.893 47.475
16223 1 0.89595 95.2437 48.7197
21788 2 2.72063 95.2222 49.9875
21807 2 4.53046 95.2841 47.4456
16225 1 3.62528 96.8561 48.7499
21786 2 5.44983 96.8339 50.0186
21809 2 7.25979 96.893 47.475
15962 1 9.08152 96.8561 48.7499
15964 1 6.35219 95.2437 48.7197
21519 2 8.17687 95.2222 49.9875
21524 2 9.9867 95.2841 47.4456
15663 1 11.8084 95.2437 48.7197
21521 2 10.9061 96.8339 50.0186
21223 2 15.4429 95.2841 47.4456
21522 2 12.716 96.893 47.475
15665 1 14.5378 96.8561 48.7499
21180 2 13.6331 95.2222 49.9875
21225 2 18.1723 96.893 47.475
15335 1 17.2647 95.2437 48.7197
21178 2 16.3623 96.8339 50.0186
20899 2 20.8992 95.2841 47.4456
21995 2 21.8185 96.8339 50.0186
15333 1 19.994 96.8561 48.7499
20896 2 19.0893 95.2222 49.9875
21997 2 1.80578 100.105 47.5293
16216 1 0.898293 98.4662 48.7785
21787 2 2.72266 98.4438 50.0482
21792 2 4.5328 98.5 47.5028
16214 1 3.6275 100.074 48.8057
21789 2 5.45168 100.052 50.0763
21790 2 7.26202 100.105 47.5293
15963 1 6.35453 98.4662 48.7785
15965 1 9.08374 100.074 48.8057
21496 2 8.1789 98.4438 50.0482
21523 2 9.98904 98.5 47.5028
15632 1 11.8108 98.4662 48.7785
21494 2 10.9079 100.052 50.0763
21184 2 15.4453 98.5 47.5028
21525 2 12.7183 100.105 47.5293
15630 1 14.54 100.074 48.8057
21179 2 13.6351 98.4438 50.0482
21182 2 18.1745 100.105 47.5293
15334 1 17.267 98.4662 48.7785
21181 2 16.3642 100.052 50.0763
20898 2 20.9015 98.5 47.5028
21993 2 21.8204 100.052 50.0763
15336 1 19.9962 100.074 48.8057
20854 2 19.0914 98.4438 50.0482
16354 1 1.81483 51.3418 51.2216
21935 2 0.908659 52.9803 52.4547
16151 1 4.54138 52.9605 51.1849
21957 2 3.63865 51.3631 52.4907
16173 1 7.27107 51.3418 51.2216
21721 2 9.09489 51.3631 52.4907
21722 2 6.3649 52.9803 52.4547
15881 1 9.99762 52.9605 51.1849
21406 2 11.8211 52.9803 52.4547
15534 1 15.4539 52.9605 51.1849
15880 1 12.7273 51.3418 51.2216
21424 2 14.5511 51.3631 52.4907
15544 1 18.1835 51.3418 51.2216
21058 2 17.2774 52.9803 52.4547
15184 1 20.9101 52.9605 51.1849
21057 2 20.0074 51.3631 52.4907
16355 1 1.81117 54.5809 51.1465
21934 2 0.903095 56.2192 52.3797
16150 1 4.53641 56.2028 51.1067
21933 2 3.63434 54.599 52.4175
16149 1 7.26741 54.5809 51.1465
21698 2 6.35933 56.2192 52.3797
21723 2 9.09058 54.599 52.4175
15859 1 9.99265 56.2028 51.1067
21405 2 11.8156 56.2192 52.3797
15533 1 15.4489 56.2028 51.1067
15882 1 12.7236 54.5809 51.1465
21404 2 14.5468 54.599 52.4175
15532 1 18.1799 54.5809 51.1465
21050 2 17.2718 56.2192 52.3797
15183 1 20.9051 56.2028 51.1067
21059 2 20.0031 54.599 52.4175
16331 1 1.80435 57.8255 51.0665
21936 2 3.62735 57.8403 52.342
16152 1 7.26058 57.8255 51.0665
21696 2 9.08359 57.8403 52.342
15857 1 12.7168 57.8255 51.0665
21407 2 14.5398 57.8403 52.342
15535 1 18.1731 57.8255 51.0665
21048 2 19.9961 57.8403 52.342
16332 1 1.79325 61.0718 50.9902
21908 2 0.894671 59.4619 52.3053
16123 1 4.52739 59.4486 51.0272
21906 2 3.61768 61.084 52.2707
16121 1 7.24949 61.0718 50.9902
21697 2 6.35091 59.4619 52.3053
21699 2 9.07392 61.084 52.2707
15858 1 9.98363 59.4486 51.0272
21382 2 11.8071 59.4619 52.3053
15518 1 15.4399 59.4486 51.0272
15860 1 12.7057 61.0718 50.9902
21380 2 14.5302 61.084 52.2707
15516 1 18.162 61.0718 50.9902
21049 2 17.2634 59.4619 52.3053
15182 1 20.8961 59.4486 51.0272
21051 2 19.9864 61.084 52.2707
16307 1 1.78032 64.3194 50.9272
21907 2 0.884172 62.7064 52.2391
16122 1 4.51484 62.6953 50.9566
21909 2 3.60693 64.3294 52.2114
16124 1 7.23656 64.3194 50.9272
21664 2 9.06317 64.3294 52.2114
21666 2 6.34041 62.7064 52.2391
15829 1 9.97108 62.6953 50.9566
21381 2 11.7966 62.7064 52.2391
15517 1 15.4273 62.6953 50.9566
15827 1 12.6928 64.3194 50.9272
21383 2 14.5194 64.3294 52.2114
15519 1 18.149 64.3194 50.9272
21034 2 17.2529 62.7064 52.2391
15175 1 20.8836 62.6953 50.9566
21032 2 19.9756 64.3294 52.2114
16308 1 1.7702 67.5712 50.8824
21880 2 0.873845 65.9533 52.1881
16088 1 4.50278 65.9446 50.9023
21878 2 3.59772 67.5785 52.1697
16086 1 7.22644 67.5712 50.8824
21665 2 6.33008 65.9533 52.1881
21667 2 9.05396 67.5785 52.1697
15828 1 9.95902 65.9446 50.9024
21350 2 11.7863 65.9533 52.1881
15494 1 15.4153 65.9446 50.9023
15830 1 12.6827 67.5712 50.8824
21348 2 14.5102 67.5785 52.1697
15492 1 18.1389 67.5712 50.8824
21033 2 17.2426 65.9533 52.1881
15174 1 20.8715 65.9446 50.9024
21035 2 19.9664 67.5785 52.1697
16283 1 1.76537 70.8286 50.8589
21879 2 0.866381 69.205 52.1565
16087 1 4.49526 69.1994 50.8678
21881 2 3.59255 70.8325 52.1487
16089 1 7.22161 70.8286 50.8589
21625 2 9.04878 70.8325 52.1487
21627 2 6.32262 69.205 52.1565
15791 1 9.9515 69.1994 50.8678
21349 2 11.7789 69.205 52.1565
15493 1 15.4077 69.1994 50.8678
15789 1 12.6779 70.8286 50.8589
21351 2 14.505 70.8325 52.1487
15495 1 18.1341 70.8286 50.8589
21010 2 17.2351 69.205 52.1565
15159 1 20.864 69.1994 50.8678
21008 2 19.9613 70.8325 52.1487
16284 1 1.76563 74.088 50.8595
21852 2 0.863873 72.4605 52.1463
16052 1 4.49299 72.4584 50.856
21850 2 3.59289 74.0883 52.1494
16050 1 7.22187 74.088 50.8595
21626 2 6.32011 72.4605 52.1463
21628 2 9.04913 74.0883 52.1494
15790 1 9.94923 72.4584 50.856
21310 2 11.7764 72.4605 52.1463
15462 1 15.4055 72.4584 50.856
15792 1 12.6781 74.088 50.8595
21308 2 14.5054 74.0883 52.1494
15460 1 18.1343 74.088 50.8595
21009 2 17.2326 72.4605 52.1463
15158 1 20.8617 72.4584 50.856
21011 2 19.9616 74.0883 52.1494
21851 2 0.867058 75.7153 52.158
16051 1 4.49583 75.7168 50.8691
21587 2 6.3233 75.7153 52.158
15746 1 9.95207 75.7168 50.8691
21309 2 11.7795 75.7153 52.158
15461 1 15.4083 75.7168 50.8691
20978 2 17.2358 75.7153 52.158
15135 1 20.8645 75.7168 50.8691
16259 1 1.77118 77.3442 50.8845
21824 2 0.875055 78.9655 52.1914
16016 1 4.50421 78.97 50.9053
21853 2 3.5987 77.3411 52.172
16053 1 7.22741 77.3442 50.8845
21585 2 9.05494 77.3411 52.172
21586 2 6.33129 78.9655 52.1914
15745 1 9.96045 78.97 50.9053
21263 2 11.7875 78.9655 52.1914
15422 1 15.4167 78.97 50.9053
15744 1 12.6837 77.3442 50.8845
21311 2 14.5112 77.3411 52.172
15463 1 18.1399 77.3442 50.8845
20977 2 17.2438 78.9655 52.1914
15134 1 20.8729 78.97 50.9053
20976 2 19.9674 77.3411 52.172
16260 1 1.7821 80.5946 50.9311
21823 2 0.885564 82.2115 52.2444
16015 1 4.51682 82.2182 50.9615
21822 2 3.6083 80.5889 52.2157
16014 1 7.23833 80.5946 50.9311
21548 2 6.3418 82.2115 52.2444
21588 2 9.06453 80.5889 52.2157
15700 1 9.97306 82.2182 50.9615
21262 2 11.798 82.2115 52.2444
15421 1 15.4293 82.2182 50.9615
15747 1 12.6946 80.5946 50.9311
21261 2 14.5208 80.5889 52.2157
15420 1 18.1508 80.5946 50.9311
20938 2 17.2543 82.2115 52.2444
15103 1 20.8855 82.2182 50.9615
20979 2 19.977 80.5889 52.2157
16236 1 1.79516 83.8416 50.9961
21800 2 0.895787 85.4556 52.3119
15984 1 4.52902 85.4648 51.0338
21825 2 3.619 83.8337 52.2768
16017 1 7.25139 83.8416 50.9961
21546 2 9.07523 83.8337 52.2768
21547 2 6.35203 85.4556 52.3119
15699 1 9.98526 85.4648 51.0338
21216 2 11.8083 85.4556 52.3119
15376 1 15.4415 85.4648 51.0338
15698 1 12.7076 83.8416 50.9961
21264 2 14.5315 83.8337 52.2768
15423 1 18.1639 83.8416 50.9961
20937 2 17.2645 85.4556 52.3119
15102 1 20.8977 85.4648 51.0338
20936 2 19.9877 83.8337 52.2768
16237 1 1.80554 87.088 51.0735
21799 2 0.903626 88.6981 52.3864
15983 1 4.53712 88.7108 51.1135
21798 2 3.62819 87.0772 52.3488
15982 1 7.26178 87.088 51.0735
21516 2 6.35986 88.6981 52.3864
21549 2 9.08443 87.0772 52.3488
15660 1 9.99336 88.7108 51.1135
21215 2 11.8161 88.6981 52.3864
15375 1 15.4496 88.7108 51.1135
15701 1 12.718 87.088 51.0735
21214 2 14.5407 87.0772 52.3488
15374 1 18.1743 87.088 51.0735
20894 2 17.2723 88.6981 52.3864
15067 1 20.9058 88.7108 51.1135
20939 2 19.9969 87.0772 52.3488
16220 1 1.81145 90.3325 51.1527
21784 2 0.908585 91.9363 52.4601
15960 1 4.54132 91.9525 51.1903
21801 2 3.63455 90.3179 52.4237
15985 1 7.26768 90.3325 51.1527
21514 2 9.09079 90.3179 52.4237
21515 2 6.36482 91.9363 52.4601
15659 1 9.99756 91.9525 51.1903
21176 2 11.8211 91.9363 52.4601
15331 1 15.4538 91.9525 51.1903
15658 1 12.7239 90.3325 51.1527
21217 2 14.547 90.3179 52.4237
15377 1 18.1802 90.3325 51.1527
20893 2 17.2773 91.9363 52.4601
15066 1 20.91 91.9525 51.1903
20892 2 20.0033 90.3179 52.4237
16221 1 1.81453 93.5706 51.2259
21782 2 3.63834 93.5529 52.4953
15958 1 7.27076 93.5706 51.2259
21517 2 9.09458 93.5529 52.4953
15661 1 12.727 93.5706 51.2259
21174 2 14.5508 93.5529 52.4953
15329 1 18.1832 93.5706 51.2259
20895 2 20.0071 93.5529 52.4953
16212 1 1.81649 96.8007 51.2918
21783 2 0.911476 95.1678 52.5291
15959 1 4.54371 95.1867 51.2598
21785 2 3.6406 96.781 52.5615
15961 1 7.27273 96.8007 51.2918
21490 2 9.09683 96.781 52.5615
21492 2 6.36771 95.1678 52.5291
15628 1 9.99995 95.1867 51.2598
21175 2 11.824 95.1678 52.5291
15330 1 15.4562 95.1867 51.2598
15626 1 12.729 96.8007 51.2918
21177 2 14.5531 96.781 52.5615
15332 1 18.1852 96.8007 51.2918
20851 2 17.2802 95.1678 52.5291
15031 1 20.9124 95.1867 51.2598
20849 2 20.0093 96.781 52.5615
16213 1 1.81808 100.023 51.3511
21776 2 0.913308 98.3926 52.5924
15944 1 4.54543 98.4127 51.3222
21774 2 3.64216 100.003 52.6219
15942 1 7.27431 100.023 51.3511
21491 2 6.36955 98.3926 52.5924
21493 2 9.09839 100.003 52.6219
15627 1 10.0017 98.4127 51.3222
21144 2 11.8258 98.3926 52.5924
15293 1 15.4579 98.4127 51.3222
15629 1 12.7306 100.023 51.3511
21142 2 14.5546 100.003 52.6219
15291 1 18.1868 100.023 51.3511
20850 2 17.282 98.3926 52.5924
15030 1 20.9141 98.4127 51.3222
20852 2 20.0109 100.003 52.6219
16147 1 2.73282 53.0162 53.7252
16353 1 0.00632012 51.3987 53.7617
21931 2 1.8295 51.4182 55.0333
16146 1 5.46256 51.3987 53.7617
21694 2 4.55579 53.0344 54.9978
15855 1 8.18906 53.0162 53.7252
21720 2 7.28574 51.4182 55.0333
15879 1 10.9188 51.3987 53.7617
21402 2 10.012 53.0344 54.9978
15530 1 13.6453 53.0162 53.7252
21046 2 15.4683 53.0344 54.9978
21401 2 12.742 51.4182 55.0333
15529 1 16.375 51.3987 53.7617
21056 2 18.1982 51.4182 55.0333
15181 1 19.1015 53.0162 53.7252
20712 2 20.9245 53.0344 54.9978
16119 1 2.72782 56.2538 53.6503
16329 1 0.00254018 54.6346 53.6879
21932 2 1.82537 54.6515 54.9619
16148 1 5.45878 54.6346 53.6879
21693 2 4.55069 56.2692 54.926
15854 1 8.18406 56.2538 53.6503
21692 2 7.28161 54.6515 54.9619
15853 1 10.915 54.6346 53.6879
21378 2 10.0069 56.2692 54.926
15514 1 13.6403 56.2538 53.6503
21045 2 15.4632 56.2692 54.926
21403 2 12.7379 54.6515 54.9619
15531 1 16.3713 54.6346 53.6879
21044 2 18.1941 54.6515 54.9619
15180 1 19.0965 56.2538 53.6503
20711 2 20.9194 56.2692 54.926
21904 2 1.81927 57.8874 54.8907
16117 1 5.45238 57.8733 53.6133
21695 2 7.27551 57.8874 54.8907
15856 1 10.9086 57.8733 53.6133
21376 2 12.7317 57.8874 54.8907
15512 1 16.3649 57.8733 53.6133
21047 2 18.188 57.8874 54.8907
16330 1 21.8211 57.8733 53.6133
16118 1 2.72006 59.493 53.5775
21905 2 1.81156 61.1244 54.8251
16120 1 5.44353 61.1128 53.5439
21662 2 4.54368 59.5058 54.8569
15825 1 8.17629 59.493 53.5775
21660 2 7.2678 61.1244 54.8251
15823 1 10.8998 61.1128 53.5439
21377 2 9.99991 59.5058 54.8569
15513 1 13.6325 59.493 53.5775
21030 2 15.4562 59.5058 54.8569
21379 2 12.724 61.1244 54.8251
15515 1 16.356 61.1128 53.5439
21028 2 18.1803 61.1244 54.8251
16305 1 21.8122 61.1128 53.5439
15173 1 19.0888 59.493 53.5775
20710 2 20.9124 59.5058 54.8569
16084 1 2.71063 62.7328 53.5132
21876 2 1.80353 64.3621 54.7703
16082 1 5.43418 64.3531 53.486
21661 2 4.5356 62.7431 54.796
15824 1 8.16687 62.7328 53.5132
21663 2 7.25977 64.3621 54.7703
15826 1 10.8904 64.3531 53.486
21346 2 9.99184 62.7431 54.796
15490 1 13.6231 62.7328 53.5132
21029 2 15.4481 62.7431 54.796
21344 2 12.716 64.3621 54.7703
15488 1 16.3467 64.3531 53.486
21031 2 18.1722 64.3621 54.7703
16306 1 21.8029 64.3531 53.486
15172 1 19.0793 62.7328 53.5132
20703 2 20.9043 62.7431 54.796
16083 1 2.70202 65.9738 53.4628
21877 2 1.79693 67.6014 54.7312
16085 1 5.42687 67.5951 53.444
21623 2 4.52806 65.9815 54.7486
15787 1 8.15826 65.9738 53.4628
21621 2 7.25317 67.6014 54.7312
15785 1 10.8831 67.5951 53.444
21345 2 9.9843 65.9815 54.7486
15489 1 13.6145 65.9738 53.4628
21006 2 15.4405 65.9815 54.7486
21347 2 12.7094 67.6014 54.7312
15491 1 16.3393 67.5951 53.444
21004 2 18.1656 67.6014 54.7312
16281 1 21.7956 67.5951 53.444
15157 1 19.0707 65.9738 53.4628
20702 2 20.8968 65.9815 54.7486
16048 1 2.69639 69.2168 53.4303
21848 2 1.7933 70.8424 54.7111
16046 1 5.42311 70.8389 53.422
21622 2 4.52278 69.2218 54.7186
15786 1 8.15263 69.2168 53.4303
21624 2 7.24954 70.8424 54.7111
15788 1 10.8794 70.8389 53.422
21306 2 9.97902 69.2218 54.7186
15458 1 13.6089 69.2168 53.4303
21005 2 15.4353 69.2218 54.7186
21304 2 12.7058 70.8424 54.7111
15456 1 16.3356 70.8389 53.422
21007 2 18.162 70.8424 54.7111
16282 1 21.7918 70.8389 53.422
15156 1 19.0651 69.2168 53.4303
20687 2 20.8915 69.2218 54.7186
16047 1 2.6946 72.4612 53.4195
21849 2 1.79353 74.0841 54.7119
16049 1 5.42332 74.0834 53.4229
21583 2 4.52103 72.4633 54.7088
15742 1 8.15083 72.4612 53.4195
21581 2 7.24977 74.0841 54.7119
15740 1 10.8796 74.0834 53.4229
21305 2 9.97727 72.4633 54.7088
15457 1 13.6071 72.4612 53.4195
20974 2 15.4335 72.4633 54.7088
21307 2 12.706 74.0841 54.7119
15459 1 16.3358 74.0834 53.4229
20972 2 18.1622 74.0841 54.7119
16257 1 21.792 74.0834 53.4229
15133 1 19.0633 72.4612 53.4195
20686 2 20.8897 72.4633 54.7088
16012 1 2.69683 75.7052 53.432
21582 2 4.52324 75.7045 54.7203
15741 1 8.15307 75.7052 53.432
21259 2 9.97948 75.7045 54.7203
15418 1 13.6093 75.7052 53.432
20973 2 15.4357 75.7045 54.7203
15132 1 19.0655 75.7052 53.432
20663 2 20.892 75.7045 54.7203
16011 1 2.70298 78.9475 53.466
21820 2 1.79759 77.3245 54.7337
16010 1 5.42756 77.3266 53.4465
21544 2 4.5289 78.944 54.7519
15696 1 8.15922 78.9475 53.466
21584 2 7.25383 77.3245 54.7337
15743 1 10.8838 77.3266 53.4465
21258 2 9.98514 78.944 54.7519
15417 1 13.6155 78.9475 53.466
20934 2 15.4414 78.944 54.7519
21257 2 12.7101 77.3245 54.7337
15416 1 16.34 77.3266 53.4465
20975 2 18.1663 77.3245 54.7337
16258 1 21.7963 77.3266 53.4465
15101 1 19.0717 78.9475 53.466
20662 2 20.8976 78.944 54.7519
15980 1 2.71196 82.1879 53.5179
21821 2 1.80449 80.5631 54.7745
16013 1 5.43536 80.5679 53.49
21543 2 4.53662 82.1818 54.8009
15695 1 8.1682 82.1879 53.5179
21542 2 7.26073 80.5631 54.7745
15694 1 10.8916 80.5679 53.49
21212 2 9.99285 82.1818 54.8009
15372 1 13.6244 82.1879 53.5179
20933 2 15.4491 82.1818 54.8009
21260 2 12.717 80.5631 54.7745
15419 1 16.3478 80.5679 53.49
20932 2 18.1732 80.5631 54.7745
16234 1 21.8041 80.5679 53.49
15100 1 19.0807 82.1879 53.5179
20632 2 20.9053 82.1818 54.8009
15979 1 2.7213 85.4275 53.5833
21796 2 1.81256 83.8004 54.8305
15978 1 5.44488 83.8077 53.5492
21512 2 4.54458 85.4189 54.8626
15656 1 8.17754 85.4275 53.5833
21545 2 7.2688 83.8004 54.8305
15697 1 10.9011 83.8077 53.5492
21211 2 10.0008 85.4189 54.8626
15371 1 13.6338 85.4275 53.5833
20890 2 15.4571 85.4189 54.8626
21210 2 12.725 83.8004 54.8305
15370 1 16.3574 83.8077 53.5492
20935 2 18.1813 83.8004 54.8305
16235 1 21.8136 83.8077 53.5492
15065 1 19.09 85.4275 53.5833
20631 2 20.9133 85.4189 54.8626
15956 1 2.72855 88.6668 53.6563
21797 2 1.82003 87.0373 54.8967
15981 1 5.4534 87.0472 53.6192
21511 2 4.55125 88.6553 54.9318
15655 1 8.18479 88.6668 53.6563
21510 2 7.27627 87.0373 54.8967
15654 1 10.9096 87.0472 53.6192
21172 2 10.0075 88.6553 54.9318
15327 1 13.641 88.6668 53.6563
20889 2 15.4637 88.6553 54.9318
21213 2 12.7325 87.0373 54.8967
15373 1 16.3659 87.0472 53.6192
20888 2 18.1887 87.0373 54.8967
16218 1 21.8221 87.0472 53.6192
15064 1 19.0973 88.6668 53.6563
20600 2 20.92 88.6553 54.9318
15955 1 2.73295 91.9042 53.7304
21780 2 1.82571 90.2729 54.9674
15954 1 5.45919 90.2859 53.6936
21488 2 4.55591 91.8898 55.0029
15624 1 8.18919 91.9042 53.7304
21513 2 7.28195 90.2729 54.9674
15657 1 10.9154 90.2859 53.6936
21171 2 10.0122 91.8898 55.0029
15326 1 13.6454 91.9042 53.7304
20847 2 15.4684 91.8898 55.0029
21170 2 12.7382 90.2729 54.9674
15325 1 16.3717 90.2859 53.6936
20891 2 18.1944 90.2729 54.9674
16219 1 21.8279 90.2859 53.6936
15029 1 19.1017 91.9042 53.7304
20599 2 20.9246 91.8898 55.0029
21781 2 1.82942 93.5056 55.0378
15957 1 5.46244 93.5214 53.7661
21486 2 7.28566 93.5056 55.0378
15622 1 10.9187 93.5214 53.7661
21173 2 12.7419 93.5056 55.0378
15328 1 16.3749 93.5214 53.7661
20845 2 18.1981 93.5056 55.0378
16210 1 21.8312 93.5214 53.7661
15940 1 2.73534 95.1372 53.8006
16211 1 0.00801488 96.7516 53.8338
21772 2 1.83165 96.7339 55.1048
15938 1 5.46425 96.7516 53.8338
21487 2 4.5588 95.1204 55.0719
15623 1 8.19158 95.1372 53.8006
21489 2 7.28789 96.7339 55.1048
15625 1 10.9205 96.7516 53.8338
21140 2 10.015 95.1204 55.0719
15289 1 13.6478 95.1372 53.8006
20846 2 15.4713 95.1204 55.0719
21138 2 12.7441 96.7339 55.1048
15287 1 16.3767 96.7516 53.8338
20848 2 18.2004 96.7339 55.1048
15028 1 19.1041 95.1372 53.8006
20568 2 20.9275 95.1204 55.0719
15939 1 2.73678 98.3645 53.8655
16209 1 0.00921928 99.976 53.8958
21773 2 1.83305 99.9572 55.1672
15941 1 5.46546 99.976 53.8958
21472 2 4.56054 98.3462 55.1366
15600 1 8.19302 98.3645 53.8655
21470 2 7.28929 99.9572 55.1672
15598 1 10.9217 99.976 53.8958
21139 2 10.0168 98.3462 55.1366
15288 1 13.6493 98.3645 53.8655
20811 2 15.473 98.3462 55.1366
21141 2 12.7455 99.9572 55.1672
15290 1 16.3779 99.976 53.8958
20809 2 18.2018 99.9572 55.1672
14994 1 19.1055 98.3645 53.8655
20567 2 20.9293 98.3462 55.1366
16115 1 0.923972 53.0641 56.269
21690 2 2.74677 53.0813 57.5436
21930 2 0.0203901 51.4667 57.5782
16145 1 3.65374 51.4483 56.3047
21689 2 5.47663 51.4667 57.5782
15850 1 9.10997 51.4483 56.3047
15851 1 6.38021 53.0641 56.269
21374 2 8.20301 53.0813 57.5436
15510 1 11.8364 53.0641 56.269
21400 2 10.9329 51.4667 57.5782
15528 1 14.5662 51.4483 56.3047
21042 2 13.6593 53.0813 57.5436
15178 1 17.2927 53.0641 56.269
21041 2 16.3891 51.4667 57.5782
15177 1 20.0225 51.4483 56.3047
20709 2 19.1155 53.0813 57.5436
16114 1 0.919248 56.297 56.1977
21658 2 2.74219 56.3117 57.4747
21902 2 0.0165486 54.6964 57.5089
16113 1 3.64998 54.6804 56.2332
21691 2 5.47279 54.6964 57.5089
15821 1 6.37549 56.297 56.1977
15852 1 9.10622 54.6804 56.2332
21373 2 8.19843 56.3117 57.4747
15509 1 11.8317 56.297 56.1977
21372 2 10.929 54.6964 57.5089
15508 1 14.5625 54.6804 56.2332
21026 2 13.6547 56.3117 57.4747
15170 1 17.288 56.297 56.1977
21043 2 16.3853 54.6964 57.5089
15179 1 20.0187 54.6804 56.2332
20708 2 19.1109 56.3117 57.4747
16076 1 1.83609 57.9488 58.7148
21903 2 0.0112617 57.9272 57.4416
16116 1 3.64429 57.9137 56.163
21656 2 5.4675 57.9272 57.4416
15819 1 9.10053 57.9137 56.163
15818 1 7.29233 57.9488 58.7148
21375 2 10.9237 57.9272 57.4416
15511 1 14.5568 57.9137 56.163
15480 1 12.7486 57.9488 58.7148
15167 1 18.2048 57.9488 58.7148
21024 2 16.38 57.9272 57.4416
15168 1 20.013 57.9137 56.163
16080 1 0.912718 59.5305 56.1299
16077 1 1.83023 61.1766 58.6548
21657 2 2.73631 59.5427 57.4099
21874 2 0.00498779 61.1581 57.3804
16078 1 3.63717 61.1472 56.0989
15779 1 4.56134 59.5628 58.6838
21659 2 5.46123 61.1581 57.3804
15820 1 6.36896 59.5305 56.1299
15822 1 9.09341 61.1472 56.0989
15777 1 7.28647 61.1766 58.6548
21342 2 8.19255 59.5427 57.4099
15486 1 11.8252 59.5305 56.1299
15481 1 10.0176 59.5628 58.6838
21340 2 10.9175 61.1581 57.3804
15484 1 14.5497 61.1472 56.0989
15150 1 15.4738 59.5628 58.6838
15483 1 12.7427 61.1766 58.6548
21025 2 13.6488 59.5427 57.4099
15169 1 17.2814 59.5305 56.1299
15148 1 18.1989 61.1766 58.6548
21027 2 16.3737 61.1581 57.3804
15171 1 20.0059 61.1472 56.0989
14894 1 20.9301 59.5628 58.6838
20701 2 19.105 59.5427 57.4099
16079 1 0.905377 62.7638 56.0705
16040 1 1.82449 64.4035 58.6052
21619 2 2.7299 62.7735 57.3534
16081 1 3.63001 64.3805 56.0454
15778 1 4.5554 62.7902 58.6285
21617 2 5.45496 64.3889 57.3296
15781 1 9.08625 64.3805 56.0454
15783 1 6.36161 62.7638 56.0705
15780 1 7.28073 64.4035 58.6052
21341 2 8.18614 62.7735 57.3534
15485 1 11.8179 62.7638 56.0705
15450 1 10.0116 62.7902 58.6285
21343 2 10.9112 64.3889 57.3296
15487 1 14.5425 64.3805 56.0454
15149 1 15.4679 62.7902 58.6285
15448 1 12.737 64.4035 58.6052
21002 2 13.6424 62.7735 57.3534
15154 1 17.2741 62.7638 56.0705
15151 1 18.1932 64.4035 58.6052
21000 2 16.3674 64.3889 57.3296
15152 1 19.9987 64.3805 56.0454
21875 2 21.8237 64.3889 57.3296
14887 1 20.9241 62.7902 58.6285
20700 2 19.0986 62.7735 57.3534
16044 1 0.898803 65.9972 56.024
16041 1 1.81998 67.6296 58.5697
21618 2 2.7241 66.0043 57.3094
16042 1 3.62438 67.6139 56.0068
15734 1 4.55014 66.0167 58.5855
21620 2 5.44994 67.6198 57.2933
15782 1 6.35504 65.9972 56.024
15784 1 9.08062 67.6139 56.0068
15732 1 7.27621 67.6296 58.5697
21302 2 8.18034 66.0043 57.3094
15454 1 11.8113 65.9972 56.024
15449 1 10.0064 66.0167 58.5855
21300 2 10.9062 67.6198 57.2933
15452 1 14.5369 67.6139 56.0068
15126 1 15.4626 66.0167 58.5855
15451 1 12.7325 67.6296 58.5697
21001 2 13.6366 66.0043 57.3094
15153 1 17.2675 65.9972 56.024
15124 1 18.1887 67.6296 58.5697
21003 2 16.3624 67.6198 57.2933
15155 1 19.9931 67.6139 56.0068
21846 2 21.8187 67.6198 57.2933
14886 1 20.9189 66.0167 58.5855
20685 2 19.0928 66.0043 57.3094
16043 1 0.894393 69.2307 55.9943
16004 1 1.81756 70.8551 58.5515
21579 2 2.72012 69.2353 57.2817
16045 1 3.62139 70.8475 55.9868
15733 1 4.54658 69.2424 58.5583
21577 2 5.44722 70.8509 57.2747
15736 1 9.07763 70.8475 55.9868
15738 1 6.35063 69.2307 55.9943
15735 1 7.2738 70.8551 58.5515
21301 2 8.17636 69.2353 57.2817
15453 1 11.8069 69.2307 55.9943
15410 1 10.0028 69.2424 58.5583
21303 2 10.9035 70.8509 57.2747
15455 1 14.5339 70.8475 55.9868
15125 1 15.4591 69.2424 58.5583
15408 1 12.73 70.8551 58.5515
20970 2 13.6326 69.2353 57.2817
15130 1 17.2631 69.2307 55.9943
15127 1 18.1863 70.8551 58.5515
20968 2 16.3597 70.8509 57.2747
15128 1 19.9901 70.8475 55.9868
21847 2 21.8159 70.8509 57.2747
14871 1 20.9153 69.2424 58.5583
20684 2 19.0888 69.2353 57.2817
16008 1 0.892958 72.4643 55.9845
16005 1 1.81773 74.0804 58.5523
21578 2 2.71881 72.4664 57.2727
16006 1 3.62158 74.0811 55.9876
15688 1 4.54543 72.4677 58.5495
21580 2 5.4474 74.082 57.2756
15737 1 6.3492 72.4643 55.9845
15739 1 9.07781 74.0811 55.9876
15686 1 7.27397 74.0804 58.5523
21255 2 8.17505 72.4664 57.2727
15414 1 11.8054 72.4643 55.9845
15409 1 10.0017 72.4677 58.5495
21253 2 10.9036 74.082 57.2756
15412 1 14.5341 74.0811 55.9876
15094 1 15.4579 72.4677 58.5495
15411 1 12.7302 74.0804 58.5523
20969 2 13.6313 72.4664 57.2727
15129 1 17.2617 72.4643 55.9845
15092 1 18.1864 74.0804 58.5523
20971 2 16.3599 74.082 57.2756
15131 1 19.9903 74.0811 55.9876
21818 2 21.8161 74.082 57.2756
14870 1 20.9141 72.4677 58.5495
20661 2 19.0875 72.4664 57.2727
16007 1 0.89476 75.6978 55.996
21540 2 2.72048 75.6974 57.2834
15687 1 4.54692 75.693 58.5599
15692 1 6.351 75.6978 55.996
21254 2 8.17671 75.6974 57.2834
15413 1 11.8072 75.6978 55.996
15364 1 10.0032 75.693 58.5599
15093 1 15.4594 75.693 58.5599
20930 2 13.633 75.6974 57.2834
15098 1 17.2635 75.6978 55.996
14848 1 20.9156 75.693 58.5599
20660 2 19.0892 75.6974 57.2834
15976 1 0.899543 78.931 56.0272
15972 1 1.82047 77.3058 58.5721
21539 2 2.72476 78.9281 57.3127
16009 1 3.62494 77.3145 56.0093
15648 1 4.55078 78.9187 58.5886
21538 2 5.45046 77.3128 57.2958
15690 1 9.08118 77.3145 56.0093
15691 1 6.35578 78.931 56.0272
15689 1 7.27671 77.3058 58.5721
21208 2 8.181 78.9281 57.3127
15368 1 11.812 78.931 56.0272
15363 1 10.007 78.9187 58.5886
21256 2 10.9067 77.3128 57.2958
15415 1 14.5374 77.3145 56.0093
15058 1 15.4633 78.9187 58.5886
15362 1 12.7329 77.3058 58.5721
20929 2 13.6372 78.9281 57.3127
15097 1 17.2683 78.931 56.0272
15095 1 18.1892 77.3058 58.5721
20928 2 16.3629 77.3128 57.2958
15096 1 19.9937 77.3145 56.0093
21819 2 21.8192 77.3128 57.2958
14847 1 20.9195 78.9187 58.5886
20630 2 19.0935 78.9281 57.3127
15975 1 0.906382 82.1641 56.075
15973 1 1.82526 80.5318 58.6089
21508 2 2.73073 82.1586 57.3579
15974 1 3.63091 80.5476 56.0493
15647 1 4.55625 82.1451 58.6326
21541 2 5.45573 80.5434 57.3335
15652 1 6.36262 82.1641 56.075
15693 1 9.08715 80.5476 56.0493
15646 1 7.2815 80.5318 58.6089
21207 2 8.18697 82.1586 57.3579
15367 1 11.8189 82.1641 56.075
15319 1 10.0125 82.1451 58.6326
21206 2 10.912 80.5434 57.3335
15366 1 14.5434 80.5476 56.0493
15057 1 15.4687 82.1451 58.6326
15365 1 12.7377 80.5318 58.6089
20886 2 13.6432 82.1586 57.3579
15062 1 17.2751 82.1641 56.075
15056 1 18.194 80.5318 58.6089
20931 2 16.3682 80.5434 57.3335
15099 1 19.9996 80.5476 56.0493
21794 2 21.8244 80.5434 57.3335
14824 1 20.925 82.1451 58.6326
20629 2 19.0994 82.1586 57.3579
15952 1 0.913725 85.3974 56.1351
15948 1 1.83114 83.7587 58.6593
21507 2 2.73713 85.3893 57.4151
15977 1 3.63822 83.7807 56.1037
15616 1 4.56224 85.3725 58.6885
21506 2 5.46207 83.7739 57.3852
15650 1 9.09446 83.7807 56.1037
15651 1 6.36996 85.3974 56.1351
15649 1 7.28738 83.7587 58.6593
21168 2 8.19337 85.3893 57.4151
15323 1 11.8262 85.3974 56.1351
15318 1 10.0185 85.3725 58.6885
21209 2 10.9183 83.7739 57.3852
15369 1 14.5507 83.7807 56.1037
15022 1 15.4747 85.3725 58.6885
15317 1 12.7436 83.7587 58.6593
20885 2 13.6496 85.3893 57.4151
15061 1 17.2824 85.3974 56.1351
15059 1 18.1999 83.7587 58.6593
20884 2 16.3746 83.7739 57.3852
15060 1 20.0069 83.7807 56.1037
21795 2 21.8308 83.7739 57.3852
14823 1 20.931 85.3725 58.6885
20598 2 19.1058 85.3893 57.4151
15951 1 0.919973 88.6309 56.203
15949 1 1.83694 86.9865 58.7197
21484 2 2.7428 88.6202 57.48
15950 1 3.64518 87.0141 56.1684
15615 1 4.56761 88.6006 58.7524
21509 2 5.46823 87.0048 57.4469
15620 1 6.37621 88.6309 56.203
15653 1 9.10142 87.0141 56.1684
15614 1 7.29318 86.9865 58.7197
21167 2 8.19904 88.6202 57.48
15322 1 11.8324 88.6309 56.203
15281 1 10.0238 88.6006 58.7524
21166 2 10.9245 87.0048 57.4469
15321 1 14.5577 87.0141 56.1684
15021 1 15.4801 88.6006 58.7524
15320 1 12.7494 86.9865 58.7197
20843 2 13.6553 88.6202 57.48
15026 1 17.2887 88.6309 56.203
15020 1 18.2057 86.9865 58.7197
20887 2 16.3807 87.0048 57.4469
15063 1 20.0139 87.0141 56.1684
21778 2 21.8369 87.0048 57.4469
14800 1 20.9363 88.6006 58.7524
20597 2 19.1115 88.6202 57.48
15936 1 0.924274 91.8637 56.2738
15932 1 1.84169 90.2148 58.7861
21483 2 2.74708 91.8504 57.5483
21779 2 0.0170126 90.2355 57.514
15953 1 3.6505 90.2475 56.2383
15592 1 4.57163 91.829 58.8203
21482 2 5.47325 90.2355 57.514
15618 1 9.10673 90.2475 56.2383
15619 1 6.38051 91.8637 56.2738
15617 1 7.29793 90.2148 58.7861
21136 2 8.20332 91.8504 57.5483
15285 1 11.8368 91.8637 56.2738
15280 1 10.0279 91.829 58.8203
21169 2 10.9295 90.2355 57.514
15324 1 14.563 90.2475 56.2383
14987 1 15.4841 91.829 58.8203
15279 1 12.7542 90.2148 58.7861
20842 2 13.6596 91.8504 57.5483
15025 1 17.293 91.8637 56.2738
15023 1 18.2104 90.2148 58.7861
20841 2 16.3857 90.2355 57.514
15024 1 20.0192 90.2475 56.2383
14799 1 20.9403 91.829 58.8203
20566 2 19.1158 91.8504 57.5483
15933 1 1.84496 93.4429 58.8546
21770 2 0.0205402 93.4649 57.5826
15934 1 3.65383 93.4794 56.309
21485 2 5.47678 93.4649 57.5826
15621 1 9.11007 93.4794 56.309
15590 1 7.3012 93.4429 58.8546
21134 2 10.933 93.4649 57.5826
15283 1 14.5663 93.4794 56.309
15282 1 12.7574 93.4429 58.8546
14985 1 18.2137 93.4429 58.8546
20844 2 16.3893 93.4649 57.5826
15027 1 20.0225 93.4794 56.309
15935 1 0.926786 95.0943 56.3435
21468 2 2.74991 95.0787 57.6164
21771 2 0.0227546 96.6918 57.6495
15937 1 3.6557 96.7082 56.377
21466 2 5.47899 96.6918 57.6495
15594 1 9.11194 96.7082 56.377
15596 1 6.38302 95.0943 56.3435
21135 2 8.20614 95.0787 57.6164
15284 1 11.8393 95.0943 56.3435
21137 2 10.9352 96.6918 57.6495
15286 1 14.5682 96.7082 56.377
20807 2 13.6624 95.0787 57.6164
14991 1 17.2955 95.0943 56.3435
20805 2 16.3915 96.6918 57.6495
14989 1 20.0244 96.7082 56.377
20565 2 19.1186 95.0787 57.6164
15928 1 0.928173 98.3211 56.4095
21467 2 2.75162 98.3041 57.6818
21769 2 0.0240836 99.9155 57.713
15926 1 3.65676 99.933 56.4407
21469 2 5.48032 99.9155 57.713
15595 1 6.38441 98.3211 56.4095
15597 1 9.11299 99.933 56.4407
21112 2 8.20786 98.3041 57.6818
15255 1 11.8406 98.3211 56.4095
21110 2 10.9366 99.9155 57.713
15253 1 14.5692 99.933 56.4407
20806 2 13.6641 98.3041 57.6818
14990 1 17.2969 98.3211 56.4095
20808 2 16.3928 99.9155 57.713
14992 1 20.0255 99.933 56.4407
20535 2 19.1203 98.3041 57.6818
16111 1 1.84465 51.4924 58.8504
21654 2 0.937697 53.1233 60.0916
15813 1 2.76191 53.145 61.365
16110 1 0.0353107 51.5329 61.3987
15817 1 4.57116 53.1064 58.8158
21688 2 3.66743 51.5103 60.1254
15812 1 5.49155 51.5329 61.3987
15849 1 7.30089 51.4924 58.8504
21369 2 9.12367 51.5103 60.1254
21370 2 6.39394 53.1233 60.0916
15478 1 8.21815 53.145 61.365
15506 1 10.0274 53.1064 58.8158
21022 2 11.8502 53.1233 60.0916
15504 1 10.9478 51.5329 61.3987
15166 1 15.4836 53.1064 58.8158
15505 1 12.7571 51.4924 58.8504
21040 2 14.5799 51.5103 60.1254
15162 1 13.6744 53.145 61.365
15176 1 18.2134 51.4924 58.8504
20706 2 17.3064 53.1233 60.0916
15161 1 16.404 51.5329 61.3987
14896 1 20.9399 53.1064 58.8158
20705 2 20.0361 51.5103 60.1254
14893 1 19.1306 53.145 61.365
16112 1 1.84107 54.7205 58.7813
21653 2 0.933608 56.3493 60.0255
15775 1 2.75804 56.3689 61.2993
16074 1 0.0319913 54.757 61.3317
15816 1 4.56686 56.3347 58.7475
21652 2 3.66391 54.7363 60.0582
15814 1 5.48823 54.757 61.3317
15815 1 7.29731 54.7205 58.7813
21338 2 6.38985 56.3493 60.0255
21371 2 9.12015 54.7363 60.0582
15477 1 8.21428 56.3689 61.2993
15482 1 10.0231 56.3347 58.7475
21021 2 11.8461 56.3493 60.0255
15476 1 10.9445 54.757 61.3317
15165 1 15.4793 56.3347 58.7475
15507 1 12.7535 54.7205 58.7813
21020 2 14.5764 54.7363 60.0582
15146 1 13.6705 56.3689 61.2993
15164 1 18.2098 54.7205 58.7813
20698 2 17.3023 56.3493 60.0255
15163 1 16.4007 54.757 61.3317
14895 1 20.9356 56.3347 58.7475
20707 2 20.0326 54.7363 60.0582
14892 1 19.1268 56.3689 61.2993
16075 1 0.0276336 57.9805 61.2682
21655 2 3.65931 57.9622 59.994
15773 1 5.48387 57.9805 61.2682
21336 2 9.11555 57.9622 59.994
15479 1 10.9401 57.9805 61.2682
21023 2 14.5718 57.9622 59.994
15144 1 16.3963 57.9805 61.2682
20696 2 20.028 57.9622 59.994
21615 2 0.928618 59.5749 59.9641
15774 1 2.75332 59.5919 61.2388
16038 1 0.0227024 61.2029 61.2116
21613 2 3.65409 61.1874 59.9364
15776 1 5.47894 61.2029 61.2116
21337 2 6.38486 59.5749 59.9641
21339 2 9.11033 61.1874 59.9364
15446 1 8.20955 59.5919 61.2388
20998 2 11.8411 59.5749 59.9641
15444 1 10.9352 61.2029 61.2116
20996 2 14.5666 61.1874 59.9364
15145 1 13.6658 59.5919 61.2388
20697 2 17.2973 59.5749 59.9641
15147 1 16.3914 61.2029 61.2116
20699 2 20.0228 61.1874 59.9364
14885 1 19.122 59.5919 61.2388
21614 2 0.923358 62.7997 59.9112
15730 1 2.74837 62.8135 61.1869
16039 1 0.017956 64.4238 61.1652
21616 2 3.64902 64.4117 59.8891
15728 1 5.47419 64.4238 61.1652
21296 2 9.10526 64.4117 59.8891
21298 2 6.3796 62.7997 59.9112
15445 1 8.20461 62.8135 61.1869
20997 2 11.8358 62.7997 59.9112
15447 1 10.9304 64.4238 61.1652
20999 2 14.5615 64.4117 59.8891
15122 1 13.6608 62.8135 61.1869
20682 2 17.2921 62.7997 59.9112
15120 1 16.3867 64.4238 61.1652
20680 2 20.0177 64.4117 59.8891
14884 1 19.1171 62.8135 61.1869
21575 2 0.918712 66.0236 59.8703
15729 1 2.74404 66.0338 61.1469
16002 1 0.014238 67.6434 61.1323
21573 2 3.64502 67.6353 59.8554
15731 1 5.47048 67.6434 61.1323
21297 2 6.37495 66.0236 59.8703
21299 2 9.10126 67.6353 59.8554
15406 1 8.20028 66.0338 61.1469
20966 2 11.8312 66.0236 59.8703
15404 1 10.9267 67.6434 61.1323
20964 2 14.5575 67.6353 59.8554
15121 1 13.6565 66.0338 61.1469
20681 2 17.2874 66.0236 59.8703
15123 1 16.383 67.6434 61.1323
20683 2 20.0137 67.6353 59.8554
14869 1 19.1128 66.0338 61.1469
21574 2 0.915561 69.2469 59.8447
15684 1 2.74112 69.2529 61.1218
16003 1 0.0122595 70.8621 61.1156
21576 2 3.64288 70.8584 59.8383
15682 1 5.4685 70.8621 61.1156
21249 2 9.09912 70.8584 59.8383
21251 2 6.3718 69.2469 59.8447
15405 1 8.19735 69.2529 61.1218
20965 2 11.828 69.2469 59.8447
15407 1 10.9247 70.8621 61.1156
20967 2 14.5554 70.8584 59.8383
15090 1 13.6536 69.2529 61.1218
20658 2 17.2843 69.2469 59.8447
15088 1 16.381 70.8621 61.1156
20656 2 20.0116 70.8584 59.8383
14868 1 19.1098 69.2529 61.1218
21536 2 0.914543 72.4698 59.8364
15683 1 2.74018 72.4713 61.1138
21534 2 3.64304 74.0812 59.8391
15685 1 5.46866 74.0805 61.1164
21250 2 6.37078 72.4698 59.8364
21252 2 9.09928 74.0812 59.8391
15360 1 8.19642 72.4713 61.1138
20926 2 11.827 72.4698 59.8364
15358 1 10.9249 74.0805 61.1164
20924 2 14.5555 74.0812 59.8391
15089 1 13.6527 72.4713 61.1138
20657 2 17.2833 72.4698 59.8364
15091 1 16.3811 74.0805 61.1164
20659 2 20.0118 74.0812 59.8391
15970 1 21.8374 74.0805 61.1164
14846 1 19.1089 72.4713 61.1138
21535 2 0.915877 75.6927 59.8463
15644 1 2.74144 75.6897 61.1234
21204 2 6.37212 75.6927 59.8463
15359 1 8.19768 75.6897 61.1234
20925 2 11.8284 75.6927 59.8463
15054 1 13.6539 75.6897 61.1234
20627 2 17.2846 75.6927 59.8463
14845 1 19.1102 75.6897 61.1234
21504 2 0.9193 78.9159 59.8734
15643 1 2.74465 78.9089 61.1498
21537 2 3.64548 77.3042 59.8578
15642 1 5.47095 77.2992 61.1346
21202 2 9.10172 77.3042 59.8578
21203 2 6.37554 78.9159 59.8734
15315 1 8.20088 78.9089 61.1498
20882 2 11.8318 78.9159 59.8734
15361 1 10.9272 77.2992 61.1346
20927 2 14.558 77.3042 59.8578
15053 1 13.6571 78.9089 61.1498
20626 2 17.288 78.9159 59.8734
15052 1 16.3834 77.2992 61.1346
20625 2 20.0142 77.3042 59.8578
15971 1 21.8397 77.2992 61.1346
14822 1 19.1134 78.9089 61.1498
21503 2 0.924124 82.1397 59.9153
15612 1 2.74918 82.1292 61.1908
15946 1 0.0186787 80.5189 61.1687
21502 2 3.64971 80.5277 59.8927
15645 1 5.47492 80.5189 61.1687
21164 2 6.38036 82.1397 59.9153
21205 2 9.10595 80.5277 59.8927
15314 1 8.20542 82.1292 61.1908
20881 2 11.8366 82.1397 59.9153
15313 1 10.9312 80.5189 61.1687
20880 2 14.5622 80.5277 59.8927
15018 1 13.6617 82.1292 61.1908
20595 2 17.2928 82.1397 59.9153
15055 1 16.3874 80.5189 61.1687
20628 2 20.0184 80.5277 59.8927
14821 1 19.1179 82.1292 61.1908
21480 2 0.929422 85.3645 59.9689
15611 1 2.7542 85.3509 61.2433
15947 1 0.0235689 83.7399 61.2158
21505 2 3.65489 83.752 59.9409
15610 1 5.47981 83.7399 61.2158
21162 2 9.11113 83.752 59.9409
21163 2 6.38566 85.3645 59.9689
15277 1 8.21044 85.3509 61.2433
20839 2 11.8419 85.3645 59.9689
15316 1 10.936 83.7399 61.2158
20883 2 14.5674 83.752 59.9409
15017 1 13.6667 85.3509 61.2433
20594 2 17.2981 85.3645 59.9689
15016 1 16.3923 83.7399 61.2158
20593 2 20.0236 83.752 59.9409
14798 1 19.1229 85.3509 61.2433
21479 2 0.934312 88.5901 60.0303
15588 1 2.75886 88.574 61.304
15930 1 0.0285047 86.9623 61.2728
21478 2 3.66008 86.9772 59.9988
15613 1 5.48474 86.9623 61.2728
21132 2 6.39055 88.5901 60.0303
21165 2 9.11632 86.9772 59.9988
15276 1 8.2151 88.574 61.304
20838 2 11.8468 88.5901 60.0303
15275 1 10.941 86.9623 61.2728
20837 2 14.5726 86.9772 59.9988
14983 1 13.6713 88.574 61.304
20563 2 17.303 88.5901 60.0303
15019 1 16.3972 86.9623 61.2728
20596 2 20.0288 86.9772 59.9988
14797 1 19.1276 88.574 61.304
21464 2 0.938204 91.8161 60.0961
15587 1 2.76257 91.798 61.3693
15931 1 0.0327385 90.1859 61.3362
21481 2 3.66452 90.2031 60.0629
15586 1 5.48898 90.1859 61.3362
21130 2 9.12076 90.2031 60.0629
21131 2 6.39444 91.8161 60.0961
15247 1 8.21881 91.798 61.3693
20803 2 11.8507 91.8161 60.0961
15278 1 10.9452 90.1859 61.3362
20840 2 14.577 90.2031 60.0629
14982 1 13.675 91.798 61.3693
20562 2 17.3069 91.8161 60.0961
14981 1 16.4015 90.1859 61.3362
20561 2 20.0332 90.2031 60.0629
14774 1 19.1313 91.798 61.3693
15922 1 0.0358594 93.4101 61.4027
21462 2 3.66783 93.4289 60.1295
15589 1 5.4921 93.4101 61.4027
21133 2 9.12406 93.4289 60.1295
15245 1 10.9483 93.4101 61.4027
20801 2 14.5803 93.4289 60.1295
14984 1 16.4046 93.4101 61.4027
20564 2 20.0365 93.4289 60.1295
15924 1 1.84691 96.6695 58.9222
21463 2 0.940924 95.0415 60.1629
15572 1 2.7651 95.0222 61.4362
15923 1 0.0378507 96.6341 61.4694
15591 1 4.5742 95.0564 58.8887
21465 2 3.67001 96.6537 60.1959
15570 1 5.49409 96.6341 61.4694
15593 1 7.30315 96.6695 58.9222
21106 2 9.12624 96.6537 60.1959
21108 2 6.39716 95.0415 60.1629
15246 1 8.22134 95.0222 61.4362
15251 1 10.0304 95.0564 58.8887
20802 2 11.8534 95.0415 60.1629
15248 1 10.9503 96.6341 61.4694
14986 1 15.4867 95.0564 58.8887
15249 1 12.7594 96.6695 58.9222
20804 2 14.5825 96.6537 60.1959
14955 1 13.6776 95.0222 61.4362
14988 1 18.2156 96.6695 58.9222
20532 2 17.3096 95.0415 60.1629
14953 1 16.4066 96.6341 61.4694
14776 1 20.9429 95.0564 58.8887
20530 2 20.0387 96.6537 60.1959
14773 1 19.1338 95.0222 61.4362
15925 1 1.84796 99.8936 58.9867
21456 2 0.942631 98.2655 60.2283
15571 1 2.76661 98.2457 61.5021
15921 1 0.0389618 99.857 61.5341
15576 1 4.57564 98.2819 58.9549
21454 2 3.67132 99.8768 60.2599
15573 1 5.4952 99.857 61.5341
15574 1 7.3042 99.8936 58.9867
21107 2 6.39887 98.2655 60.2283
21109 2 9.12756 99.8768 60.2599
15225 1 8.22285 98.2457 61.5021
15250 1 10.0319 98.2819 58.9549
20775 2 11.8551 98.2655 60.2283
15223 1 10.9514 99.857 61.5341
14959 1 15.4881 98.2819 58.9549
15252 1 12.7604 99.8936 58.9867
20773 2 14.5838 99.8768 60.2599
14954 1 13.6791 98.2457 61.5021
14957 1 18.2167 99.8936 58.9867
20531 2 17.3113 98.2655 60.2283
14956 1 16.4077 99.857 61.5341
14775 1 20.9444 98.2819 58.9549
20533 2 20.04 99.8768 60.2599
14751 1 19.1353 98.2457 61.5021
21650 2 1.85807 51.551 62.6745
15771 1 0.952399 53.1815 63.9165
21334 2 4.5847 53.1621 62.6415
15811 1 3.68193 51.5713 63.9494
21368 2 7.31431 51.551 62.6745
15473 1 9.13816 51.5713 63.9494
15474 1 6.40864 53.1815 63.9165
21018 2 10.0409 53.1621 62.6415
15142 1 11.8649 53.1815 63.9165
20694 2 15.4972 53.1621 62.6415
21017 2 12.7705 51.551 62.6745
15160 1 14.5944 51.5713 63.9494
20704 2 18.2268 51.551 62.6745
14890 1 17.3211 53.1815 63.9165
20456 2 20.9534 53.1621 62.6415
14889 1 20.0506 51.5713 63.9494
21651 2 1.85486 54.7731 62.6091
15770 1 0.948929 56.4011 63.8531
21333 2 4.58104 56.3838 62.5777
15769 1 3.67888 54.7915 63.8843
21332 2 7.31109 54.7731 62.6091
15442 1 6.40517 56.4011 63.8531
15475 1 9.13512 54.7915 63.8843
20994 2 10.0373 56.3838 62.5777
15141 1 11.8614 56.4011 63.8531
20693 2 15.4935 56.3838 62.5777
21019 2 12.7673 54.7731 62.6091
15140 1 14.5914 54.7915 63.8843
20692 2 18.2236 54.7731 62.6091
14882 1 17.3176 56.4011 63.8531
20455 2 20.9498 56.3838 62.5777
14891 1 20.0476 54.7915 63.8843
21611 2 1.85083 57.9942 62.5476
15772 1 3.67505 58.0104 63.8232
21335 2 7.30706 57.9942 62.5476
15440 1 9.13129 58.0104 63.8232
20992 2 12.7633 57.9942 62.5476
15143 1 14.5875 58.0104 63.8232
20695 2 18.2195 57.9942 62.5476
14880 1 20.0438 58.0104 63.8232
21612 2 1.84638 61.214 62.4929
15726 1 0.944836 59.6191 63.7952
21294 2 4.57674 59.6043 62.5192
15724 1 3.67083 61.2275 63.7693
21292 2 7.30262 61.214 62.4929
15441 1 6.40107 59.6191 63.7952
15443 1 9.12707 61.2275 63.7693
20993 2 10.033 59.6043 62.5192
15118 1 11.8573 59.6191 63.7952
20678 2 15.4892 59.6043 62.5192
20995 2 12.7589 61.214 62.4929
15116 1 14.5833 61.2275 63.7693
20676 2 18.2151 61.214 62.4929
14881 1 17.3136 59.6191 63.7952
20454 2 20.9455 59.6043 62.5192
14883 1 20.0395 61.2275 63.7693
21571 2 1.84215 64.4323 62.4484
15725 1 0.940638 62.8353 63.7459
21293 2 4.57231 62.8233 62.4692
15727 1 3.66682 64.4427 63.7255
21295 2 7.29839 64.4323 62.4484
15400 1 9.12306 64.4427 63.7255
15402 1 6.39688 62.8353 63.7459
20962 2 10.0286 62.8233 62.4692
15117 1 11.8531 62.8353 63.7459
20677 2 15.4848 62.8233 62.4692
20960 2 12.7546 64.4323 62.4484
15119 1 14.5793 64.4427 63.7255
20679 2 18.2109 64.4323 62.4484
14866 1 17.3094 62.8353 63.7459
20447 2 20.941 62.8233 62.4692
14864 1 20.0355 64.4427 63.7255
21572 2 1.83886 67.6493 62.417
15680 1 0.936997 66.0497 63.7083
21247 2 4.56846 66.0409 62.4309
15678 1 3.66371 67.6564 63.6947
21245 2 7.2951 67.6493 62.417
15401 1 6.39324 66.0497 63.7083
15403 1 9.11995 67.6564 63.6947
20961 2 10.0247 66.0409 62.4309
15086 1 11.8495 66.0497 63.7083
20654 2 15.4809 66.0409 62.4309
20963 2 12.7513 67.6493 62.417
15084 1 14.5762 67.6564 63.6947
20652 2 18.2076 67.6493 62.417
14865 1 17.3057 66.0497 63.7083
20446 2 20.9372 66.0409 62.4309
14867 1 20.0324 67.6564 63.6947
21532 2 1.83712 70.8654 62.4011
15679 1 0.934562 69.2628 63.6849
21246 2 4.56589 69.2575 62.407
15681 1 3.66207 70.8689 63.6791
21248 2 7.29336 70.8654 62.4011
15354 1 9.11831 70.8689 63.6791
15356 1 6.3908 69.2628 63.6849
20922 2 10.0221 69.2575 62.407
15085 1 11.847 69.2628 63.6849
20653 2 15.4784 69.2575 62.407
20920 2 12.7496 70.8654 62.4011
15087 1 14.5746 70.8689 63.6791
20655 2 18.2058 70.8654 62.4011
14843 1 17.3033 69.2628 63.6849
20431 2 20.9346 69.2575 62.407
14841 1 20.0308 70.8689 63.6791
21533 2 1.83728 74.0812 62.4019
15640 1 0.933805 72.475 63.6774
21200 2 4.56507 72.4733 62.3994
15638 1 3.66224 74.0811 63.6798
21198 2 7.29352 74.0812 62.4019
15355 1 6.39004 72.475 63.6774
15357 1 9.11848 74.0811 63.6798
20921 2 10.0213 72.4733 62.3994
15050 1 11.8463 72.475 63.6774
20623 2 15.4775 72.4733 62.3994
20923 2 12.7498 74.0812 62.4019
15048 1 14.5747 74.0811 63.6798
20621 2 18.206 74.0812 62.4019
14842 1 17.3025 72.475 63.6774
20430 2 20.9338 72.4733 62.3994
14844 1 20.031 74.0811 63.6798
15639 1 0.934886 75.6873 63.6864
21199 2 4.5662 75.6892 62.4085
15311 1 6.39112 75.6873 63.6864
20878 2 10.0224 75.6892 62.4085
15049 1 11.8474 75.6873 63.6864
20622 2 15.4787 75.6892 62.4085
14819 1 17.3036 75.6873 63.6864
20411 2 20.9349 75.6892 62.4085
21500 2 1.83931 77.2974 62.4193
15608 1 0.937607 78.9004 63.7111
21160 2 4.56905 78.9058 62.4338
15641 1 3.66419 77.2937 63.6968
21201 2 7.29555 77.2974 62.4193
15309 1 9.12043 77.2937 63.6968
15310 1 6.39385 78.9004 63.7111
20877 2 10.0253 78.9058 62.4338
15014 1 11.8501 78.9004 63.7111
20591 2 15.4815 78.9058 62.4338
20876 2 12.7518 77.2974 62.4193
15051 1 14.5767 77.2937 63.6968
20624 2 18.208 77.2974 62.4193
14818 1 17.3063 78.9004 63.7111
20410 2 20.9378 78.9058 62.4338
14817 1 20.0329 77.2937 63.6968
21501 2 1.84284 80.5144 62.4518
15607 1 0.94146 82.1149 63.7497
21159 2 4.57309 82.1234 62.4731
15606 1 3.66755 80.5075 63.7288
21158 2 7.29908 80.5144 62.4518
15273 1 6.3977 82.1149 63.7497
15312 1 9.12379 80.5075 63.7288
20835 2 10.0293 82.1234 62.4731
15013 1 11.8539 82.1149 63.7497
20590 2 15.4856 82.1234 62.4731
20879 2 12.7553 80.5144 62.4518
15012 1 14.58 80.5075 63.7288
20589 2 18.2116 80.5144 62.4518
14795 1 17.3102 82.1149 63.7497
20391 2 20.9418 82.1234 62.4731
14820 1 20.0363 80.5075 63.7288
21476 2 1.84721 83.7328 62.4971
15584 1 0.945769 85.3313 63.7995
21128 2 4.5776 85.3425 62.5236
15609 1 3.67172 83.7229 63.7734
21161 2 7.30345 83.7328 62.4971
15271 1 9.12796 83.7229 63.7734
15272 1 6.40201 85.3313 63.7995
20834 2 10.0338 85.3425 62.5236
14979 1 11.8582 85.3313 63.7995
20559 2 15.4901 85.3425 62.5236
20833 2 12.7597 83.7328 62.4971
15015 1 14.5842 83.7229 63.7734
20592 2 18.2159 83.7328 62.4971
14794 1 17.3145 85.3313 63.7995
20390 2 20.9463 85.3425 62.5236
14793 1 20.0404 83.7229 63.7734
21477 2 1.85169 86.9526 62.5521
15583 1 0.949868 88.5495 63.8575
21127 2 4.58189 88.5631 62.5822
15582 1 3.676 86.9402 63.8277
21126 2 7.30793 86.9526 62.5521
15243 1 6.40611 88.5495 63.8575
15274 1 9.13224 86.9402 63.8277
20799 2 10.0381 88.5631 62.5822
14978 1 11.8623 88.5495 63.8575
20558 2 15.4944 88.5631 62.5822
20836 2 12.7642 86.9526 62.5521
14977 1 14.5885 86.9402 63.8277
20557 2 18.2204 86.9526 62.5521
14771 1 17.3186 88.5495 63.8575
20371 2 20.9506 88.5631 62.5822
14796 1 20.0447 86.9402 63.8277
21460 2 1.85565 90.1738 62.6136
15568 1 0.953258 91.7693 63.9207
21104 2 4.58543 91.7848 62.6458
15585 1 3.67979 90.1592 63.8887
21129 2 7.31189 90.1738 62.6136
15241 1 9.13603 90.1592 63.8887
15242 1 6.4095 91.7693 63.9207
20798 2 10.0417 91.7848 62.6458
14951 1 11.8657 91.7693 63.9207
20528 2 15.4979 91.7848 62.6458
20797 2 12.7681 90.1738 62.6136
14980 1 14.5923 90.1592 63.8887
20560 2 18.2244 90.1738 62.6136
14770 1 17.322 91.7693 63.9207
20370 2 20.9541 91.7848 62.6458
14769 1 20.0485 90.1592 63.8887
21461 2 1.85873 93.3959 62.6784
15566 1 3.68272 93.3796 63.9533
21102 2 7.31497 93.3959 62.6784
15244 1 9.13896 93.3796 63.9533
20800 2 12.7712 93.3959 62.6784
14949 1 14.5952 93.3796 63.9533
20526 2 18.2274 93.3959 62.6784
14772 1 20.0514 93.3796 63.9533
21452 2 1.86086 96.6182 62.7439
15567 1 0.955715 94.9901 63.9862
21103 2 4.58803 95.0071 62.7112
15569 1 3.68472 96.6008 64.019
21105 2 7.3171 96.6182 62.7439
15219 1 9.14096 96.6008 64.019
15221 1 6.41195 94.9901 63.9862
20771 2 10.0443 95.0071 62.7112
14950 1 11.8682 94.9901 63.9862
20527 2 15.5005 95.0071 62.7112
20769 2 12.7733 96.6182 62.7439
14952 1 14.5972 96.6008 64.019
20529 2 18.2296 96.6182 62.7439
14748 1 17.3244 94.9901 63.9862
20351 2 20.9567 95.0071 62.7112
14746 1 20.0534 96.6008 64.019
21453 2 1.86219 99.8401 62.8079
15560 1 0.957284 98.2114 64.0515
21088 2 4.58973 98.2293 62.7762
15558 1 3.68591 99.8221 64.0835
21086 2 7.31843 99.8401 62.8079
15220 1 6.41352 98.2114 64.0515
15222 1 9.14215 99.8221 64.0835
20770 2 10.046 98.2293 62.7762
14931 1 11.8698 98.2114 64.0515
20504 2 15.5022 98.2293 62.7762
20772 2 12.7747 99.8401 62.8079
14929 1 14.5984 99.8221 64.0835
20502 2 18.2309 99.8401 62.8079
14747 1 17.326 98.2114 64.0515
20350 2 20.9584 98.2293 62.7762
14749 1 20.0546 99.8221 64.0835
21330 2 2.77522 53.1997 65.1928
21649 2 0.0484755 51.5904 65.2249
15767 1 1.87186 51.6091 66.5031
21329 2 5.50471 51.5904 65.2249
15438 1 4.59868 53.2176 66.471
20990 2 8.23145 53.1997 65.1928
15472 1 7.3281 51.6091 66.5031
21016 2 10.961 51.5904 65.2249
15138 1 10.0549 53.2176 66.471
20690 2 13.6877 53.1997 65.1928
14878 1 15.5112 53.2176 66.471
15137 1 12.7843 51.6091 66.5031
20689 2 16.4172 51.5904 65.2249
14888 1 18.2406 51.6091 66.5031
20453 2 19.1439 53.1997 65.1928
14704 1 20.9674 53.2176 66.471
21290 2 2.77192 56.4171 65.1309
21609 2 0.0455325 54.8087 65.1613
15768 1 1.86908 54.8255 66.4397
21331 2 5.50177 54.8087 65.1613
20989 2 8.22816 56.4171 65.1309
15436 1 7.32532 54.8255 66.4397
20988 2 10.958 54.8087 65.1613
20674 2 13.6844 56.4171 65.1309
15139 1 12.7816 54.8255 66.4397
20691 2 16.4142 54.8087 65.1613
14876 1 18.2378 54.8255 66.4397
20452 2 19.1406 56.4171 65.1309
21610 2 0.041952 58.0251 65.1019
15722 1 1.86569 58.0398 66.3807
21288 2 5.49819 58.0251 65.1019
15437 1 4.59557 56.433 66.4094
15439 1 7.32193 58.0398 66.3807
20991 2 10.9544 58.0251 65.1019
15114 1 10.0518 56.433 66.4094
14877 1 15.508 56.433 66.4094
15112 1 12.7782 58.0398 66.3807
20672 2 16.4107 58.0251 65.1019
14879 1 18.2344 58.0398 66.3807
14703 1 20.9643 56.433 66.4094
21289 2 2.76814 59.6326 65.0747
21569 2 0.0380877 61.2396 65.0496
15723 1 1.86203 61.2518 66.3289
21291 2 5.49433 61.2396 65.0496
15398 1 4.59199 59.6461 66.3537
20958 2 8.22438 59.6326 65.0747
15396 1 7.31827 61.2518 66.3289
20956 2 10.9506 61.2396 65.0496
15113 1 10.0482 59.6461 66.3537
20673 2 13.6806 59.6326 65.0747
14862 1 15.5045 59.6461 66.3537
15115 1 12.7745 61.2518 66.3289
20675 2 16.4068 61.2396 65.0496
14860 1 18.2307 61.2518 66.3289
20445 2 19.1369 59.6326 65.0747
14702 1 20.9607 59.6461 66.3537
21243 2 2.76433 62.846 65.0271
21570 2 0.0344682 64.452 65.0073
15676 1 1.8586 64.4615 66.2871
21241 2 5.49071 64.452 65.0073
15397 1 4.58837 62.8569 66.3066
20957 2 8.22057 62.846 65.0271
15399 1 7.31484 64.4615 66.2871
20959 2 10.9469 64.452 65.0073
15082 1 10.0446 62.8569 66.3066
20650 2 13.6768 62.846 65.0271
14861 1 15.5009 62.8569 66.3066
15080 1 12.7711 64.4615 66.2871
20648 2 16.4032 64.452 65.0073
14863 1 18.2273 64.4615 66.2871
20444 2 19.133 62.846 65.0271
14695 1 20.9571 62.8569 66.3066
21242 2 2.76105 66.0575 64.9908
21530 2 0.0316818 67.6627 64.9777
15677 1 1.85596 67.6693 66.2579
21244 2 5.48792 67.6627 64.9777
15352 1 4.58527 66.0656 66.2708
20918 2 8.21729 66.0575 64.9908
15350 1 7.3122 67.6693 66.2579
20916 2 10.9442 67.6627 64.9777
15081 1 10.0415 66.0656 66.2708
20649 2 13.6735 66.0575 64.9908
14839 1 15.4977 66.0656 66.2708
15083 1 12.7684 67.6693 66.2579
20651 2 16.4004 67.6627 64.9777
14837 1 18.2247 67.6693 66.2579
20429 2 19.1298 66.0575 64.9908
14694 1 20.954 66.0656 66.2708
21196 2 2.75888 69.2676 64.9683
21531 2 0.0302305 70.8723 64.9627
15636 1 1.85459 70.8758 66.2431
21194 2 5.48647 70.8723 64.9627
15351 1 4.58322 69.2726 66.2486
20917 2 8.21512 69.2676 64.9683
15353 1 7.31083 70.8758 66.2431
20919 2 10.9427 70.8723 64.9627
15046 1 10.0395 69.2726 66.2486
20619 2 13.6714 69.2676 64.9683
14838 1 15.4957 69.2726 66.2486
15044 1 12.7671 70.8758 66.2431
20617 2 16.3989 70.8723 64.9627
14840 1 18.2233 70.8758 66.2431
20428 2 19.1276 69.2676 64.9683
14683 1 20.9519 69.2726 66.2486
21195 2 2.75822 72.4769 64.9611
21498 2 0.0303961 74.0815 64.9635
15637 1 1.85476 74.0819 66.2438
21197 2 5.48663 74.0815 64.9635
15307 1 4.5826 72.4789 66.2415
20874 2 8.21446 72.4769 64.9611
15305 1 7.311 74.0819 66.2438
20872 2 10.9429 74.0815 64.9635
15045 1 10.0388 72.4789 66.2415
20618 2 13.6707 72.4769 64.9611
14815 1 15.4951 72.4789 66.2415
15047 1 12.7672 74.0819 66.2438
20620 2 16.3991 74.0815 64.9635
14813 1 18.2235 74.0819 66.2438
20409 2 19.1269 72.4769 64.9611
14682 1 20.9513 72.4789 66.2415
21156 2 2.75921 75.6863 64.9697
15306 1 4.58355 75.6851 66.25
20873 2 8.21545 75.6863 64.9697
15010 1 10.0398 75.6851 66.25
20587 2 13.6717 75.6863 64.9697
14814 1 15.496 75.6851 66.25
20408 2 19.1279 75.6863 64.9697
14671 1 20.9523 75.6851 66.25
21155 2 2.76167 78.8965 64.9935
21499 2 0.0321604 77.2912 64.9798
15604 1 1.85645 77.2886 66.2599
21154 2 5.4884 77.2912 64.9798
15269 1 4.5859 78.8924 66.2734
20831 2 8.21791 78.8965 64.9935
15308 1 7.31269 77.2886 66.2599
20875 2 10.9446 77.2912 64.9798
15009 1 10.0421 78.8924 66.2734
20586 2 13.6741 78.8965 64.9935
14791 1 15.4984 78.8924 66.2734
15008 1 12.7689 77.2886 66.2599
20585 2 16.4009 77.2912 64.9798
14816 1 18.2252 77.2886 66.2599
20389 2 19.1304 78.8965 64.9935
14670 1 20.9546 78.8924 66.2734
21124 2 2.76517 82.1081 65.0307
21474 2 0.0352075 80.5021 65.0105
15605 1 1.85936 80.4966 66.2903
21157 2 5.49145 80.5021 65.0105
15268 1 4.58924 82.1013 66.3102
20830 2 8.22141 82.1081 65.0307
15267 1 7.3156 80.4966 66.2903
20829 2 10.9477 80.5021 65.0105
14975 1 10.0455 82.1013 66.3102
20555 2 13.6776 82.1081 65.0307
14790 1 15.5017 82.1013 66.3102
15011 1 12.7718 80.4966 66.2903
20588 2 16.4039 80.5021 65.0105
14789 1 18.2281 80.4966 66.2903
20388 2 19.1339 82.1081 65.0307
14659 1 20.958 82.1013 66.3102
21123 2 2.76912 85.3217 65.0789
21475 2 0.0390087 83.7146 65.0536
15580 1 1.86298 83.7065 66.3328
21122 2 5.49525 83.7146 65.0536
15239 1 4.593 85.3123 66.3579
20795 2 8.22536 85.3217 65.0789
15270 1 7.31922 83.7065 66.3328
20832 2 10.9515 83.7146 65.0536
14974 1 10.0492 85.3123 66.3579
20554 2 13.6816 85.3217 65.0789
14767 1 15.5055 85.3123 66.3579
14973 1 12.7755 83.7065 66.3328
20553 2 16.4077 83.7146 65.0536
14792 1 18.2317 83.7065 66.3328
20369 2 19.1378 85.3217 65.0789
14658 1 20.9617 85.3123 66.3579
21100 2 2.77295 88.5373 65.1352
21458 2 0.0429633 86.9292 65.1062
15581 1 1.86676 86.9187 66.385
21125 2 5.4992 86.9292 65.1062
15238 1 4.59666 88.5257 66.4138
20794 2 8.22919 88.5373 65.1352
15237 1 7.32299 86.9187 66.385
20793 2 10.9554 86.9292 65.1062
14947 1 10.0529 88.5257 66.4138
20524 2 13.6854 88.5373 65.1352
14766 1 15.5091 88.5257 66.4138
14976 1 12.7792 86.9187 66.385
20556 2 16.4117 86.9292 65.1062
14765 1 18.2355 86.9187 66.385
20368 2 19.1417 88.5373 65.1352
14647 1 20.9654 88.5257 66.4138
21099 2 2.77621 91.7549 65.1968
21459 2 0.0465481 90.1459 65.1655
15564 1 1.87018 90.1333 66.444
21098 2 5.50279 90.1459 65.1655
15217 1 4.59977 91.7414 66.4752
20767 2 8.23245 91.7549 65.1968
15240 1 7.32642 90.1333 66.444
20796 2 10.959 90.1459 65.1655
14946 1 10.056 91.7414 66.4752
20523 2 13.6887 91.7549 65.1968
14744 1 15.5122 91.7414 66.4752
14945 1 12.7827 90.1333 66.444
20522 2 16.4153 90.1459 65.1655
14768 1 18.2389 90.1333 66.444
20349 2 19.1449 91.7549 65.1968
14646 1 20.9685 91.7414 66.4752
21450 2 0.0494311 93.3643 65.2288
15565 1 1.87292 93.35 66.507
21101 2 5.50567 93.3643 65.2288
15216 1 4.60212 94.9591 66.5393
15215 1 7.32916 93.35 66.507
20765 2 10.9619 93.3643 65.2288
14927 1 10.0584 94.9591 66.5393
14948 1 12.7854 93.35 66.507
14743 1 15.5146 94.9591 66.5393
20525 2 16.4181 93.3643 65.2288
14742 1 18.2416 93.35 66.507
14635 1 20.9708 94.9591 66.5393
21084 2 2.77869 94.974 65.261
21451 2 0.051521 96.584 65.2933
15556 1 1.87491 96.5685 66.5716
21082 2 5.50776 96.584 65.2933
20766 2 8.23493 94.974 65.261
15218 1 7.33115 96.5685 66.5716
20768 2 10.964 96.584 65.2933
20500 2 13.6912 94.974 65.261
14925 1 12.7874 96.5685 66.5716
20498 2 16.4202 96.584 65.2933
14745 1 18.2436 96.5685 66.5716
20348 2 19.1474 94.974 65.261
21083 2 2.78041 98.1942 65.3254
21449 2 0.0528972 99.8045 65.357
15557 1 1.87619 99.7882 66.6356
21085 2 5.50914 99.8045 65.357
15203 1 4.60374 98.1783 66.6038
20747 2 8.23665 98.1942 65.3254
15201 1 7.33242 99.7882 66.6356
20745 2 10.9654 99.8045 65.357
14926 1 10.06 98.1783 66.6038
20499 2 13.6929 98.1942 65.3254
14728 1 15.5162 98.1783 66.6038
14928 1 12.7887 99.7882 66.6356
20501 2 16.4216 99.8045 65.357
14726 1 18.2449 99.7882 66.6356
20330 2 19.1491 98.1942 65.3254
14634 1 20.9725 98.1783 66.6038
15434 1 2.78765 53.2545 69.0315
15766 1 0.0607148 51.6477 69.0629
21286 2 0.965387 53.2376 67.7442
15433 1 5.51695 51.6477 69.0629
21328 2 3.69479 51.63 67.7757
15110 1 8.24389 53.2545 69.0315
20985 2 9.15103 51.63 67.7757
20986 2 6.42163 53.2376 67.7442
15136 1 10.9732 51.6477 69.0629
20670 2 11.8779 53.2376 67.7442
14874 1 13.7001 53.2545 69.0315
20688 2 14.6073 51.63 67.7757
14873 1 16.4294 51.6477 69.0629
20450 2 17.3341 53.2376 67.7442
14701 1 19.1564 53.2545 69.0315
20449 2 20.0635 51.63 67.7757
15720 1 0.0582025 54.8605 69.001
15435 1 5.51444 54.8605 69.001
21284 2 3.69206 54.8446 67.7136
20987 2 9.1483 54.8446 67.7136
15108 1 10.9707 54.8605 69.001
20668 2 14.6045 54.8446 67.7136
14875 1 16.4269 54.8605 69.001
20451 2 20.0608 54.8446 67.7136
15394 1 2.78487 56.4658 68.9716
21285 2 0.962371 56.4509 67.684
15721 1 0.0552033 58.0703 68.9437
15392 1 5.51144 58.0703 68.9437
21287 2 3.68882 58.0565 67.6559
15109 1 8.24111 56.4658 68.9716
20954 2 6.41861 56.4509 67.684
20952 2 9.14506 58.0565 67.6559
20669 2 11.8748 56.4509 67.684
15111 1 10.9677 58.0703 68.9437
14858 1 13.6973 56.4658 68.9716
20671 2 14.6013 58.0565 67.6559
20442 2 17.3311 56.4509 67.684
14856 1 16.4239 58.0703 68.9437
14700 1 19.1536 56.4658 68.9716
20440 2 20.0575 58.0565 67.6559
15393 1 2.78172 59.6741 68.9176
15674 1 0.0520052 61.2771 68.8937
21239 2 0.958972 59.6613 67.6296
21236 2 1.87549 61.2923 70.1576
15395 1 5.50824 61.2771 68.8937
21237 2 3.68537 61.2655 67.6055
15078 1 8.23796 59.6741 68.9176
20953 2 6.41521 59.6613 67.6296
20955 2 9.14161 61.2655 67.6055
20908 2 7.33172 61.2923 70.1576
15076 1 10.9645 61.2771 68.8937
20646 2 11.8714 59.6613 67.6296
14857 1 13.6942 59.6741 68.9176
20644 2 14.5978 61.2655 67.6055
20643 2 12.788 61.2923 70.1576
14859 1 16.4207 61.2771 68.8937
20441 2 17.3277 59.6613 67.6296
20420 2 18.2442 61.2923 70.1576
14693 1 19.1504 59.6741 68.9176
20443 2 20.0541 61.2655 67.6055
15348 1 2.77858 62.8794 68.8722
15675 1 0.049035 64.4811 68.8535
21238 2 0.955587 62.869 67.5838
21188 2 1.87254 64.4924 70.1183
15346 1 5.50527 64.4811 68.8535
21240 2 3.68217 64.4719 67.5649
20909 2 4.60207 62.8928 70.1366
15077 1 8.23482 62.8794 68.8722
20912 2 9.13841 64.4719 67.5649
20914 2 6.41182 62.869 67.5838
20911 2 7.32877 64.4924 70.1183
15079 1 10.9615 64.4811 68.8535
20645 2 11.8681 62.869 67.5838
20611 2 10.0583 62.8928 70.1366
14835 1 13.6911 62.8794 68.8722
20647 2 14.5946 64.4719 67.5649
20421 2 15.5145 62.8928 70.1366
20609 2 12.785 64.4924 70.1183
14833 1 16.4178 64.4811 68.8535
20426 2 17.3243 62.869 67.5838
20423 2 18.2413 64.4924 70.1183
14692 1 19.1473 62.8794 68.8722
20424 2 20.0509 64.4719 67.5649
20288 2 20.9708 62.8928 70.1366
15347 1 2.7759 66.0822 68.8379
15634 1 0.0467673 67.6829 68.8255
21192 2 0.952709 66.0743 67.5491
21189 2 1.8703 67.6899 70.091
15349 1 5.50301 67.6829 68.8255
21190 2 3.67974 67.6763 67.5366
20866 2 4.59942 66.0914 70.1031
15042 1 8.23214 66.0822 68.8379
20913 2 6.40895 66.0743 67.5491
20915 2 9.13597 67.6763 67.5366
20864 2 7.32654 67.6899 70.091
15040 1 10.9592 67.6829 68.8255
20615 2 11.8652 66.0743 67.5491
20610 2 10.0557 66.0914 70.1031
14834 1 13.6884 66.0822 68.8379
20613 2 14.5922 67.6763 67.5366
20402 2 15.5119 66.0914 70.1031
20612 2 12.7828 67.6899 70.091
14836 1 16.4155 67.6829 68.8255
20425 2 17.3214 66.0743 67.5491
20400 2 18.239 67.6899 70.091
14681 1 19.1446 66.0822 68.8379
20427 2 20.0485 67.6763 67.5366
20287 2 20.9681 66.0914 70.1031
15303 1 2.77415 69.2832 68.8167
15635 1 0.045607 70.8832 68.8114
21191 2 0.950823 69.2779 67.5277
21148 2 1.86918 70.8856 70.0773
15301 1 5.50185 70.8832 68.8114
21193 2 3.67849 70.8792 67.5224
20865 2 4.5977 69.2879 70.0824
15041 1 8.23039 69.2832 68.8167
20868 2 9.13473 70.8792 67.5224
20870 2 6.40706 69.2779 67.5277
20867 2 7.32541 70.8856 70.0773
15043 1 10.9581 70.8832 68.8114
20614 2 11.8633 69.2779 67.5277
20579 2 10.0539 69.2879 70.0824
14811 1 13.6866 69.2832 68.8167
20616 2 14.591 70.8792 67.5224
20401 2 15.5102 69.2879 70.0824
20577 2 12.7817 70.8856 70.0773
14809 1 16.4143 70.8832 68.8114
20406 2 17.3195 69.2779 67.5277
20403 2 18.2379 70.8856 70.0773
14680 1 19.1429 69.2832 68.8167
20404 2 20.0472 70.8792 67.5224
20280 2 20.9664 69.2879 70.0824
15302 1 2.77364 72.4832 68.8099
15602 1 0.0457812 74.0831 68.8122
21152 2 0.950275 72.4805 67.5208
21149 2 1.86938 74.0808 70.0779
15304 1 5.50202 74.0831 68.8122
21150 2 3.67867 74.0818 67.523
20823 2 4.59722 72.4832 70.0758
15006 1 8.22988 72.4832 68.8099
20869 2 6.40651 72.4805 67.5208
20871 2 9.13491 74.0818 67.523
20821 2 7.32561 74.0808 70.0779
15004 1 10.9583 74.0831 68.8122
20583 2 11.8628 72.4805 67.5208
20578 2 10.0535 72.4832 70.0758
14810 1 13.6861 72.4832 68.8099
20581 2 14.5911 74.0818 67.523
20382 2 15.5097 72.4832 70.0758
20580 2 12.7819 74.0808 70.0779
14812 1 16.4145 74.0831 68.8122
20405 2 17.319 72.4805 67.5208
20380 2 18.2381 74.0808 70.0779
14669 1 19.1424 72.4832 68.8099
20407 2 20.0474 74.0818 67.523
20279 2 20.9659 72.4832 70.0758
15265 1 2.77449 75.6832 68.8181
21151 2 0.951179 75.6832 67.529
20822 2 4.5981 75.6785 70.0836
15005 1 8.23073 75.6832 68.8181
20827 2 6.40742 75.6832 67.529
20582 2 11.8637 75.6832 67.529
20547 2 10.0543 75.6785 70.0836
14787 1 13.687 75.6832 68.8181
20381 2 15.5106 75.6785 70.0836
20386 2 17.3199 75.6832 67.529
14668 1 19.1432 75.6832 68.8181
20272 2 20.9668 75.6785 70.0836
15264 1 2.77656 78.8844 68.8405
15603 1 0.0472748 77.2836 68.8276
21120 2 0.953388 78.8868 67.5516
21116 2 1.87089 77.2766 70.0929
15263 1 5.50351 77.2836 68.8276
21153 2 3.68026 77.2848 67.5386
20787 2 4.60018 78.8752 70.1055
14971 1 8.2328 78.8844 68.8405
20825 2 9.1365 77.2848 67.5386
20826 2 6.40963 78.8868 67.5516
20824 2 7.32713 77.2766 70.0929
15007 1 10.9598 77.2836 68.8276
20551 2 11.8659 78.8868 67.5516
20546 2 10.0564 78.8752 70.1055
14786 1 13.689 78.8844 68.8405
20584 2 14.5927 77.2848 67.5386
20362 2 15.5127 78.8752 70.1055
20545 2 12.7834 77.2766 70.0929
14785 1 16.416 77.2836 68.8276
20385 2 17.3221 78.8868 67.5516
20383 2 18.2396 77.2766 70.0929
14657 1 19.1453 78.8844 68.8405
20384 2 20.049 77.2848 67.5386
20271 2 20.9689 78.8752 70.1055
15235 1 2.7795 82.0875 68.8758
15578 1 0.0498329 80.4857 68.8567
21119 2 0.956529 82.0924 67.5872
21117 2 1.87346 80.4743 70.1212
15266 1 5.50607 80.4857 68.8567
21118 2 3.68299 80.4893 67.5679
20786 2 4.60314 82.0742 70.1398
14970 1 8.23574 82.0875 68.8758
20791 2 6.41277 82.0924 67.5872
20828 2 9.13923 80.4893 67.5679
20785 2 7.3297 80.4743 70.1212
14969 1 10.9623 80.4857 68.8567
20550 2 11.869 82.0924 67.5872
20516 2 10.0594 82.0742 70.1398
14763 1 13.692 82.0875 68.8758
20549 2 14.5955 80.4893 67.5679
20361 2 15.5156 82.0742 70.1398
20548 2 12.7859 80.4743 70.1212
14788 1 16.4185 80.4857 68.8567
20366 2 17.3252 82.0924 67.5872
20360 2 18.2422 80.4743 70.1212
14656 1 19.1482 82.0875 68.8758
20387 2 20.0517 80.4893 67.5679
20264 2 20.9719 82.0742 70.1398
15234 1 2.78284 85.2933 68.9218
15579 1 0.0530325 83.6901 68.8976
21096 2 0.960102 85.3003 67.6336
21092 2 1.87668 83.6748 70.1611
15233 1 5.50927 83.6901 68.8976
21121 2 3.68641 83.696 67.6092
20759 2 4.60651 85.2763 70.1848
14943 1 8.23908 85.2933 68.9218
20789 2 9.14265 83.696 67.6092
20790 2 6.41634 85.3003 67.6336
20788 2 7.33292 83.6748 70.1611
14972 1 10.9655 83.6901 68.8976
20520 2 11.8726 85.3003 67.6336
20515 2 10.0628 85.2763 70.1848
14762 1 13.6953 85.2933 68.9218
20552 2 14.5989 83.696 67.6092
20342 2 15.519 85.2763 70.1848
20514 2 12.7892 83.6748 70.1611
14761 1 16.4217 83.6901 68.8976
20365 2 17.3288 85.3003 67.6336
20363 2 18.2454 83.6748 70.1611
14645 1 19.1516 85.2933 68.9218
20364 2 20.0551 83.696 67.6092
20263 2 20.9752 85.2763 70.1848
15213 1 2.78612 88.502 68.976
15562 1 0.0563956 86.8973 68.9481
21095 2 0.963612 88.511 67.6881
21093 2 1.88009 86.8787 70.2105
15236 1 5.51263 86.8973 68.9481
21094 2 3.69001 86.9053 67.66
20758 2 4.60985 88.482 70.2379
14942 1 8.24236 88.502 68.976
20763 2 6.41985 88.511 67.6881
20792 2 9.14625 86.9053 67.66
20757 2 7.33633 86.8787 70.2105
14941 1 10.9689 86.8973 68.9481
20519 2 11.8761 88.511 67.6881
20492 2 10.0661 88.482 70.2379
14740 1 13.6986 88.502 68.976
20518 2 14.6025 86.9053 67.66
20341 2 15.5223 88.482 70.2379
20517 2 12.7926 86.8787 70.2105
14764 1 16.4251 86.8973 68.9481
20346 2 17.3323 88.511 67.6881
20340 2 18.2488 86.8787 70.2105
14644 1 19.1548 88.502 68.976
20367 2 20.0587 86.9053 67.66
20256 2 20.9786 88.482 70.2379
15212 1 2.78899 91.7137 69.0357
15563 1 0.0595035 90.1075 69.0054
21080 2 0.966671 91.7246 67.7482
21076 2 1.88328 90.0864 70.2667
15211 1 5.51574 90.1075 69.0054
21097 2 3.69333 90.1175 67.7176
14923 1 8.24523 91.7137 69.0357
20761 2 9.14957 90.1175 67.7176
20762 2 6.42291 91.7246 67.7482
20760 2 7.33952 90.0864 70.2667
14944 1 10.972 90.1075 69.0054
20496 2 11.8791 91.7246 67.7482
14739 1 13.7015 91.7137 69.0357
20521 2 14.6058 90.1175 67.7176
20490 2 12.7958 90.0864 70.2667
14738 1 16.4282 90.1075 69.0054
20345 2 17.3354 91.7246 67.7482
20343 2 18.252 90.0864 70.2667
14633 1 19.1577 91.7137 69.0357
20344 2 20.062 90.1175 67.7176
15554 1 0.0620785 93.3207 69.0668
15199 1 2.79122 94.9284 69.0984
21079 2 0.969069 94.9407 67.8111
15214 1 5.51832 93.3207 69.0668
21078 2 3.69607 93.3323 67.7794
20764 2 9.15231 93.3323 67.7794
14922 1 8.24746 94.9284 69.0984
20743 2 6.42531 94.9407 67.8111
14921 1 10.9746 93.3207 69.0668
20495 2 11.8815 94.9407 67.8111
20494 2 14.6086 93.3323 67.7794
14724 1 13.7037 94.9284 69.0984
14741 1 16.4308 93.3207 69.0668
20327 2 17.3378 94.9407 67.8111
20347 2 20.0648 93.3323 67.7794
14632 1 19.1599 94.9284 69.0984
15555 1 0.0640266 96.5367 69.1302
15197 1 5.52027 96.5367 69.1302
21081 2 3.69815 96.5496 67.843
20741 2 9.15439 96.5496 67.843
14924 1 10.9765 96.5367 69.1302
20497 2 14.6106 96.5496 67.843
14722 1 16.4327 96.5367 69.1302
20325 2 20.0669 96.5496 67.843
15198 1 2.79287 98.1457 69.1621
15553 1 0.065386 99.755 69.1937
21072 2 0.970836 98.159 67.8747
15200 1 5.52162 99.755 69.1937
21070 2 3.69961 99.7688 67.9061
14911 1 8.24911 98.1457 69.1621
20742 2 6.42707 98.159 67.8747
20744 2 9.15585 99.7688 67.9061
14909 1 10.9779 99.755 69.1937
20480 2 11.8833 98.159 67.8747
14723 1 13.7054 98.1457 69.1621
20478 2 14.6121 99.7688 67.9061
14725 1 16.4341 99.755 69.1937
20326 2 17.3396 98.159 67.8747
14622 1 19.1616 98.1457 69.1621
20328 2 20.0683 99.7688 67.9061
15390 1 0.972283 53.2912 71.6098
21282 2 1.88432 51.6705 70.3237
20946 2 2.79916 53.3169 72.8292
21281 2 0.0721876 51.7123 72.8595
15432 1 3.70138 51.686 71.6404
20950 2 4.61121 53.2765 70.2928
20945 2 5.52843 51.7123 72.8595
15105 1 9.15762 51.686 71.6404
15106 1 6.42852 53.2912 71.6098
20984 2 7.34056 51.6705 70.3237
20638 2 8.2554 53.3169 72.8292
14854 1 11.8848 53.2912 71.6098
20666 2 10.0674 53.2765 70.2928
20664 2 10.9847 51.7123 72.8595
14872 1 14.6139 51.686 71.6404
20438 2 15.5237 53.2765 70.2928
20665 2 12.7968 51.6705 70.3237
20434 2 13.7116 53.3169 72.8292
14698 1 17.341 53.2912 71.6098
20448 2 18.253 51.6705 70.3237
20433 2 16.4409 51.7123 72.8595
14697 1 20.0701 51.686 71.6404
20296 2 20.9799 53.2765 70.2928
20293 2 19.1679 53.3169 72.8292
21283 2 1.88173 54.8816 70.2628
21233 2 0.0697541 54.9202 72.7997
15388 1 3.6993 54.8954 71.58
20947 2 5.52599 54.9202 72.7997
15107 1 9.15554 54.8954 71.58
20948 2 7.33797 54.8816 70.2628
20636 2 10.9822 54.9202 72.7997
14852 1 14.6118 54.8954 71.58
20667 2 12.7942 54.8816 70.2628
20436 2 18.2504 54.8816 70.2628
20435 2 16.4385 54.9202 72.7997
14699 1 20.068 54.8954 71.58
15389 1 0.969981 56.4986 71.5514
21235 2 1.87869 58.0889 70.2066
20906 2 2.79647 56.5222 72.7714
21234 2 0.0668676 58.1229 72.7447
20949 2 4.60837 56.4857 70.2339
15391 1 3.69682 58.1008 71.5242
20904 2 5.52311 58.1229 72.7447
15074 1 6.42622 56.4986 71.5514
15072 1 9.15306 58.1008 71.5242
20951 2 7.33493 58.0889 70.2066
20637 2 8.25271 56.5222 72.7714
14853 1 11.8825 56.4986 71.5514
20642 2 10.0646 56.4857 70.2339
20639 2 10.9793 58.1229 72.7447
20437 2 15.5208 56.4857 70.2339
14855 1 14.6093 58.1008 71.5242
20640 2 12.7912 58.0889 70.2066
20418 2 13.709 56.5222 72.7714
14690 1 17.3387 56.4986 71.5514
20439 2 18.2474 58.0889 70.2066
20416 2 16.4356 58.1229 72.7447
20295 2 20.9771 56.4857 70.2339
14688 1 20.0655 58.1008 71.5242
20292 2 19.1652 56.5222 72.7714
15344 1 0.967371 59.7021 71.4989
20905 2 2.79345 59.7223 72.7197
21186 2 0.0637963 61.3206 72.6969
15342 1 3.69416 61.3024 71.4757
20910 2 4.6052 59.6911 70.181
20907 2 5.52003 61.3206 72.6969
15073 1 6.42361 59.7021 71.4989
15075 1 9.1504 61.3024 71.4757
20607 2 8.24969 59.7223 72.7197
14831 1 11.8798 59.7021 71.4989
20641 2 10.0614 59.6911 70.181
20605 2 10.9763 61.3206 72.6969
14829 1 14.6066 61.3024 71.4757
20422 2 15.5177 59.6911 70.181
20417 2 13.7059 59.7223 72.7197
14689 1 17.3361 59.7021 71.4989
20419 2 16.4325 61.3206 72.6969
14691 1 20.0629 61.3024 71.4757
20294 2 20.9739 59.6911 70.181
20286 2 19.1622 59.7223 72.7197
15343 1 0.964763 62.9019 71.4549
20862 2 2.79044 62.9178 72.6764
21187 2 0.060952 64.5139 72.6586
15345 1 3.6917 64.5006 71.4368
20860 2 5.51719 64.5139 72.6586
15036 1 9.14794 64.5006 71.4368
15038 1 6.421 62.9019 71.4549
20606 2 8.24667 62.9178 72.6764
14830 1 11.8772 62.9019 71.4549
20608 2 10.9734 64.5139 72.6586
14832 1 14.6042 64.5006 71.4368
20398 2 13.7029 62.9178 72.6764
14678 1 17.3335 62.9019 71.4549
20396 2 16.4297 64.5139 72.6586
14676 1 20.0604 64.5006 71.4368
20285 2 19.1592 62.9178 72.6764
15299 1 0.962551 66.0986 71.4217
20861 2 2.78788 66.1092 72.6438
21146 2 0.0587953 67.7038 72.6321
15297 1 3.68984 67.696 71.4098
20863 2 5.51503 67.7038 72.6321
15037 1 6.41879 66.0986 71.4217
15039 1 9.14607 67.696 71.4098
20575 2 8.24412 66.1092 72.6438
14807 1 11.875 66.0986 71.4217
20573 2 10.9713 67.7038 72.6321
14805 1 14.6023 67.696 71.4098
20397 2 13.7004 66.1092 72.6438
14677 1 17.3313 66.0986 71.4217
20399 2 16.4275 67.7038 72.6321
14679 1 20.0586 67.696 71.4098
20278 2 19.1566 66.1092 72.6438
15298 1 0.961119 69.293 71.4013
20819 2 2.78622 69.2978 72.6237
21147 2 0.0577197 70.8915 72.6187
15300 1 3.68891 70.8898 71.3962
20817 2 5.51396 70.8915 72.6187
15000 1 9.14515 70.8898 71.3962
15002 1 6.41736 69.293 71.4013
20574 2 8.24246 69.2978 72.6237
14806 1 11.8736 69.293 71.4013
20576 2 10.9702 70.8915 72.6187
14808 1 14.6014 70.8898 71.3962
20378 2 13.6987 69.2978 72.6237
14666 1 17.3298 69.293 71.4013
20376 2 16.4264 70.8915 72.6187
14664 1 20.0576 70.8898 71.3962
20277 2 19.1549 69.2978 72.6237
15261 1 0.960742 72.4863 71.3948
20818 2 2.78578 72.485 72.6173
21114 2 0.0579449 74.0785 72.6194
15259 1 3.6891 74.0829 71.3969
20820 2 5.51418 74.0785 72.6194
15001 1 6.41698 72.4863 71.3948
15003 1 9.14534 74.0829 71.3969
20543 2 8.24202 72.485 72.6173
14783 1 11.8732 72.4863 71.3948
20541 2 10.9704 74.0785 72.6194
14781 1 14.6016 74.0829 71.3969
20377 2 13.6983 72.485 72.6173
14665 1 17.3295 72.4863 71.3948
20379 2 16.4267 74.0785 72.6194
14667 1 20.0578 74.0829 71.3969
20270 2 19.1545 72.485 72.6173
15260 1 0.961509 75.6797 71.4026
20783 2 2.78667 75.6722 72.6249
14967 1 6.41775 75.6797 71.4026
20542 2 8.24291 75.6722 72.6249
14782 1 11.874 75.6797 71.4026
20358 2 13.6991 75.6722 72.6249
14654 1 17.3302 75.6797 71.4026
20269 2 19.1554 75.6722 72.6249
15231 1 0.963303 78.8745 71.4243
20782 2 2.78874 78.8611 72.6461
21115 2 0.059453 77.2664 72.6339
15262 1 3.69041 77.2769 71.4118
20781 2 5.51569 77.2664 72.6339
14965 1 9.14665 77.2769 71.4118
14966 1 6.41954 78.8745 71.4243
20512 2 8.24498 78.8611 72.6461
14759 1 11.8758 78.8745 71.4243
20544 2 10.9719 77.2664 72.6339
14784 1 14.6029 77.2769 71.4118
20357 2 13.7012 78.8611 72.6461
14653 1 17.332 78.8745 71.4243
20356 2 16.4282 77.2664 72.6339
14652 1 20.0591 77.2769 71.4118
20262 2 19.1575 78.8611 72.6461
15230 1 0.965832 82.0717 71.4584
20755 2 2.79165 82.0531 72.6795
21090 2 0.0619943 80.4566 72.6614
15229 1 3.69262 80.4727 71.4399
20784 2 5.51823 80.4566 72.6614
14939 1 6.42207 82.0717 71.4584
14968 1 9.14886 80.4727 71.4399
20511 2 8.24788 82.0531 72.6795
14758 1 11.8783 82.0717 71.4584
20510 2 10.9745 80.4566 72.6614
14757 1 14.6051 80.4727 71.4399
20338 2 13.7041 82.0531 72.6795
14642 1 17.3345 82.0717 71.4584
20359 2 16.4307 80.4566 72.6614
14655 1 20.0613 80.4727 71.4399
20261 2 19.1604 82.0531 72.6795
15209 1 0.968703 85.2721 71.503
20754 2 2.79495 85.2491 72.7234
21091 2 0.0651579 83.6505 72.7003
15232 1 3.69537 83.6715 71.4795
20753 2 5.5214 83.6505 72.7003
14937 1 9.15161 83.6715 71.4795
14938 1 6.42494 85.2721 71.503
20488 2 8.25119 85.2491 72.7234
14736 1 11.8812 85.2721 71.503
20513 2 10.9776 83.6505 72.7003
14760 1 14.6078 83.6715 71.4795
20337 2 13.7074 85.2491 72.7234
14641 1 17.3374 85.2721 71.503
20336 2 16.4339 83.6505 72.7003
14640 1 20.0641 83.6715 71.4795
20254 2 19.1637 85.2491 72.7234
21074 2 0.0684833 86.8489 72.7485
20735 2 2.7982 88.4499 72.7753
15208 1 0.971526 88.4763 71.5557
20756 2 5.52472 86.8489 72.7485
15207 1 3.69826 86.8737 71.5285
20487 2 8.25443 88.4499 72.7753
14919 1 6.42776 88.4763 71.5557
14940 1 9.1545 86.8737 71.5285
20486 2 10.981 86.8489 72.7485
14735 1 11.884 88.4763 71.5557
20319 2 13.7107 88.4499 72.7753
14734 1 14.6107 86.8737 71.5285
20339 2 16.4372 86.8489 72.7485
14630 1 17.3402 88.4763 71.5557
20253 2 19.1669 88.4499 72.7753
14643 1 20.067 86.8737 71.5285
21075 2 0.0715719 90.0522 72.8035
20734 2 2.80106 91.6558 72.8328
15195 1 0.974009 91.6844 71.6139
20733 2 5.52781 90.0522 72.8035
15210 1 3.70094 90.0799 71.5842
20739 2 4.61281 91.6917 70.2966
20472 2 8.2573 91.6558 72.8328
14917 1 9.15718 90.0799 71.5842
14918 1 6.43025 91.6844 71.6139
20489 2 10.984 90.0522 72.8035
14720 1 11.8865 91.6844 71.6139
20491 2 10.069 91.6917 70.2966
20318 2 13.7135 91.6558 72.8328
14737 1 14.6134 90.0799 71.5842
20323 2 15.5253 91.6917 70.2966
20317 2 16.4403 90.0522 72.8035
14629 1 17.3427 91.6844 71.6139
20246 2 19.1698 91.6558 72.8328
14628 1 20.0697 90.0799 71.5842
20255 2 20.9815 91.6917 70.2966
20723 2 2.80337 94.8667 72.8935
21066 2 0.0741753 93.2606 72.8629
21077 2 1.88595 93.2979 70.3273
15194 1 0.976044 94.8962 71.6751
20736 2 5.53041 93.2606 72.8629
15193 1 3.7032 93.2899 71.6443
20738 2 4.61518 94.9049 70.3584
20471 2 8.25961 94.8667 72.8935
14920 1 9.15944 93.2899 71.6443
20737 2 7.34219 93.2979 70.3273
14907 1 6.43228 94.8962 71.6751
20470 2 10.9867 93.2606 72.8629
14719 1 11.8885 94.8962 71.6751
20476 2 10.0714 94.9049 70.3584
20307 2 13.7158 94.8667 72.8935
14718 1 14.6157 93.2899 71.6443
20493 2 12.7984 93.2979 70.3273
20322 2 15.5277 94.9049 70.3584
20320 2 16.4429 93.2606 72.8629
20321 2 18.2547 93.2979 70.3273
14619 1 17.3448 94.8962 71.6751
20245 2 19.1721 94.8667 72.8935
14631 1 20.0719 93.2899 71.6443
20248 2 20.9839 94.9049 70.3584
21067 2 0.076127 96.4737 72.9243
21068 2 1.888 96.5129 70.3897
20721 2 5.53237 96.4737 72.9243
15196 1 3.70499 96.5034 71.706
14905 1 9.16123 96.5034 71.706
20740 2 7.34424 96.5129 70.3897
20473 2 10.9886 96.4737 72.9243
14721 1 14.6175 96.5034 71.706
20474 2 12.8005 96.5129 70.3897
20305 2 16.4448 96.4737 72.9243
20324 2 18.2567 96.5129 70.3897
14617 1 20.0737 96.5034 71.706
21065 2 0.0779124 99.6912 72.9856
20722 2 2.80529 98.0818 72.9551
15189 1 0.97747 98.1115 71.7383
21069 2 1.88964 99.7311 70.4522
20724 2 5.53415 99.6912 72.9856
15187 1 3.70608 99.7204 71.7698
20727 2 4.61705 98.1217 70.4211
20464 2 8.26152 98.0818 72.9551
14906 1 6.43371 98.1115 71.7383
14908 1 9.16232 99.7204 71.7698
20725 2 7.34588 99.7311 70.4522
20462 2 10.9904 99.6912 72.9856
14712 1 11.8899 98.1115 71.7383
20475 2 10.0733 98.1217 70.4211
20306 2 13.7178 98.0818 72.9551
14710 1 14.6186 99.7204 71.7698
20311 2 15.5295 98.1217 70.4211
20477 2 12.8021 99.7311 70.4522
20308 2 16.4466 99.6912 72.9856
14618 1 17.3462 98.1115 71.7383
20309 2 18.2584 99.7311 70.4522
20239 2 19.174 98.0818 72.9551
14620 1 20.0748 99.7204 71.7698
20247 2 20.9858 98.1217 70.4211
15386 1 1.83862 51.7195 74.2973
20902 2 0.965104 53.3514 75.3129
15070 1 4.56772 53.3233 74.2668
20944 2 3.69355 51.7481 75.3425
15104 1 7.29485 51.7195 74.2973
20633 2 9.14979 51.7481 75.3425
20634 2 6.42134 53.3514 75.3129
14850 1 10.024 53.3233 74.2668
20414 2 11.8776 53.3514 75.3129
14686 1 15.4802 53.3233 74.2668
14849 1 12.7511 51.7195 74.2973
20432 2 14.606 51.7481 75.3425
14696 1 18.2073 51.7195 74.2973
20290 2 17.3338 53.3514 75.3129
14608 1 20.9364 53.3233 74.2668
20289 2 20.0623 51.7481 75.3425
15387 1 1.84055 54.9259 74.2372
20900 2 3.69278 54.9532 75.2842
15068 1 7.29678 54.9259 74.2372
20635 2 9.14902 54.9532 75.2842
14851 1 12.753 54.9259 74.2372
20412 2 14.6053 54.9532 75.2842
14684 1 18.2093 54.9259 74.2372
20291 2 20.0615 54.9532 75.2842
20901 2 0.964109 56.5536 75.2568
15340 1 1.84227 58.1281 74.1818
15069 1 4.56956 56.5275 74.2087
20903 2 3.69159 58.1524 75.2308
20603 2 6.42035 56.5536 75.2568
15071 1 7.29851 58.1281 74.1818
20601 2 9.14782 58.1524 75.2308
14827 1 10.0258 56.5275 74.2087
20413 2 11.8766 56.5536 75.2568
14685 1 15.482 56.5275 74.2087
14825 1 12.7547 58.1281 74.1818
20415 2 14.6041 58.1524 75.2308
20283 2 17.3328 56.5536 75.2568
14687 1 18.211 58.1281 74.1818
14607 1 20.9383 56.5275 74.2087
20281 2 20.0603 58.1524 75.2308
15341 1 1.84372 61.3258 74.1337
20858 2 0.962756 59.7498 75.2066
15034 1 4.57115 59.7275 74.1567
20856 2 3.69013 61.3458 75.1846
15032 1 7.29996 61.3258 74.1337
20602 2 6.41899 59.7498 75.2066
20604 2 9.14637 61.3458 75.1846
14826 1 10.0274 59.7275 74.1567
20394 2 11.8752 59.7498 75.2066
14674 1 15.4836 59.7275 74.1567
14828 1 12.7562 61.3258 74.1337
20392 2 14.6026 61.3458 75.1846
14672 1 18.2124 61.3258 74.1337
20282 2 17.3315 59.7498 75.2066
14606 1 20.9399 59.7275 74.1567
20284 2 20.0588 61.3458 75.1846
15295 1 1.84489 64.5194 74.0951
20857 2 0.961272 62.9404 75.1649
15033 1 4.57246 62.9231 74.1131
20859 2 3.6887 64.5338 75.1478
15035 1 7.30113 64.5194 74.0951
20569 2 9.14493 64.5338 75.1478
20571 2 6.41751 62.9404 75.1649
14803 1 10.0287 62.9231 74.1131
20393 2 11.8737 62.9404 75.1649
14673 1 15.4849 62.9231 74.1131
14801 1 12.7574 64.5194 74.0951
20395 2 14.6012 64.5338 75.1478
14675 1 18.2136 64.5194 74.0951
20275 2 17.33 62.9404 75.1649
14605 1 20.9412 62.9231 74.1131
20273 2 20.0574 64.5338 75.1478
15296 1 1.84577 67.7098 74.0684
20815 2 0.959964 66.1261 75.1335
14998 1 4.57349 66.115 74.0802
20813 2 3.68759 67.7175 75.1222
14996 1 7.30201 67.7098 74.0684
20570 2 6.4162 66.1261 75.1335
20572 2 9.14383 67.7175 75.1222
14802 1 10.0297 66.115 74.0802
20374 2 11.8724 66.1261 75.1335
14662 1 15.486 66.115 74.0802
14804 1 12.7582 67.7098 74.0684
20372 2 14.6001 67.7175 75.1222
14660 1 18.2145 67.7098 74.0684
20274 2 17.3287 66.1261 75.1335
14604 1 20.9422 66.115 74.0802
20276 2 20.0563 67.7175 75.1222
15257 1 1.8463 70.898 74.055
20814 2 0.959127 69.3082 75.1142
14997 1 4.5742 69.3041 74.06
20816 2 3.68707 70.8985 75.1094
14999 1 7.30254 70.898 74.055
20537 2 9.14331 70.8985 75.1094
20539 2 6.41537 69.3082 75.1142
14779 1 10.0304 69.3041 74.06
20373 2 11.8716 69.3082 75.1142
14661 1 15.4867 69.3041 74.06
14777 1 12.7588 70.898 74.055
20375 2 14.5996 70.8985 75.1094
14663 1 18.215 70.898 74.055
20267 2 17.3278 69.3082 75.1142
14603 1 20.9429 69.3041 74.06
20265 2 20.0558 70.8985 75.1094
15258 1 1.84647 74.0857 74.0557
20779 2 0.95897 72.4886 75.108
14963 1 4.57455 72.4918 74.0535
20777 2 3.68729 74.0787 75.11
14961 1 7.30271 74.0857 74.0557
20538 2 6.41521 72.4886 75.108
20540 2 9.14353 74.0787 75.11
14778 1 10.0308 72.4918 74.0535
20354 2 11.8714 72.4886 75.108
14650 1 15.487 72.4918 74.0535
14780 1 12.759 74.0857 74.0557
20352 2 14.5998 74.0787 75.11
14648 1 18.2152 74.0857 74.0557
20266 2 17.3277 72.4886 75.108
14602 1 20.9433 72.4918 74.0535
20268 2 20.056 74.0787 75.11
20778 2 0.959563 75.6691 75.1153
14962 1 4.57454 75.6798 74.0613
20508 2 6.4158 75.6691 75.1153
14755 1 10.0308 75.6798 74.0613
20353 2 11.872 75.6691 75.1153
14649 1 15.487 75.6798 74.0613
20259 2 17.3283 75.6691 75.1153
14601 1 20.9433 75.6798 74.0613
15227 1 1.84628 77.2743 74.0704
20751 2 0.960817 78.8518 75.1356
14935 1 4.57419 78.8695 74.0828
20780 2 3.68824 77.2601 75.1239
14964 1 7.30252 77.2743 74.0704
20506 2 9.14448 77.2601 75.1239
20507 2 6.41705 78.8518 75.1356
14754 1 10.0304 78.8695 74.0828
20334 2 11.8733 78.8518 75.1356
14638 1 15.4867 78.8695 74.0828
14753 1 12.7588 77.2743 74.0704
20355 2 14.6007 77.2601 75.1239
14651 1 18.215 77.2743 74.0704
20258 2 17.3295 78.8518 75.1356
14600 1 20.9429 78.8695 74.0828
20257 2 20.057 77.2601 75.1239
15228 1 1.84577 80.4654 74.0983
20750 2 0.962507 82.0384 75.1677
14934 1 4.57353 82.0622 74.1166
20749 2 3.68974 80.4445 75.1503
14933 1 7.30201 80.4654 74.0983
20484 2 6.41875 82.0384 75.1677
20509 2 9.14598 80.4445 75.1503
14732 1 10.0298 82.0622 74.1166
20333 2 11.875 82.0384 75.1677
14637 1 15.486 82.0622 74.1166
14756 1 12.7583 80.4654 74.0983
20332 2 14.6022 80.4445 75.1503
14636 1 18.2145 80.4654 74.0983
20251 2 17.3312 82.0384 75.1677
14599 1 20.9422 82.0622 74.1166
20260 2 20.0585 80.4445 75.1503
15205 1 1.84498 83.6601 74.1376
20731 2 0.964333 85.2301 75.21
14915 1 4.5726 85.2591 74.1608
20752 2 3.69154 83.6336 75.1877
14936 1 7.30122 83.6601 74.1376
20482 2 9.14778 83.6336 75.1877
20483 2 6.42057 85.2301 75.21
14731 1 10.0288 85.2591 74.1608
20315 2 11.8768 85.2301 75.21
14626 1 15.4851 85.2591 74.1608
14730 1 12.7575 83.6601 74.1376
20335 2 14.604 83.6336 75.1877
14639 1 18.2137 83.6601 74.1376
20250 2 17.333 85.2301 75.21
14598 1 20.9413 85.2591 74.1608
20249 2 20.0603 83.6336 75.1877
20730 2 0.965995 88.4276 75.2602
15206 1 1.84392 86.8592 74.1861
20729 2 3.69332 86.8281 75.2343
14914 1 4.5714 88.4604 74.2132
20485 2 9.14956 86.8281 75.2343
20468 2 6.42223 88.4276 75.2602
14913 1 7.30015 86.8592 74.1861
20314 2 11.8785 88.4276 75.2602
14716 1 10.0276 88.4604 74.2132
20313 2 14.6058 86.8281 75.2343
14733 1 12.7564 86.8592 74.1861
14625 1 15.4839 88.4604 74.2132
20243 2 17.3347 88.4276 75.2602
14624 1 18.2126 86.8592 74.1861
20252 2 20.062 86.8281 75.2343
14597 1 20.9401 88.4604 74.2132
20719 2 0.967288 91.6311 75.3162
15191 1 1.84259 90.0628 74.2416
20732 2 3.69482 90.0286 75.2876
14903 1 4.56997 91.6663 74.271
20467 2 6.42353 91.6311 75.3162
20466 2 9.15106 90.0286 75.2876
14916 1 7.29883 90.0628 74.2416
20303 2 11.8798 91.6311 75.3162
14715 1 10.0262 91.6663 74.271
20316 2 14.6073 90.0286 75.2876
14714 1 12.7551 90.0628 74.2416
14615 1 15.4824 91.6663 74.271
20242 2 17.336 91.6311 75.3162
14627 1 18.2113 90.0628 74.2416
20241 2 20.0635 90.0286 75.2876
14596 1 20.9387 91.6663 74.271
20718 2 0.968244 94.8405 75.3754
15192 1 1.84108 93.2708 74.3013
14902 1 4.56844 94.8764 74.3321
20717 2 3.69591 93.2351 75.3455
20460 2 6.42448 94.8405 75.3754
20469 2 9.15215 93.2351 75.3455
14901 1 7.29732 93.2708 74.3013
20302 2 11.8807 94.8405 75.3754
14708 1 10.0247 94.8764 74.3321
14614 1 15.4809 94.8764 74.3321
20301 2 14.6084 93.2351 75.3455
14717 1 12.7536 93.2708 74.3013
20236 2 17.337 94.8405 75.3754
14613 1 18.2098 93.2708 74.3013
14595 1 20.9372 94.8764 74.3321
20244 2 20.0646 93.2351 75.3455
15185 1 1.83965 96.4826 74.3628
20720 2 3.69669 96.4472 75.4056
20458 2 9.15293 96.4472 75.4056
14904 1 7.29589 96.4826 74.3628
20304 2 14.6092 96.4472 75.4056
14706 1 12.7521 96.4826 74.3628
14616 1 18.2084 96.4826 74.3628
20234 2 20.0654 96.4472 75.4056
20715 2 0.968904 98.0551 75.4347
15186 1 1.8377 99.6987 74.424
20713 2 3.69718 99.6642 75.4641
14899 1 4.56671 98.09 74.3936
20461 2 9.15342 99.6642 75.4641
20459 2 6.42514 98.0551 75.4347
14897 1 7.29393 99.6987 74.424
20299 2 11.8814 98.0551 75.4347
14707 1 10.023 98.09 74.3936
20297 2 14.6097 99.6642 75.4641
14709 1 12.7502 99.6987 74.424
14611 1 15.4792 98.09 74.3936
20235 2 17.3376 98.0551 75.4347
14609 1 18.2064 99.6987 74.424
20237 2 20.0659 99.6642 75.4641
14594 1 20.9354 98.09 74.3936
12544 2 0.00712769 100.919 -3.8005
12527 2 2.73354 102.496 -3.77615
12519 2 0.914144 102.468 -1.27462
6143 1 1.82955 100.892 -2.74238
12526 2 5.46337 100.919 -3.8005
12525 2 3.64315 100.892 -1.29957
6110 1 4.55437 102.469 -2.71747
12430 2 8.18978 102.496 -3.77615
12426 2 6.37038 102.468 -1.27462
12425 2 9.09939 100.892 -1.29957
6112 1 7.28579 100.892 -2.74238
12432 2 10.9196 100.919 -3.8005
5983 1 10.0106 102.469 -2.71747
12231 2 11.8266 102.468 -1.27462
5758 1 15.4668 102.469 -2.71747
5982 1 12.742 100.892 -2.74238
12237 2 14.5556 100.892 -1.29957
12239 2 13.646 102.496 -3.77615
5760 1 18.1983 100.892 -2.74238
11949 2 17.2829 102.468 -1.27462
12238 2 16.3758 100.919 -3.8005
5440 1 20.9231 102.469 -2.71747
11948 2 20.0119 100.892 -1.29957
11952 2 19.1023 102.496 -3.77615
12542 2 0.00373061 104.071 -3.75183
12523 2 2.73017 105.646 -3.72768
12518 2 0.912322 105.617 -1.22504
6144 1 1.823 104.045 -2.69263
12528 2 5.45997 104.071 -3.75183
12517 2 3.64136 104.043 -1.24974
6109 1 4.54795 105.62 -2.66797
12429 2 8.18641 105.646 -3.72768
12427 2 9.0976 104.043 -1.24974
12418 2 6.36856 105.617 -1.22504
6108 1 7.27924 104.045 -2.69263
12428 2 10.9162 104.071 -3.75183
5979 1 10.0042 105.62 -2.66797
12230 2 11.8248 105.617 -1.22504
5757 1 15.4604 105.62 -2.66797
5984 1 12.7355 104.045 -2.69263
12229 2 14.5538 104.043 -1.24974
12235 2 13.6427 105.646 -3.72768
5756 1 18.1917 104.045 -2.69263
11943 2 17.281 105.617 -1.22504
12240 2 16.3724 104.071 -3.75183
5439 1 20.9167 105.62 -2.66797
11950 2 20.0101 104.043 -1.24974
11951 2 19.0989 105.646 -3.72768
12543 2 0.000402351 107.22 -3.70379
12522 2 2.7269 108.793 -3.68029
12508 2 0.910447 108.764 -1.17665
6140 1 1.81675 107.195 -2.64361
12521 2 5.45664 107.22 -3.70379
12520 2 3.63951 107.191 -1.20064
6102 1 4.54189 108.768 -2.61966
12422 2 8.18314 108.793 -3.68029
12417 2 6.36669 108.764 -1.17665
6111 1 7.27298 107.195 -2.64361
12416 2 9.09575 107.191 -1.20064
12431 2 10.9129 107.22 -3.70379
5978 1 9.99813 108.768 -2.61966
12219 2 11.8229 108.764 -1.17665
5750 1 15.4544 108.768 -2.61966
5977 1 12.7292 107.195 -2.64361
12232 2 14.552 107.191 -1.20064
12234 2 13.6394 108.793 -3.68029
5759 1 18.1855 107.195 -2.64361
11942 2 17.2792 108.764 -1.17665
12233 2 16.3691 107.22 -3.70379
5438 1 20.9106 108.768 -2.61966
11941 2 20.0082 107.191 -1.20064
11946 2 19.0956 108.793 -3.68029
12540 2 -0.00280276 110.365 -3.65725
12512 2 2.72378 111.936 -3.63478
6141 1 1.81092 110.341 -2.59622
12524 2 5.45344 110.365 -3.65725
6101 1 4.53632 111.913 -2.57337
12421 2 8.18001 111.936 -3.63478
6100 1 7.26716 110.341 -2.59622
12420 2 10.9097 110.365 -3.65725
5967 1 9.99256 111.913 -2.57337
5749 1 15.4488 111.913 -2.57337
5980 1 12.7234 110.341 -2.59622
12223 2 13.6363 111.936 -3.63478
5748 1 18.1796 110.341 -2.59622
12236 2 16.3659 110.365 -3.65725
5431 1 20.905 111.913 -2.57337
11945 2 19.0925 111.936 -3.63478
12541 2 -0.00583272 113.506 -3.61295
12511 2 2.72085 115.076 -3.59183
6136 1 1.80563 113.485 -2.5512
12510 2 5.45041 113.506 -3.61295
6087 1 4.53132 115.056 -2.52977
6103 1 7.26187 113.485 -2.5512
12406 2 8.17709 115.076 -3.59183
12423 2 10.9066 113.506 -3.61295
5966 1 9.98756 115.056 -2.52977
5734 1 15.4438 115.056 -2.52977
5965 1 12.7181 113.485 -2.5512
12222 2 13.6333 115.076 -3.59183
5751 1 18.1743 113.485 -2.5512
12221 2 16.3629 113.506 -3.61295
5430 1 20.9 115.056 -2.52977
11932 2 19.0896 115.076 -3.59183
12500 2 2.71816 118.214 -3.55192
6137 1 1.80093 116.626 -2.50913
12513 2 5.44759 116.646 -3.57147
6086 1 4.52692 118.196 -2.48934
6085 1 7.25717 116.626 -2.50913
12405 2 8.1744 118.214 -3.55192
5947 1 9.98316 118.196 -2.48934
12404 2 10.9038 116.646 -3.57147
5733 1 15.4394 118.196 -2.48934
5968 1 12.7134 116.626 -2.50913
12203 2 13.6306 118.214 -3.55192
5732 1 18.1696 116.626 -2.50913
12224 2 16.3601 116.646 -3.57147
12538 2 21.8163 116.646 -3.57147
5415 1 20.8956 118.196 -2.48934
11931 2 19.0869 118.214 -3.55192
12499 2 2.71574 121.351 -3.51546
6132 1 1.79683 119.765 -2.47045
12498 2 5.44504 119.783 -3.53324
6071 1 4.52313 121.334 -2.45247
6088 1 7.25307 119.765 -2.47045
12383 2 8.17198 121.351 -3.51546
5946 1 9.97937 121.334 -2.45247
12407 2 10.9013 119.783 -3.53324
5710 1 15.4356 121.334 -2.45247
5945 1 12.7093 119.765 -2.47045
12202 2 13.6282 121.351 -3.51546
5735 1 18.1655 119.765 -2.47045
12201 2 16.3575 119.783 -3.53324
12539 2 21.8138 119.783 -3.53324
5414 1 20.8918 121.334 -2.45247
11910 2 19.0845 121.351 -3.51546
6133 1 1.79333 122.903 -2.43544
12501 2 5.44275 122.918 -3.4986
6069 1 7.24957 122.903 -2.43544
12381 2 10.899 122.918 -3.4986
5948 1 12.7058 122.903 -2.43544
5708 1 18.162 122.903 -2.43544
12204 2 16.3552 122.918 -3.4986
12536 2 21.8115 122.918 -3.4986
12488 2 2.7136 124.486 -3.48269
6128 1 1.79038 126.039 -2.40432
6070 1 4.51991 124.471 -2.41938
12486 2 5.44076 126.053 -3.46775
12382 2 8.16984 124.486 -3.48269
6072 1 7.24662 126.039 -2.40432
5920 1 9.97615 124.471 -2.41938
12384 2 10.897 126.053 -3.46775
5709 1 15.4324 124.471 -2.41938
12175 2 13.6261 124.486 -3.48269
5918 1 12.7029 126.039 -2.40432
5711 1 18.1591 126.039 -2.40432
12173 2 16.3532 126.053 -3.46775
5391 1 20.8886 124.471 -2.41938
11909 2 19.0823 124.486 -3.48269
12537 2 21.8095 126.053 -3.46775
12487 2 2.71175 127.619 -3.4538
6129 1 1.78795 129.174 -2.37721
12489 2 5.43906 129.186 -3.44085
6055 1 4.51723 127.607 -2.39026
6053 1 7.24419 129.174 -2.37721
12359 2 8.16799 127.619 -3.4538
5919 1 9.97346 127.607 -2.39026
12357 2 10.8953 129.186 -3.44085
5678 1 15.4297 127.607 -2.39026
5921 1 12.7004 129.174 -2.37721
12174 2 13.6242 127.619 -3.4538
5676 1 18.1567 129.174 -2.37721
12176 2 16.3515 129.186 -3.44085
12534 2 21.8078 129.186 -3.44085
5390 1 20.8859 127.607 -2.39026
11880 2 19.0805 127.619 -3.4538
12476 2 2.7102 130.752 -3.42891
6124 1 1.78599 132.309 -2.35416
12474 2 5.43766 132.319 -3.41799
6054 1 4.51503 130.741 -2.36518
6056 1 7.24223 132.309 -2.35416
12358 2 8.16644 130.752 -3.42891
5892 1 9.97127 130.741 -2.36518
12360 2 10.8939 132.319 -3.41799
5677 1 15.4275 130.741 -2.36518
5890 1 12.6985 132.309 -2.35416
12140 2 13.6227 130.752 -3.42891
5679 1 18.1547 132.309 -2.35416
12138 2 16.3501 132.319 -3.41799
12535 2 21.8064 132.319 -3.41799
5359 1 20.8837 130.741 -2.36518
11879 2 19.0789 130.752 -3.42891
12475 2 2.70896 133.885 -3.40809
6125 1 1.78462 135.442 -2.33533
12477 2 5.43659 135.451 -3.39923
6039 1 4.51334 133.876 -2.34419
6037 1 7.24086 135.442 -2.33533
12335 2 8.1652 133.885 -3.40809
5891 1 9.96957 133.876 -2.34419
12333 2 10.8928 135.451 -3.39923
5639 1 15.4258 133.876 -2.34419
5893 1 12.6971 135.442 -2.33533
12139 2 13.6214 133.885 -3.40809
5637 1 18.1533 135.442 -2.33533
12141 2 16.3491 135.451 -3.39923
12532 2 21.8053 135.451 -3.39923
5358 1 20.8821 133.876 -2.34419
11842 2 19.0777 133.885 -3.40809
12464 2 2.70805 137.017 -3.39139
6120 1 1.78377 138.576 -2.32071
12462 2 5.43583 138.583 -3.38459
6038 1 4.51227 137.009 -2.32751
6040 1 7.24001 138.576 -2.32071
12334 2 8.16429 137.017 -3.39139
5864 1 9.96851 137.009 -2.32751
12336 2 10.8921 138.583 -3.38459
5638 1 15.4247 137.009 -2.32751
5862 1 12.6962 138.576 -2.32071
12104 2 13.6205 137.017 -3.39139
5640 1 18.1525 138.576 -2.32071
12102 2 16.3483 138.583 -3.38459
12533 2 21.8045 138.583 -3.38459
5319 1 20.881 137.009 -2.32751
11841 2 19.0768 137.017 -3.39139
12463 2 2.70744 140.148 -3.37882
6121 1 1.78324 141.709 -2.3102
12465 2 5.43536 141.714 -3.37407
6023 1 4.51159 140.143 -2.31494
6021 1 7.23948 141.709 -2.3102
12311 2 8.16368 140.148 -3.37882
5863 1 9.96783 140.143 -2.31494
12309 2 10.8916 141.714 -3.37407
5599 1 15.4241 140.143 -2.31494
5865 1 12.6957 141.709 -2.3102
12103 2 13.6199 140.148 -3.37882
5597 1 18.152 141.709 -2.3102
12105 2 16.3478 141.714 -3.37407
12530 2 21.8041 141.714 -3.37407
5318 1 20.8803 140.143 -2.31494
11797 2 19.0762 140.148 -3.37882
12452 2 2.7071 143.28 -3.37036
6116 1 1.78299 144.843 -2.3038
12450 2 5.43515 144.846 -3.36768
6022 1 4.5112 143.276 -2.30648
6024 1 7.23923 144.843 -2.3038
12310 2 8.16334 143.28 -3.37036
5836 1 9.96744 143.276 -2.30648
12312 2 10.8914 144.846 -3.36768
5598 1 15.4237 143.276 -2.30648
5834 1 12.6955 144.843 -2.3038
12068 2 13.6196 143.28 -3.37036
5600 1 18.1517 144.843 -2.3038
12066 2 16.3476 144.846 -3.36768
12531 2 21.8039 144.846 -3.36768
5272 1 20.8799 143.276 -2.30648
11796 2 19.0758 143.28 -3.37036
12451 2 2.70702 146.411 -3.36603
6117 1 1.78302 147.976 -2.30154
12453 2 5.4352 147.977 -3.36541
6008 1 4.51109 146.409 -2.30215
6006 1 7.23926 147.976 -2.30154
12288 2 8.16326 146.411 -3.36603
5835 1 9.96733 146.409 -2.30215
12286 2 10.8914 147.977 -3.36541
5560 1 15.4236 146.409 -2.30215
5837 1 12.6955 147.976 -2.30154
12067 2 13.6195 146.411 -3.36603
5558 1 18.1517 147.976 -2.30154
12069 2 16.3477 147.977 -3.36541
12529 2 21.8039 147.977 -3.36541
5271 1 20.8798 146.409 -2.30215
11751 2 19.0757 146.411 -3.36603
12441 2 2.70721 149.543 -3.36583
6007 1 4.51127 149.542 -2.30195
12287 2 8.16345 149.543 -3.36583
5809 1 9.96751 149.542 -2.30195
5559 1 15.4237 149.542 -2.30195
12033 2 13.6197 149.543 -3.36583
5224 1 20.88 149.542 -2.30195
11750 2 19.0759 149.543 -3.36583
12515 2 1.82525 100.86 1.25152
6106 1 2.73359 102.446 -0.053704
6142 1 0.00675302 100.87 -0.0788436
6105 1 5.46299 100.87 -0.0788436
12414 2 4.55226 102.435 1.27684
12424 2 7.28149 100.86 1.25152
5975 1 8.18983 102.446 -0.053704
5981 1 10.9192 100.87 -0.0788436
12227 2 10.0085 102.435 1.27684
5754 1 13.6461 102.446 -0.053704
11939 2 15.4647 102.435 1.27684
12226 2 12.7377 100.86 1.25152
5753 1 16.3755 100.87 -0.0788436
11947 2 18.194 100.86 1.25152
5437 1 19.1023 102.446 -0.053704
11584 2 20.921 102.435 1.27684
12516 2 1.82302 104.01 1.30208
6098 1 2.731 105.596 -0.00373518
6138 1 0.00418019 104.022 -0.0286248
6107 1 5.46042 104.022 -0.0286248
12413 2 4.55 105.585 1.32713
5974 1 8.18724 105.596 -0.00373517
12412 2 7.27926 104.01 1.30208
5973 1 10.9167 104.022 -0.0286248
12215 2 10.0062 105.585 1.32713
5746 1 13.6435 105.596 -0.00373518
11938 2 15.4625 105.585 1.32713
12228 2 12.7355 104.01 1.30208
5755 1 16.3729 104.022 -0.0286248
11937 2 18.1917 104.01 1.30208
5436 1 19.0997 105.596 -0.00373517
11583 2 20.9187 105.585 1.32713
12504 2 1.82074 107.159 1.35184
6097 1 2.72841 108.744 0.045006
6139 1 0.00158425 107.17 0.020845
6096 1 5.45782 107.17 0.020845
12398 2 4.5477 108.732 1.37613
5963 1 8.18465 108.744 0.045006
12415 2 7.27697 107.159 1.35184
5976 1 10.9141 107.17 0.020845
12214 2 10.0039 108.732 1.37613
5745 1 13.6409 108.744 0.045006
11925 2 15.4602 108.732 1.37613
12213 2 12.7332 107.159 1.35184
5744 1 16.3703 107.17 0.020845
11940 2 18.1895 107.159 1.35184
5429 1 19.0971 108.744 0.045006
11582 2 20.9164 108.732 1.37613
12507 2 0.908542 111.908 -1.13029
12505 2 1.81843 110.305 1.39988
6083 1 2.72586 111.889 0.0916837
6134 1 -0.00099393 110.317 0.0686484
12506 2 3.63762 110.336 -1.15317
6099 1 5.45524 110.317 0.0686484
12397 2 4.5454 111.877 1.42302
12419 2 9.09385 110.336 -1.15317
12402 2 6.36478 111.908 -1.13029
5962 1 8.1821 111.889 0.0916837
12396 2 7.27466 110.305 1.39988
12218 2 11.821 111.908 -1.13029
5961 1 10.9115 110.317 0.0686484
12195 2 10.0016 111.877 1.42302
12217 2 14.5501 110.336 -1.15317
5730 1 13.6383 111.889 0.0916837
11924 2 15.4579 111.877 1.42302
12216 2 12.7309 110.305 1.39988
11929 2 17.2773 111.908 -1.13029
5747 1 16.3677 110.317 0.0686484
11923 2 18.1871 110.305 1.39988
11944 2 20.0063 110.336 -1.15317
5428 1 19.0946 111.889 0.0916837
11575 2 20.9141 111.877 1.42302
12496 2 0.906644 115.049 -1.0866
12492 2 1.81614 113.449 1.44545
6082 1 2.7234 115.032 0.135632
6135 1 -0.00350416 113.461 0.114034
12509 2 3.63571 113.479 -1.10807
6081 1 5.45273 113.461 0.114034
12375 2 4.54315 115.02 1.46713
12400 2 9.09195 113.479 -1.10807
12401 2 6.36288 115.049 -1.0866
5943 1 8.17964 115.032 0.135632
12399 2 7.27238 113.449 1.44545
12199 2 11.8191 115.049 -1.0866
5964 1 10.909 113.461 0.114034
12194 2 9.99939 115.02 1.46713
12220 2 14.5482 113.479 -1.10807
5729 1 13.6359 115.032 0.135632
11903 2 15.4556 115.02 1.46713
12193 2 12.7286 113.449 1.44545
11928 2 17.2754 115.049 -1.0866
5728 1 16.3652 113.461 0.114034
11926 2 18.1849 113.449 1.44545
11927 2 20.0044 113.479 -1.10807
5413 1 19.0921 115.032 0.135632
11574 2 20.9119 115.02 1.46713
12495 2 0.904797 118.189 -1.0461
12493 2 1.81394 116.592 1.48799
6067 1 2.72109 118.173 0.176349
12494 2 3.63383 116.62 -1.06593
6084 1 5.45034 116.603 0.15642
12374 2 4.541 118.162 1.50798
12379 2 6.36104 118.189 -1.0461
12403 2 9.09007 116.62 -1.06593
5942 1 8.17733 118.173 0.176349
12373 2 7.27018 116.592 1.48799
12198 2 11.8173 118.189 -1.0461
5941 1 10.9066 116.603 0.15642
12167 2 9.99724 118.162 1.50798
12197 2 14.5463 116.62 -1.06593
5706 1 13.6336 118.173 0.176349
11902 2 15.4535 118.162 1.50798
12196 2 12.7264 116.592 1.48799
11907 2 17.2735 118.189 -1.0461
5731 1 16.3628 116.603 0.15642
11901 2 18.1827 116.592 1.48799
11930 2 20.0025 116.62 -1.06593
6130 1 21.8191 116.603 0.15642
5412 1 19.0898 118.173 0.176349
11559 2 20.9097 118.162 1.50798
12484 2 0.903046 121.328 -1.00915
12480 2 1.81187 119.733 1.52707
6066 1 2.71895 121.313 0.213472
12497 2 3.63203 119.759 -1.02716
6065 1 5.44811 119.743 0.195377
12351 2 4.53901 121.303 1.54522
12377 2 9.08826 119.759 -1.02716
12378 2 6.35928 121.328 -1.00915
5916 1 8.17519 121.313 0.213472
12376 2 7.26811 119.733 1.52707
12171 2 11.8155 121.328 -1.00915
5944 1 10.9044 119.743 0.195377
12166 2 9.99525 121.303 1.54522
12200 2 14.5445 119.759 -1.02716
5705 1 13.6314 121.313 0.213472
11873 2 15.4515 121.303 1.54522
12165 2 12.7243 119.733 1.52707
11906 2 17.2718 121.328 -1.00915
5704 1 16.3606 119.743 0.195377
11904 2 18.1806 119.733 1.52707
11905 2 20.0007 119.759 -1.02716
6131 1 21.8168 119.743 0.195377
5389 1 19.0877 121.313 0.213472
11558 2 20.9077 121.303 1.54522
12481 2 1.80996 122.873 1.5624
12482 2 3.63034 122.897 -0.992084
6068 1 5.44609 122.883 0.230605
12380 2 9.08658 122.897 -0.992084
12349 2 7.2662 122.873 1.5624
5914 1 10.9023 122.883 0.230605
12169 2 14.5428 122.897 -0.992084
12168 2 12.7224 122.873 1.5624
5707 1 16.3586 122.883 0.230605
11871 2 18.1787 122.873 1.5624
11908 2 19.9991 122.897 -0.992084
6126 1 21.8148 122.883 0.230605
12483 2 0.901432 124.465 -0.975995
6051 1 2.71704 124.452 0.246756
12468 2 1.80826 126.013 1.59378
12485 2 3.62881 126.034 -0.960898
12350 2 4.53721 124.443 1.57859
6049 1 5.44429 126.021 0.261907
12355 2 6.35767 124.465 -0.975995
12353 2 9.08504 126.034 -0.960898
5915 1 8.17327 124.452 0.246756
12352 2 7.2645 126.013 1.59378
12170 2 11.8139 124.465 -0.975995
12132 2 9.99344 124.443 1.57859
5917 1 10.9005 126.021 0.261907
12172 2 14.5413 126.034 -0.960898
5674 1 13.6295 124.452 0.246756
11872 2 15.4497 124.443 1.57859
12130 2 12.7207 126.013 1.59378
11877 2 17.2701 124.465 -0.975995
5672 1 16.3568 126.021 0.261907
11874 2 18.177 126.013 1.59378
11875 2 19.9975 126.034 -0.960898
5388 1 19.0858 124.452 0.246756
11535 2 20.9059 124.443 1.57859
6127 1 21.813 126.021 0.261907
12472 2 0.89999 127.602 -0.946806
12469 2 1.80679 129.152 1.62109
6050 1 2.71536 127.59 0.276046
12470 2 3.62746 129.17 -0.933731
6052 1 5.44273 129.159 0.289162
12327 2 4.53562 127.583 1.60795
12354 2 6.35623 127.602 -0.946806
12356 2 9.0837 129.17 -0.933731
5888 1 8.1716 127.59 0.276046
12325 2 7.26303 129.152 1.62109
12136 2 11.8125 127.602 -0.946806
5886 1 10.899 129.159 0.289162
12131 2 9.99185 127.583 1.60795
12134 2 14.5399 129.17 -0.933731
5673 1 13.6278 127.59 0.276046
11835 2 15.4481 127.583 1.60795
12133 2 12.7193 129.152 1.62109
11876 2 17.2687 127.602 -0.946806
5675 1 16.3552 129.159 0.289162
11833 2 18.1755 129.152 1.62109
11878 2 19.9962 129.17 -0.933731
6122 1 21.8114 129.159 0.289162
5357 1 19.0841 127.59 0.276046
11534 2 20.9043 127.583 1.60795
12471 2 0.898749 130.738 -0.92168
12456 2 1.80556 132.291 1.64427
6035 1 2.71393 130.728 0.301249
12473 2 3.62633 132.305 -0.910661
6033 1 5.44144 132.296 0.312297
12326 2 4.53426 130.722 1.6332
12329 2 9.08257 132.305 -0.910661
12331 2 6.35499 130.738 -0.92168
5887 1 8.17017 130.728 0.301249
12328 2 7.2618 132.291 1.64427
12135 2 11.8112 130.738 -0.92168
5889 1 10.8977 132.296 0.312297
12096 2 9.9905 130.722 1.6332
12137 2 14.5388 132.305 -0.910661
5635 1 13.6264 130.728 0.301249
11834 2 15.4467 130.722 1.6332
12094 2 12.718 132.291 1.64427
11839 2 17.2675 130.738 -0.92168
5633 1 16.3539 132.296 0.312297
11836 2 18.1743 132.291 1.64427
11837 2 19.995 132.305 -0.910661
6123 1 21.8102 132.296 0.312297
5356 1 19.0826 130.728 0.301249
11503 2 20.903 130.722 1.6332
12460 2 0.897726 133.873 -0.900688
6034 1 2.71278 133.865 0.322293
12458 2 3.62541 135.441 -0.891766
6036 1 5.44043 135.433 0.33123
12303 2 4.53316 133.86 1.65428
12330 2 6.35396 133.873 -0.900688
12332 2 9.08165 135.441 -0.891766
5860 1 8.16902 133.865 0.322293
12100 2 11.8102 133.873 -0.900688
5858 1 10.8967 135.433 0.33123
12095 2 9.9894 133.86 1.65428
12098 2 14.5379 135.441 -0.891766
5634 1 13.6253 133.865 0.322293
11790 2 15.4456 133.86 1.65428
11838 2 17.2664 133.873 -0.900688
5636 1 16.3529 135.433 0.33123
11840 2 19.9941 135.441 -0.891766
6118 1 21.8091 135.433 0.33123
5317 1 19.0815 133.865 0.322293
11502 2 20.9019 133.86 1.65428
12459 2 0.896917 137.008 -0.883892
6019 1 2.7119 137.002 0.339114
12461 2 3.62472 138.575 -0.877054
6017 1 5.43968 138.57 0.345957
12305 2 9.08096 138.575 -0.877054
12307 2 6.35316 137.008 -0.883892
5859 1 8.16814 137.002 0.339114
12099 2 11.8094 137.008 -0.883892
5861 1 10.8959 138.57 0.345957
12101 2 14.5372 138.575 -0.877054
5595 1 13.6244 137.002 0.339114
11794 2 17.2656 137.008 -0.883892
5593 1 16.3522 138.57 0.345957
11792 2 19.9934 138.575 -0.877054
6119 1 21.8084 138.57 0.345957
5316 1 19.0806 137.002 0.339114
12448 2 0.896351 140.143 -0.871252
6018 1 2.71129 140.138 0.351764
12446 2 3.62428 141.71 -0.866486
6020 1 5.43921 141.706 0.356534
12306 2 6.35259 140.143 -0.871252
12308 2 9.08052 141.71 -0.866486
5832 1 8.16753 140.138 0.351764
12064 2 11.8088 140.143 -0.871252
5830 1 10.8954 141.706 0.356534
12062 2 14.5368 141.71 -0.866486
5594 1 13.6238 140.138 0.351764
11793 2 17.2651 140.143 -0.871252
5596 1 16.3517 141.706 0.356534
11795 2 19.993 141.71 -0.866486
6114 1 21.8079 141.706 0.356534
5270 1 19.08 140.138 0.351764
12447 2 0.89604 143.277 -0.862755
6004 1 2.71096 143.275 0.360268
12449 2 3.6241 144.845 -0.860059
6002 1 5.43901 144.843 0.362966
12282 2 9.08034 144.845 -0.860059
12284 2 6.35228 143.277 -0.862755
5831 1 8.16719 143.275 0.360268
12063 2 11.8085 143.277 -0.862755
5833 1 10.8952 144.843 0.362966
12065 2 14.5366 144.845 -0.860059
5556 1 13.6234 143.275 0.360268
11748 2 17.2648 143.277 -0.862755
5554 1 16.3515 144.843 0.362966
11746 2 19.9928 144.845 -0.860059
6115 1 21.8077 144.843 0.362966
5269 1 19.0797 143.275 0.360268
12440 2 0.895985 146.412 -0.8584
6003 1 2.71088 146.411 0.364627
12438 2 3.62417 147.979 -0.857778
6005 1 5.43907 147.979 0.36525
12283 2 6.35222 146.412 -0.8584
12285 2 9.08041 147.979 -0.857778
5808 1 8.16712 146.411 0.364627
12032 2 11.8085 146.412 -0.8584
5806 1 10.8953 147.979 0.36525
12030 2 14.5367 147.979 -0.857778
5555 1 13.6234 146.411 0.364627
11747 2 17.2647 146.412 -0.8584
5557 1 16.3515 147.979 0.36525
11749 2 19.9929 147.979 -0.857778
6113 1 21.8078 147.979 0.36525
5223 1 19.0796 146.411 0.364627
12439 2 0.896188 149.547 -0.858193
5993 1 2.71108 149.547 0.364836
12265 2 6.35243 149.547 -0.858193
5807 1 8.16732 149.547 0.364836
12031 2 11.8087 149.547 -0.858193
5521 1 13.6236 149.547 0.364836
11705 2 17.2649 149.547 -0.858193
5222 1 19.0798 149.547 0.364836
12514 2 0.00717727 100.831 3.8164
6094 1 0.915264 102.418 2.54108
12410 2 2.73398 102.406 3.84208
6104 1 3.64466 100.842 2.51549
12409 2 5.46342 100.831 3.8164
5970 1 9.1009 100.842 2.51549
5971 1 6.3715 102.418 2.54108
12211 2 8.19022 102.406 3.84208
5742 1 11.8277 102.418 2.54108
12225 2 10.9197 100.831 3.8164
5752 1 14.5571 100.842 2.51549
11935 2 13.6465 102.406 3.84208
5434 1 17.284 102.418 2.54108
11934 2 16.3759 100.831 3.8164
5433 1 20.0134 100.842 2.51549
11581 2 19.1027 102.406 3.84208
12502 2 0.00452381 103.981 3.86765
6093 1 0.912645 105.567 2.59188
12394 2 2.73129 105.555 3.89299
6092 1 3.64208 103.993 2.56659
12411 2 5.46076 103.981 3.86765
5959 1 6.36888 105.567 2.59188
5972 1 9.09832 103.993 2.56659
12210 2 8.18753 105.555 3.89299
5741 1 11.8251 105.567 2.59188
12209 2 10.917 103.981 3.86765
5740 1 14.5546 103.993 2.56659
11921 2 13.6438 105.555 3.89299
5426 1 17.2814 105.567 2.59188
11936 2 16.3732 103.981 3.86765
5435 1 20.0108 103.993 2.56659
11580 2 19.1 105.555 3.89299
12503 2 0.001811 107.129 3.91797
6079 1 0.910003 108.715 2.64132
12393 2 2.72857 108.703 3.94248
6095 1 3.63944 107.141 2.61683
12392 2 5.45805 107.129 3.91797
5957 1 9.09568 107.141 2.61683
5958 1 6.36624 108.715 2.64132
12191 2 8.18481 108.703 3.94248
5726 1 11.8225 108.715 2.64132
12212 2 10.9143 107.129 3.91797
5743 1 14.5519 107.141 2.61683
11920 2 13.641 108.703 3.94248
5425 1 17.2787 108.715 2.64132
11919 2 16.3705 107.129 3.91797
5424 1 20.0082 107.141 2.61683
11573 2 19.0973 108.703 3.94248
12490 2 -0.000892852 110.276 3.96644
6078 1 0.907393 111.86 2.68858
12371 2 2.7259 111.848 3.98975
6077 1 3.63681 110.288 2.66527
12395 2 5.45535 110.276 3.96644
5939 1 6.36363 111.86 2.68858
5960 1 9.09305 110.288 2.66527
12190 2 8.18214 111.848 3.98975
5725 1 11.8199 111.86 2.68858
12189 2 10.9116 110.276 3.96644
5724 1 14.5493 110.288 2.66527
11899 2 13.6384 111.848 3.98975
5410 1 17.2761 111.86 2.68858
11922 2 16.3678 110.276 3.96644
5427 1 20.0055 110.288 2.66527
11572 2 19.0946 111.848 3.98975
12491 2 -0.00352109 113.421 4.01234
6063 1 0.904879 115.005 2.733
12370 2 2.72333 114.993 4.03415
6080 1 3.63424 113.433 2.71118
12369 2 5.45272 113.421 4.01234
5937 1 9.09048 113.433 2.71118
5938 1 6.36112 115.005 2.733
12163 2 8.17957 114.993 4.03415
5702 1 11.8174 115.005 2.733
12192 2 10.909 113.421 4.01234
5727 1 14.5467 113.433 2.71118
11898 2 13.6358 114.993 4.03415
5409 1 17.2736 115.005 2.733
11897 2 16.3652 113.421 4.01234
5408 1 20.003 113.433 2.71118
11557 2 19.092 114.993 4.03415
6062 1 0.902513 118.148 2.77408
12347 2 2.72093 118.137 4.07521
6061 1 3.63179 116.576 2.75398
12372 2 5.45022 116.565 4.05512
5912 1 6.35875 118.148 2.77408
5940 1 9.08803 116.576 2.75398
12162 2 8.17716 118.137 4.07521
5701 1 11.815 118.148 2.77408
12161 2 10.9065 116.565 4.05512
5700 1 14.5443 116.576 2.75398
11869 2 13.6334 118.137 4.07521
5386 1 17.2712 118.148 2.77408
11900 2 16.3627 116.565 4.05512
12478 2 21.8189 116.565 4.05512
5411 1 20.0005 116.576 2.75398
11556 2 19.0896 118.137 4.07521
6047 1 0.900339 121.29 2.81149
12346 2 2.71873 121.28 4.11259
6064 1 3.62952 119.719 2.79326
12345 2 5.44792 119.709 4.09437
5910 1 9.08576 119.719 2.79326
5911 1 6.35658 121.29 2.81149
12128 2 8.17496 121.28 4.11259
5670 1 11.8128 121.29 2.81149
12164 2 10.9042 119.709 4.09437
5703 1 14.542 119.719 2.79326
11868 2 13.6312 121.28 4.11259
5385 1 17.2691 121.29 2.81149
11867 2 16.3604 119.709 4.09437
12479 2 21.8166 119.709 4.09437
5384 1 19.9982 119.719 2.79326
11533 2 19.0874 121.28 4.11259
12323 2 2.71676 124.423 4.14607
6045 1 3.62745 122.861 2.82874
12348 2 5.44583 122.852 4.12983
5913 1 9.08369 122.861 2.82874
12127 2 8.173 124.423 4.14607
12126 2 10.9021 122.852 4.12983
5668 1 14.5399 122.861 2.82874
11831 2 13.6292 124.423 4.14607
11870 2 16.3583 122.852 4.12983
12466 2 21.8145 122.852 4.12983
5387 1 19.9962 122.861 2.82874
11532 2 19.0855 124.423 4.14607
6046 1 0.89839 124.432 2.84499
6048 1 3.62563 126.002 2.86023
12321 2 5.44399 125.994 4.1613
5884 1 6.35463 124.432 2.84499
5882 1 9.08187 126.002 2.86023
5669 1 11.8109 124.432 2.84499
12129 2 10.9002 125.994 4.1613
5671 1 14.5381 126.002 2.86023
5354 1 17.2671 124.432 2.84499
11829 2 16.3565 125.994 4.1613
12467 2 21.8127 125.994 4.1613
5352 1 19.9943 126.002 2.86023
6031 1 0.89669 127.573 2.87445
12322 2 2.71505 127.565 4.1755
6029 1 3.62406 129.143 2.88763
12324 2 5.44242 129.136 4.18867
5883 1 6.35293 127.573 2.87445
5885 1 9.0803 129.143 2.88763
12092 2 8.17129 127.565 4.1755
5631 1 11.8092 127.573 2.87445
12090 2 10.8987 129.136 4.18867
5629 1 14.5365 129.143 2.88763
11830 2 13.6275 127.565 4.1755
5353 1 17.2654 127.573 2.87445
11832 2 16.3549 129.136 4.18867
12454 2 21.8111 129.136 4.18867
5355 1 19.9928 129.143 2.88763
11501 2 19.0838 127.565 4.1755
6030 1 0.895253 130.713 2.89977
12299 2 2.71362 130.707 4.2008
6032 1 3.62275 132.283 2.91086
12297 2 5.44112 132.278 4.21189
5854 1 9.07899 132.283 2.91086
5856 1 6.35149 130.713 2.89977
12091 2 8.16985 130.707 4.2008
5630 1 11.8077 130.713 2.89977
12093 2 10.8974 132.278 4.21189
5632 1 14.5352 132.283 2.91086
11786 2 13.6261 130.707 4.2008
5314 1 17.264 130.713 2.89977
11784 2 16.3536 132.278 4.21189
12455 2 21.8098 132.278 4.21189
5312 1 19.9915 132.283 2.91086
11500 2 19.0823 130.707 4.2008
12457 2 1.80458 135.429 1.66325
6015 1 0.894085 133.853 2.9209
12298 2 2.71245 133.848 4.22193
6013 1 3.62172 135.423 2.92988
12300 2 5.44009 135.419 4.23091
12301 2 7.26082 135.429 1.66325
5855 1 6.35032 133.853 2.9209
5857 1 9.07796 135.423 2.92988
12056 2 8.16869 133.848 4.22193
5591 1 11.8066 133.853 2.9209
12054 2 10.8963 135.419 4.23091
12097 2 12.7171 135.429 1.66325
5589 1 14.5342 135.423 2.92988
11785 2 13.6249 133.848 4.22193
11788 2 18.1733 135.429 1.66325
5313 1 17.2628 133.853 2.9209
11787 2 16.3526 135.419 4.23091
12442 2 21.8088 135.419 4.23091
5315 1 19.9904 135.423 2.92988
11461 2 19.0812 133.848 4.22193
12444 2 1.80385 138.568 1.67804
6014 1 0.893188 136.993 2.93781
12276 2 2.71156 136.99 4.23885
12302 2 4.5323 136.998 1.67117
6016 1 3.62096 138.563 2.94469
12274 2 5.43933 138.561 4.24573
12304 2 7.26009 138.568 1.67804
5826 1 9.0772 138.563 2.94469
5828 1 6.34943 136.993 2.93781
12055 2 8.16779 136.99 4.23885
12060 2 9.98854 136.998 1.67117
5590 1 11.8057 136.993 2.93781
12057 2 10.8956 138.561 4.24573
11789 2 15.4448 136.998 1.67117
12058 2 12.7163 138.568 1.67804
5592 1 14.5334 138.563 2.94469
11740 2 13.624 136.99 4.23885
11791 2 18.1726 138.568 1.67804
5267 1 17.2619 136.993 2.93781
11738 2 16.3518 138.561 4.24573
11463 2 20.901 136.998 1.67117
12443 2 21.808 138.561 4.24573
5265 1 19.9897 138.563 2.94469
11460 2 19.0803 136.99 4.23885
12445 2 1.80339 141.706 1.68865
6000 1 0.892564 140.133 2.95053
12275 2 2.71093 140.131 4.25157
12280 2 4.53171 140.137 1.68386
5998 1 3.62047 141.703 2.95532
12277 2 5.43884 141.702 4.25637
12278 2 7.25963 141.706 1.68865
5827 1 6.3488 140.133 2.95053
5829 1 9.07671 141.703 2.95532
12024 2 8.16717 140.131 4.25157
12059 2 9.98794 140.137 1.68386
5552 1 11.805 140.133 2.95053
12022 2 10.8951 141.702 4.25637
11744 2 15.4442 140.137 1.68386
12061 2 12.7159 141.706 1.68865
5550 1 14.533 141.703 2.95532
11739 2 13.6234 140.131 4.25157
11742 2 18.1721 141.706 1.68865
5266 1 17.2613 140.133 2.95053
11741 2 16.3513 141.702 4.25637
11462 2 20.9004 140.137 1.68386
12434 2 21.8076 141.702 4.25637
5268 1 19.9892 141.703 2.95532
11414 2 19.0796 140.131 4.25157
12436 2 1.80319 144.843 1.6951
5999 1 0.892215 143.272 2.95907
12260 2 2.71059 143.272 4.26013
12279 2 4.53137 143.274 1.6924
6001 1 3.62026 144.842 2.96178
12258 2 5.43863 144.843 4.26284
12281 2 7.25943 144.843 1.6951
5802 1 9.0765 144.842 2.96178
5804 1 6.34845 143.272 2.95907
12023 2 8.16682 143.272 4.26013
12028 2 9.98761 143.274 1.6924
5551 1 11.8047 143.272 2.95907
12025 2 10.8949 144.843 4.26284
11743 2 15.4439 143.274 1.6924
12026 2 12.7157 144.843 1.6951
5553 1 14.5327 144.842 2.96178
11700 2 13.6231 143.272 4.26013
11745 2 18.1719 144.843 1.6951
5220 1 17.2609 143.272 2.95907
11698 2 16.3511 144.843 4.26284
11416 2 20.9001 143.274 1.6924
12435 2 21.8073 144.843 4.26284
5218 1 19.989 144.842 2.96178
11413 2 19.0793 143.272 4.26013
12437 2 1.80326 147.981 1.6974
5992 1 0.892138 146.412 2.96345
12259 2 2.71051 146.414 4.26451
12264 2 4.53131 146.412 1.69677
5990 1 3.62032 147.982 2.96408
12261 2 5.43869 147.984 4.26514
12262 2 7.25949 147.981 1.6974
5803 1 6.34838 146.412 2.96345
5805 1 9.07656 147.982 2.96408
12000 2 8.16675 146.414 4.26451
12027 2 9.98755 146.412 1.69677
5520 1 11.8046 146.412 2.96345
11998 2 10.8949 147.984 4.26514
11704 2 15.4438 146.412 1.69677
12029 2 12.7157 147.981 1.6974
5518 1 14.5328 147.982 2.96408
11699 2 13.623 146.414 4.26451
11702 2 18.172 147.981 1.6974
5219 1 17.2609 146.412 2.96345
11701 2 16.3512 147.984 4.26514
11415 2 20.9 146.412 1.69677
12433 2 21.8074 147.984 4.26514
5221 1 19.989 147.982 2.96408
11367 2 19.0792 146.414 4.26451
5991 1 0.892331 149.551 2.96367
12249 2 2.7107 149.555 4.26473
12263 2 4.53151 149.55 1.69698
5785 1 6.34857 149.551 2.96367
11999 2 8.16694 149.555 4.26473
12001 2 9.98775 149.55 1.69698
5519 1 11.8048 149.551 2.96367
11703 2 15.444 149.55 1.69698
11665 2 13.6232 149.555 4.26473
5177 1 17.261 149.551 2.96367
11368 2 20.9002 149.55 1.69698
11366 2 19.0794 149.555 4.26473
6090 1 1.82642 100.816 5.09498
12390 2 0.915421 102.38 6.41268
5955 1 4.55308 102.392 5.121
12408 2 3.64507 100.805 6.38665
5969 1 7.28266 100.816 5.09498
12206 2 9.10131 100.805 6.38665
12207 2 6.37166 102.38 6.41268
5738 1 10.0093 102.392 5.121
11917 2 11.8279 102.38 6.41268
5422 1 15.4656 102.392 5.121
5737 1 12.7389 100.816 5.09498
11933 2 14.5575 100.805 6.38665
5432 1 18.1951 100.816 5.09498
11578 2 17.2841 102.38 6.41268
5056 1 20.9218 102.392 5.121
11577 2 20.0138 100.805 6.38665
6091 1 1.82348 103.966 5.14689
12389 2 0.912321 105.528 6.46416
5954 1 4.55012 105.54 5.17252
12388 2 3.64199 103.954 6.43857
5953 1 7.27972 103.966 5.14689
12187 2 6.36856 105.528 6.46416
12208 2 9.09823 103.954 6.43857
5722 1 10.0064 105.54 5.17252
11916 2 11.8248 105.528 6.46416
5421 1 15.4626 105.54 5.17252
5739 1 12.736 103.966 5.14689
11915 2 14.5545 103.954 6.43857
5420 1 18.1922 103.966 5.14689
11570 2 17.281 105.528 6.46416
5055 1 20.9188 105.54 5.17252
11579 2 20.0107 103.954 6.43857
6075 1 1.82051 107.114 5.19776
12367 2 0.90924 108.675 6.51404
5935 1 4.54715 108.688 5.22251
12391 2 3.63889 107.102 6.48935
5956 1 7.27675 107.114 5.19776
12185 2 9.09513 107.102 6.48935
12186 2 6.36548 108.675 6.51404
5721 1 10.0034 108.688 5.22251
11895 2 11.8217 108.675 6.51404
5406 1 15.4596 108.688 5.22251
5720 1 12.733 107.114 5.19776
11918 2 14.5514 107.102 6.48935
5423 1 18.1892 107.114 5.19776
11569 2 17.278 108.675 6.51404
5054 1 20.9159 108.688 5.22251
11568 2 20.0076 107.102 6.48935
6076 1 1.81757 110.261 5.24667
12366 2 0.906257 111.822 6.56154
5934 1 4.54425 111.834 5.27017
12365 2 3.63585 110.249 6.53813
5933 1 7.27381 110.261 5.24667
12159 2 6.3625 111.822 6.56154
12188 2 9.09209 110.249 6.53813
5698 1 10.0005 111.834 5.27017
11894 2 11.8187 111.822 6.56154
5405 1 15.4567 111.834 5.27017
5723 1 12.73 110.261 5.24667
11893 2 14.5483 110.249 6.53813
5404 1 18.1863 110.261 5.24667
11554 2 17.275 111.822 6.56154
5047 1 20.913 111.834 5.27017
11571 2 20.0046 110.249 6.53813
6059 1 1.81473 113.407 5.29291
12343 2 0.903441 114.968 6.60607
5908 1 4.5415 114.98 5.31485
12368 2 3.63294 113.395 6.58421
5936 1 7.27097 113.407 5.29291
12157 2 9.08918 113.395 6.58421
12158 2 6.35968 114.968 6.60607
5697 1 9.99773 114.98 5.31485
11865 2 11.8159 114.968 6.60607
5382 1 15.454 114.98 5.31485
5696 1 12.7272 113.407 5.29291
11896 2 14.5454 113.395 6.58421
5407 1 18.1834 113.407 5.29291
11553 2 17.2722 114.968 6.60607
5046 1 20.9102 114.98 5.31485
11552 2 20.0017 113.395 6.58421
6060 1 1.81207 116.552 5.33594
12342 2 0.900845 118.114 6.64717
5907 1 4.53894 118.125 5.35612
12341 2 3.63023 116.541 6.62707
5906 1 7.26831 116.552 5.33594
12124 2 6.35708 118.114 6.64717
12160 2 9.08647 116.541 6.62707
5666 1 9.99517 118.125 5.35612
11864 2 11.8133 118.114 6.64717
5381 1 15.4514 118.125 5.35612
5699 1 12.7245 116.552 5.33594
11863 2 14.5427 116.541 6.62707
5380 1 18.1808 116.552 5.33594
11530 2 17.2696 118.114 6.64717
5031 1 20.9077 118.125 5.35612
11555 2 19.9989 116.541 6.62707
6043 1 1.80962 119.697 5.37537
12319 2 0.898506 121.259 6.68455
5880 1 4.53661 121.269 5.39365
12344 2 3.62776 119.686 6.66634
5909 1 7.26586 119.697 5.37537
12122 2 9.084 119.686 6.66634
12123 2 6.35474 121.259 6.68455
5665 1 9.99285 121.269 5.39365
11827 2 11.811 121.259 6.68455
5350 1 15.4491 121.269 5.39365
5664 1 12.7221 119.697 5.37537
11866 2 14.5402 119.686 6.66634
5383 1 18.1783 119.697 5.37537
11529 2 17.2672 121.259 6.68455
5030 1 20.9053 121.269 5.39365
11528 2 19.9965 119.686 6.66634
6044 1 1.80743 122.841 5.41095
12318 2 0.896446 124.404 6.71801
5879 1 4.53456 124.413 5.42724
12317 2 3.62556 122.831 6.70178
5878 1 7.26367 122.841 5.41095
12088 2 6.35268 124.404 6.71801
12125 2 9.0818 122.831 6.70178
5627 1 9.9908 124.413 5.42724
11826 2 11.8089 124.404 6.71801
5349 1 15.447 124.413 5.42724
5667 1 12.7199 122.841 5.41095
11825 2 14.538 122.831 6.70178
5348 1 18.1761 122.841 5.41095
11498 2 17.2652 124.404 6.71801
5007 1 20.9033 124.413 5.42724
11531 2 19.9943 122.831 6.70178
6027 1 1.80552 125.985 5.4425
12320 2 3.62364 125.976 6.73322
5881 1 7.26175 125.985 5.4425
12086 2 9.07988 125.976 6.73322
5625 1 12.718 125.985 5.4425
11828 2 14.5361 125.976 6.73322
5351 1 18.1742 125.985 5.4425
11496 2 19.9924 125.976 6.73322
6028 1 1.80388 129.128 5.46994
12295 2 0.894676 127.549 6.74741
5852 1 4.53278 127.556 5.45674
12293 2 3.62202 129.121 6.76056
5850 1 7.26012 129.128 5.46994
12087 2 6.35091 127.549 6.74741
12089 2 9.07826 129.121 6.76056
5626 1 9.98902 127.556 5.45674
11782 2 11.8072 127.549 6.74741
5310 1 15.4453 127.556 5.45674
5628 1 12.7164 129.128 5.46994
11780 2 14.5345 129.121 6.76056
5308 1 18.1726 129.128 5.46994
11497 2 17.2634 127.549 6.74741
5006 1 20.9015 127.556 5.45674
11499 2 19.9907 129.121 6.76056
6011 1 1.80254 132.271 5.49319
12294 2 0.893198 130.693 6.77267
5851 1 4.5313 130.7 5.48209
12296 2 3.62069 132.266 6.78374
5853 1 7.25878 132.271 5.49319
12050 2 9.07693 132.266 6.78374
12052 2 6.34944 130.693 6.77267
5587 1 9.98753 130.7 5.48209
11781 2 11.8057 130.693 6.77267
5309 1 15.4438 130.7 5.48209
5585 1 12.715 132.271 5.49319
11783 2 14.5332 132.266 6.78374
5311 1 18.1713 132.271 5.49319
11458 2 17.2619 130.693 6.77267
4975 1 20.9 130.7 5.48209
11456 2 19.9894 132.266 6.78374
6012 1 1.80148 135.414 5.51223
12272 2 0.892009 133.838 6.79376
5824 1 4.53009 133.843 5.50324
12270 2 3.61964 135.41 6.80274
5822 1 7.25772 135.414 5.51223
12051 2 6.34825 133.838 6.79376
12053 2 9.07588 135.41 6.80274
5586 1 9.98633 133.843 5.50324
11736 2 11.8045 133.838 6.79376
5263 1 15.4426 133.843 5.50324
5588 1 12.714 135.414 5.51223
11734 2 14.5321 135.41 6.80274
5261 1 18.1702 135.414 5.51223
11457 2 17.2607 133.838 6.79376
4974 1 20.8988 133.843 5.50324
11459 2 19.9884 135.41 6.80274
5996 1 1.8007 138.557 5.52707
12271 2 0.891102 136.982 6.81067
5823 1 4.52918 136.986 5.52018
12273 2 3.61887 138.555 6.81755
5825 1 7.25694 138.557 5.52707
12018 2 9.07511 138.555 6.81755
12020 2 6.34734 136.982 6.81067
5548 1 9.98541 136.986 5.52018
11735 2 11.8036 136.982 6.81067
5262 1 15.4417 136.986 5.52018
5546 1 12.7132 138.557 5.52707
11737 2 14.5313 138.555 6.81755
5264 1 18.1694 138.557 5.52707
11411 2 17.2598 136.982 6.81067
4935 1 20.8979 136.986 5.52018
11409 2 19.9876 138.555 6.81755
5997 1 1.8002 141.7 5.53772
12256 2 0.890475 140.127 6.82339
5800 1 4.52854 140.129 5.53292
12254 2 3.61838 141.699 6.82819
5798 1 7.25644 141.7 5.53772
12019 2 6.34671 140.127 6.82339
12021 2 9.07462 141.699 6.82819
5547 1 9.98478 140.129 5.53292
11696 2 11.803 140.127 6.82339
5216 1 15.441 140.129 5.53292
5549 1 12.7127 141.7 5.53772
11694 2 14.5309 141.699 6.82819
5214 1 18.1689 141.7 5.53772
11410 2 17.2592 140.127 6.82339
4934 1 20.8973 140.129 5.53292
11412 2 19.9871 141.699 6.82819
5988 1 1.79998 144.843 5.54419
12255 2 0.890122 143.271 6.83194
5799 1 4.52818 143.272 5.54148
12257 2 3.61817 144.843 6.83465
5801 1 7.25622 144.843 5.54419
11994 2 9.0744 144.843 6.83465
11996 2 6.34636 143.271 6.83194
5516 1 9.98442 143.272 5.54148
11695 2 11.8026 143.271 6.83194
5215 1 15.4407 143.272 5.54148
5514 1 12.7125 144.843 5.54419
11697 2 14.5306 144.843 6.83465
5217 1 18.1687 144.843 5.54419
11364 2 17.2588 143.271 6.83194
4889 1 20.8969 143.272 5.54148
11362 2 19.9869 144.843 6.83465
5989 1 1.80004 147.986 5.5465
12248 2 0.89004 146.416 6.83633
5784 1 4.5281 146.414 5.54587
12246 2 3.61822 147.988 6.83696
5782 1 7.25628 147.986 5.5465
11995 2 6.34628 146.416 6.83633
11997 2 9.07446 147.988 6.83696
5515 1 9.98433 146.414 5.54587
11664 2 11.8025 146.416 6.83633
5176 1 15.4406 146.414 5.54587
5517 1 12.7125 147.986 5.5465
11662 2 14.5307 147.988 6.83696
5174 1 18.1688 147.986 5.5465
11363 2 17.2588 146.416 6.83633
4888 1 20.8968 146.414 5.54587
11365 2 19.9869 147.988 6.83696
12247 2 0.890227 149.56 6.83655
5783 1 4.52828 149.557 5.54609
11977 2 6.34647 149.56 6.83655
5489 1 9.98452 149.557 5.54609
11663 2 11.8027 149.56 6.83655
5175 1 15.4408 149.557 5.54609
11321 2 17.2589 149.56 6.83655
4843 1 20.897 149.557 5.54609
5951 1 2.73431 102.366 7.6969
6089 1 0.00784836 100.792 7.6705
12386 2 1.82629 100.78 8.95942
5950 1 5.46409 100.792 7.6705
5949 1 3.64505 100.768 10.2455
12183 2 4.55268 102.354 8.98578
5718 1 8.19055 102.366 7.6969
5713 1 9.10128 100.768 10.2455
12205 2 7.28253 100.78 8.95942
5736 1 10.9203 100.792 7.6705
11913 2 10.0089 102.354 8.98578
5418 1 13.6468 102.366 7.6969
5416 1 14.5575 100.768 10.2455
11566 2 15.4652 102.354 8.98578
11912 2 12.7388 100.78 8.95942
5417 1 16.3766 100.792 7.6705
11576 2 18.195 100.78 8.95942
5053 1 19.103 102.366 7.6969
5049 1 20.0138 100.768 10.2455
11200 2 20.9214 102.354 8.98578
5931 1 2.73098 105.515 7.74899
6073 1 0.00453009 103.941 7.72311
12387 2 1.82283 103.928 9.01192
5952 1 5.46077 103.941 7.72311
12182 2 4.54922 105.502 9.03772
5717 1 8.18722 105.515 7.74899
12181 2 7.27907 103.928 9.01192
5716 1 10.917 103.941 7.72311
11891 2 10.0055 105.502 9.03772
5402 1 13.6435 105.515 7.74899
11565 2 15.4617 105.502 9.03772
11914 2 12.7353 103.928 9.01192
5419 1 16.3732 103.941 7.72311
11564 2 18.1915 103.928 9.01192
5052 1 19.0997 105.515 7.74899
11199 2 20.9179 105.502 9.03772
5930 1 2.72769 108.662 7.79933
6074 1 0.00120367 107.088 7.77443
12363 2 1.81939 107.076 9.06305
5929 1 5.45744 107.088 7.77443
12155 2 4.54583 108.649 9.08783
5694 1 8.18393 108.662 7.79933
12184 2 7.27563 107.076 9.06305
5719 1 10.9137 107.088 7.77443
11890 2 10.0021 108.649 9.08783
5401 1 13.6402 108.662 7.79933
11550 2 15.4583 108.649 9.08783
11889 2 12.7319 107.076 9.06305
5400 1 16.3699 107.088 7.77443
11567 2 18.1881 107.076 9.06305
5045 1 19.0964 108.662 7.79933
11198 2 20.9145 108.649 9.08783
5904 1 2.72452 111.809 7.84715
6057 1 -0.00203464 110.235 7.8236
12364 2 1.81607 110.223 9.11196
5932 1 5.4542 110.235 7.8236
12154 2 4.54261 111.796 9.13539
5693 1 8.18076 111.809 7.84715
12153 2 7.27231 110.223 9.11196
5692 1 10.9104 110.235 7.8236
11861 2 9.99885 111.796 9.13539
5378 1 13.637 111.809 7.84715
11549 2 15.4551 111.796 9.13539
11892 2 12.7286 110.223 9.11196
5403 1 16.3667 110.235 7.8236
11548 2 18.1848 110.223 9.11196
5044 1 19.0932 111.809 7.84715
11191 2 20.9113 111.796 9.13539
5903 1 2.72156 114.955 7.8919
6058 1 -0.00510411 113.382 7.86994
12339 2 1.81297 113.37 9.15803
5902 1 5.45113 113.382 7.86994
12120 2 4.53963 114.943 9.17984
5662 1 8.1778 114.955 7.8919
12156 2 7.2692 113.37 9.15803
5695 1 10.9074 113.382 7.86994
11860 2 9.99586 114.943 9.17984
5377 1 13.634 114.955 7.8919
11526 2 15.4521 114.943 9.17984
11859 2 12.7254 113.37 9.15803
5376 1 16.3636 113.382 7.86994
11551 2 18.1817 113.37 9.15803
5029 1 19.0903 114.955 7.8919
11190 2 20.9083 114.943 9.17984
5876 1 2.71886 118.102 7.93314
12340 2 1.81012 116.517 9.20078
5905 1 5.4483 116.529 7.91297
12119 2 4.53692 118.091 9.22081
5661 1 8.1751 118.102 7.93314
12118 2 7.26636 116.517 9.20078
5660 1 10.9045 116.529 7.91297
11823 2 9.99316 118.091 9.22081
5346 1 13.6313 118.102 7.93314
11525 2 15.4494 118.091 9.22081
11862 2 12.7226 116.517 9.20078
5379 1 16.3608 116.529 7.91297
11524 2 18.1788 116.517 9.20078
6041 1 21.817 116.529 7.91297
5028 1 19.0876 118.102 7.93314
11175 2 20.9056 118.091 9.22081
5875 1 2.71644 121.248 7.9706
12315 2 1.80757 119.664 9.2399
5874 1 5.44573 119.675 7.95235
12084 2 4.53453 121.238 9.25803
5623 1 8.17268 121.248 7.9706
12121 2 7.2638 119.664 9.2399
5663 1 10.902 119.675 7.95235
11822 2 9.99076 121.238 9.25803
5345 1 13.6289 121.248 7.9706
11494 2 15.447 121.238 9.25803
11821 2 12.72 119.664 9.2399
5344 1 16.3582 119.675 7.95235
11527 2 18.1763 119.664 9.2399
6042 1 21.8144 119.675 7.95235
5005 1 19.0852 121.248 7.9706
11174 2 20.9032 121.238 9.25803
5848 1 2.71433 124.394 8.00409
12316 2 1.80533 122.811 9.27517
5877 1 5.44346 122.821 7.98785
12083 2 4.53244 124.385 9.29131
5622 1 8.17056 124.394 8.00409
12082 2 7.26156 122.811 9.27517
5621 1 10.8997 122.821 7.98785
11778 2 9.98868 124.385 9.29131
5306 1 13.6268 124.394 8.00409
11493 2 15.4449 124.385 9.29131
11824 2 12.7178 122.811 9.27517
5347 1 16.3559 122.821 7.98785
11492 2 18.174 122.811 9.27517
6025 1 21.8122 122.821 7.98785
5004 1 19.083 124.394 8.00409
11151 2 20.9012 124.385 9.29131
12291 2 1.8034 125.959 9.30644
5846 1 5.4415 125.967 8.01932
12085 2 7.25964 125.959 9.30644
5624 1 10.8977 125.967 8.01932
11776 2 12.7159 125.959 9.30644
5304 1 16.354 125.967 8.01932
11495 2 18.1721 125.959 9.30644
6026 1 21.8102 125.967 8.01932
5847 1 2.71252 127.54 8.03351
12292 2 1.80179 129.106 9.33363
5849 1 5.43985 129.113 8.04666
12048 2 4.53068 127.533 9.32055
5583 1 8.16876 127.54 8.03351
12046 2 7.25803 129.106 9.33363
5581 1 10.8961 129.113 8.04666
11777 2 9.98691 127.533 9.32055
5305 1 13.625 127.54 8.03351
11454 2 15.4432 127.533 9.32055
11779 2 12.7143 129.106 9.33363
5307 1 16.3523 129.113 8.04666
11452 2 18.1705 129.106 9.33363
6009 1 21.8086 129.113 8.04666
4973 1 19.0812 127.54 8.03351
11150 2 20.8994 127.533 9.32055
5820 1 2.71102 130.686 8.05878
12268 2 1.80047 132.254 9.3567
5818 1 5.4385 132.259 8.06984
12047 2 4.52921 130.68 9.34568
5582 1 8.16726 130.686 8.05878
12049 2 7.25671 132.254 9.3567
5584 1 10.8947 132.259 8.06984
11732 2 9.98545 130.68 9.34568
5259 1 13.6235 130.686 8.05878
11453 2 15.4417 130.68 9.34568
11730 2 12.713 132.254 9.3567
5257 1 16.351 132.259 8.06984
11455 2 18.1692 132.254 9.3567
6010 1 21.8072 132.259 8.06984
4972 1 19.0797 130.686 8.05878
11119 2 20.8979 130.68 9.34568
5819 1 2.70982 133.833 8.07986
12269 2 1.79945 135.401 9.3756
5821 1 5.43745 135.406 8.08884
12016 2 4.52805 133.828 9.36667
5544 1 8.16606 133.833 8.07986
12014 2 7.25569 135.401 9.3756
5542 1 10.8937 135.406 8.08884
11731 2 9.98428 133.828 9.36667
5258 1 13.6223 133.833 8.07986
11407 2 15.4405 133.828 9.36667
11733 2 12.7119 135.401 9.3756
5260 1 16.3499 135.406 8.08884
11405 2 18.1682 135.401 9.3756
5994 1 21.8062 135.406 8.08884
4933 1 19.0785 133.833 8.07986
11118 2 20.8968 133.828 9.36667
5796 1 2.70891 136.979 8.09676
12252 2 1.7987 138.549 9.39035
5794 1 5.43668 138.552 8.10365
12015 2 4.52716 136.975 9.3835
5543 1 8.16515 136.979 8.09676
12017 2 7.25494 138.549 9.39035
5545 1 10.8929 138.552 8.10365
11692 2 9.9834 136.975 9.3835
5212 1 13.6214 136.979 8.09676
11406 2 15.4396 136.975 9.3835
11690 2 12.7112 138.549 9.39035
5210 1 16.3492 138.552 8.10365
11408 2 18.1674 138.549 9.39035
5995 1 21.8054 138.552 8.10365
4932 1 19.0776 136.979 8.09676
11080 2 20.8959 136.975 9.3835
5795 1 2.70828 140.125 8.10948
12253 2 1.79823 141.696 9.40095
5797 1 5.43618 141.698 8.11428
11992 2 4.52655 140.123 9.39617
5512 1 8.16452 140.125 8.10948
11990 2 7.25447 141.696 9.40095
5510 1 10.8924 141.698 8.11428
11691 2 9.98279 140.123 9.39617
5211 1 13.6208 140.125 8.10948
11360 2 15.439 140.123 9.39617
11693 2 12.7107 141.696 9.40095
5213 1 16.3487 141.698 8.11428
11358 2 18.1669 141.696 9.40095
5986 1 21.8049 141.698 8.11428
4887 1 19.077 140.125 8.10948
11079 2 20.8953 140.123 9.39617
5780 1 2.70792 143.271 8.11803
12244 2 1.79802 144.844 9.40739
5778 1 5.43597 144.844 8.12074
11991 2 4.52621 143.27 9.40469
5511 1 8.16416 143.271 8.11803
11993 2 7.25426 144.844 9.40739
5513 1 10.8922 144.844 8.12074
11660 2 9.98245 143.27 9.40469
5172 1 13.6204 143.271 8.11803
11359 2 15.4387 143.27 9.40469
11658 2 12.7105 144.844 9.40739
5170 1 16.3484 144.844 8.12074
11361 2 18.1667 144.844 9.40739
5987 1 21.8047 144.844 8.12074
4886 1 19.0766 143.271 8.11803
11040 2 20.8949 143.27 9.40469
5779 1 2.70784 146.417 8.12242
12245 2 1.79807 147.991 9.4097
5781 1 5.43602 147.99 8.12305
11976 2 4.52613 146.418 9.40906
5488 1 8.16408 146.417 8.12242
11974 2 7.25431 147.991 9.4097
5486 1 10.8923 147.99 8.12305
11659 2 9.98237 146.418 9.40906
5171 1 13.6203 146.417 8.12242
11320 2 15.4386 146.418 9.40906
11661 2 12.7105 147.991 9.4097
5173 1 16.3485 147.99 8.12305
11318 2 18.1668 147.991 9.4097
5985 1 21.8047 147.99 8.12305
4842 1 19.0766 146.417 8.12242
11039 2 20.8948 146.418 9.40906
5769 1 2.70802 149.562 8.12265
11975 2 4.52631 149.565 9.40929
5487 1 8.16426 149.562 8.12265
11633 2 9.98255 149.565 9.40929
5137 1 13.6205 149.562 8.12265
11319 2 15.4388 149.565 9.40929
4841 1 19.0767 149.562 8.12265
11000 2 20.895 149.565 9.40929
5927 1 0.915083 102.342 10.2722
5923 1 1.82546 100.744 12.8211
12179 2 2.73321 102.329 11.5604
12385 2 0.00701045 100.756 11.5338
5686 1 4.55154 102.317 12.8481
12178 2 5.46325 100.756 11.5338
5714 1 6.37132 102.342 10.2722
5712 1 7.2817 100.744 12.8211
11887 2 8.18944 102.329 11.5604
5398 1 11.8276 102.342 10.2722
5394 1 10.0078 102.317 12.8481
11911 2 10.9195 100.756 11.5338
5038 1 15.464 102.317 12.8481
5393 1 12.7379 100.744 12.8211
11562 2 13.6457 102.329 11.5604
5050 1 17.2838 102.342 10.2722
5048 1 18.1942 100.744 12.8211
11561 2 16.3757 100.756 11.5338
4688 1 20.9203 102.317 12.8481
11197 2 19.1019 102.329 11.5604
5926 1 0.911404 105.489 10.3247
5924 1 1.82141 103.89 12.8747
12151 2 2.72941 105.476 11.6127
12361 2 0.00317518 103.903 11.5868
5925 1 3.64136 103.915 10.2987
5685 1 4.54755 105.463 12.9008
12180 2 5.45941 103.903 11.5868
5690 1 6.36764 105.489 10.3247
5715 1 9.09759 103.915 10.2987
5684 1 7.27765 103.89 12.8747
11886 2 8.18565 105.476 11.6127
5397 1 11.8239 105.489 10.3247
5370 1 10.0038 105.463 12.9008
11885 2 10.9157 103.903 11.5868
5396 1 14.5538 103.915 10.2987
5037 1 15.46 105.463 12.9008
5395 1 12.7339 103.89 12.8747
11546 2 13.6419 105.476 11.6127
5042 1 17.2801 105.489 10.3247
5036 1 18.1901 103.89 12.8747
11563 2 16.3719 103.903 11.5868
5051 1 20.0101 103.915 10.2987
4687 1 20.9163 105.463 12.9008
11196 2 19.0981 105.476 11.6127
5900 1 0.907837 108.636 10.3752
5896 1 1.81751 107.037 12.9263
12150 2 2.72578 108.623 11.6628
12362 2 -0.000549058 107.05 11.6381
5928 1 3.63772 107.063 10.3502
5654 1 4.54378 108.61 12.9512
12149 2 5.45569 107.05 11.6381
5688 1 9.09396 107.063 10.3502
5689 1 6.36407 108.636 10.3752
5687 1 7.27375 107.037 12.9263
11857 2 8.18202 108.623 11.6628
5374 1 11.8203 108.636 10.3752
5369 1 10 108.61 12.9512
11888 2 10.9119 107.05 11.6381
5399 1 14.5502 107.063 10.3502
5022 1 15.4563 108.61 12.9512
5368 1 12.73 107.037 12.9263
11545 2 13.6383 108.623 11.6628
5041 1 17.2766 108.636 10.3752
5039 1 18.1862 107.037 12.9263
11544 2 16.3682 107.05 11.6381
5040 1 20.0064 107.063 10.3502
4686 1 20.9125 108.61 12.9512
11189 2 19.0945 108.623 11.6628
5899 1 0.904479 111.784 10.4229
5897 1 1.81389 110.184 12.9753
12116 2 2.72241 111.771 11.7102
12337 2 -0.00405689 110.197 11.6869
5898 1 3.63425 110.21 10.3994
5653 1 4.54032 111.758 12.9987
12152 2 5.45218 110.197 11.6869
5658 1 6.36072 111.784 10.4229
5691 1 9.09048 110.21 10.3994
5652 1 7.27013 110.184 12.9753
11856 2 8.17865 111.771 11.7102
5373 1 11.817 111.784 10.4229
5338 1 9.99656 111.758 12.9987
11855 2 10.9084 110.197 11.6869
5372 1 14.5467 110.21 10.3994
5021 1 15.4528 111.758 12.9987
5371 1 12.7264 110.184 12.9753
11522 2 13.6349 111.771 11.7102
5026 1 17.2732 111.784 10.4229
5020 1 18.1826 110.184 12.9753
11547 2 16.3647 110.197 11.6869
5043 1 20.003 110.21 10.3994
4679 1 20.909 111.758 12.9987
11188 2 19.0911 111.771 11.7102
5872 1 0.901397 114.931 10.4675
5868 1 1.81061 113.333 13.0212
12115 2 2.71936 114.919 11.7544
5901 1 3.63102 113.357 10.4457
5615 1 4.53723 114.907 13.0428
12114 2 5.44896 113.345 11.7328
5656 1 9.08726 113.357 10.4457
5657 1 6.35764 114.931 10.4675
5655 1 7.26685 113.333 13.0212
11819 2 8.1756 114.919 11.7544
5342 1 11.8139 114.931 10.4675
5337 1 9.99346 114.907 13.0428
11858 2 10.9052 113.345 11.7328
5375 1 14.5435 113.357 10.4457
4998 1 15.4497 114.907 13.0428
5336 1 12.7231 113.333 13.0212
11521 2 13.6318 114.919 11.7544
5025 1 17.2701 114.931 10.4675
5023 1 18.1793 113.333 13.0212
11520 2 16.3614 113.345 11.7328
5024 1 19.9997 113.357 10.4457
12338 2 21.8177 113.345 11.7328
4678 1 20.9059 114.907 13.0428
11173 2 19.0881 114.919 11.7544
5871 1 0.898632 118.079 10.5085
5869 1 1.8077 116.482 13.0635
12080 2 2.71664 118.068 11.7951
5870 1 3.62809 116.505 10.4885
5614 1 4.5345 118.057 13.0833
12117 2 5.44608 116.494 11.7752
5619 1 6.35487 118.079 10.5085
5659 1 9.08433 116.505 10.4885
5613 1 7.26394 116.482 13.0635
11818 2 8.17288 118.068 11.7951
5341 1 11.8111 118.079 10.5085
5298 1 9.99074 118.057 13.0833
11817 2 10.9023 116.494 11.7752
5340 1 14.5406 116.505 10.4885
4997 1 15.447 118.057 13.0833
5339 1 12.7202 116.482 13.0635
11490 2 13.6291 118.068 11.7951
5002 1 17.2673 118.079 10.5085
4996 1 18.1764 116.482 13.0635
11523 2 16.3586 116.494 11.7752
5027 1 19.9968 116.505 10.4885
12313 2 21.8148 116.494 11.7752
4663 1 20.9032 118.057 13.0833
11172 2 19.0854 118.068 11.7951
5844 1 0.896201 121.227 10.5457
5840 1 1.80517 119.632 13.1022
12079 2 2.71428 121.217 11.8319
5873 1 3.62549 119.653 10.5276
12078 2 5.44354 119.643 11.814
5617 1 9.08173 119.653 10.5276
5618 1 6.35244 121.227 10.5457
5616 1 7.2614 119.632 13.1022
11774 2 8.17052 121.217 11.8319
5302 1 11.8087 121.227 10.5457
11820 2 10.8998 119.643 11.814
5343 1 14.538 119.653 10.5276
5296 1 12.7176 119.632 13.1022
11489 2 13.6268 121.217 11.8319
5001 1 17.2649 121.227 10.5457
4999 1 18.1739 119.632 13.1022
11488 2 16.356 119.643 11.814
5000 1 19.9942 119.653 10.5276
12314 2 21.8123 119.643 11.814
11149 2 19.083 121.217 11.8319
5843 1 0.894107 124.376 10.5789
12044 2 2.71226 124.367 11.8649
5842 1 3.62323 122.802 10.5628
12081 2 5.44135 122.792 11.8489
5579 1 6.35035 124.376 10.5789
5620 1 9.07947 122.802 10.5628
11773 2 8.1685 124.367 11.8649
5301 1 11.8066 124.376 10.5789
11772 2 10.8976 122.792 11.8489
5300 1 14.5357 122.802 10.5628
11450 2 13.6247 124.367 11.8649
4970 1 17.2628 124.376 10.5789
11491 2 16.3538 122.792 11.8489
5003 1 19.9919 122.802 10.5628
12289 2 21.8101 122.792 11.8489
11148 2 19.081 124.367 11.8649
5845 1 3.6213 125.95 10.5941
12042 2 5.43949 125.942 11.8799
5577 1 9.07754 125.95 10.5941
11775 2 10.8957 125.942 11.8799
5303 1 14.5338 125.95 10.5941
11448 2 16.352 125.942 11.8799
4968 1 19.99 125.95 10.5941
12290 2 21.8082 125.942 11.8799
5816 1 0.89234 127.525 10.6081
12043 2 2.71056 127.517 11.8938
5814 1 3.61969 129.099 10.6212
12045 2 5.43795 129.092 11.9068
5578 1 6.34858 127.525 10.6081
5580 1 9.07593 129.099 10.6212
11728 2 8.1668 127.517 11.8938
5255 1 11.8048 127.525 10.6081
11726 2 10.8942 129.092 11.9068
5253 1 14.5322 129.099 10.6212
11449 2 13.623 127.517 11.8938
4969 1 17.2611 127.525 10.6081
11451 2 16.3504 129.092 11.9068
4971 1 19.9884 129.099 10.6212
12266 2 21.8067 129.092 11.9068
11117 2 19.0793 127.517 11.8938
5815 1 0.890887 130.673 10.6332
12012 2 2.70917 130.667 11.9187
5817 1 3.61839 132.248 10.6442
12010 2 5.43671 132.242 11.9296
5538 1 9.07463 132.248 10.6442
5540 1 6.34713 130.673 10.6332
11727 2 8.16541 130.667 11.9187
5254 1 11.8034 130.673 10.6332
11729 2 10.8929 132.242 11.9296
5256 1 14.5309 132.248 10.6442
11403 2 13.6217 130.667 11.9187
4930 1 17.2596 130.673 10.6332
11401 2 16.3492 132.242 11.9296
4928 1 19.9871 132.248 10.6442
12267 2 21.8054 132.242 11.9296
11116 2 19.0779 130.667 11.9187
5792 1 0.889732 133.822 10.6542
12011 2 2.70808 133.817 11.9395
5790 1 3.61738 135.397 10.6631
12013 2 5.43575 135.393 11.9484
5539 1 6.34597 133.822 10.6542
5541 1 9.07362 135.397 10.6631
11688 2 8.16431 133.817 11.9395
5208 1 11.8022 133.822 10.6542
11686 2 10.892 135.393 11.9484
5206 1 14.5299 135.397 10.6631
11402 2 13.6206 133.817 11.9395
4929 1 17.2584 133.822 10.6542
11404 2 16.3482 135.393 11.9484
4931 1 19.9861 135.397 10.6631
12250 2 21.8045 135.393 11.9484
11078 2 19.0768 133.817 11.9395
5791 1 0.888861 136.971 10.671
11988 2 2.70725 136.968 11.9562
5793 1 3.61665 138.546 10.6778
11986 2 5.43506 138.543 11.963
5506 1 9.07289 138.546 10.6778
5508 1 6.3451 136.971 10.671
11687 2 8.16349 136.968 11.9562
5207 1 11.8013 136.971 10.671
11689 2 10.8913 138.543 11.963
5209 1 14.5291 138.546 10.6778
11356 2 13.6197 136.968 11.9562
4884 1 17.2576 136.971 10.671
11354 2 16.3475 138.543 11.963
4882 1 19.9854 138.546 10.6778
12251 2 21.8038 138.543 11.963
11077 2 19.076 136.968 11.9562
5776 1 0.888263 140.121 10.6836
11987 2 2.70669 140.119 11.9688
5774 1 3.61618 141.695 10.6884
11989 2 5.43462 141.694 11.9735
5507 1 6.3445 140.121 10.6836
5509 1 9.07242 141.695 10.6884
11656 2 8.16293 140.119 11.9688
5168 1 11.8007 140.121 10.6836
11654 2 10.8909 141.694 11.9735
5166 1 14.5287 141.695 10.6884
11355 2 13.6192 140.119 11.9688
4883 1 17.257 140.121 10.6836
11357 2 16.3471 141.694 11.9735
4885 1 19.9849 141.695 10.6884
12242 2 21.8033 141.694 11.9735
11038 2 19.0754 140.119 11.9688
5775 1 0.887928 143.27 10.6921
11972 2 2.70637 143.269 11.9773
5777 1 3.61598 144.844 10.6948
11970 2 5.43443 144.845 11.98
5482 1 9.07222 144.844 10.6948
5484 1 6.34417 143.27 10.6921
11655 2 8.16261 143.269 11.9773
5167 1 11.8004 143.27 10.6921
11657 2 10.8907 144.845 11.98
5169 1 14.5285 144.844 10.6948
11316 2 13.6189 143.269 11.9773
4839 1 17.2566 143.27 10.6921
11314 2 16.3469 144.845 11.98
4837 1 19.9847 144.844 10.6948
12243 2 21.8031 144.845 11.98
11037 2 19.0751 143.269 11.9773
5768 1 0.887852 146.419 10.6965
11971 2 2.70631 146.42 11.9816
5766 1 3.61603 147.993 10.6971
11973 2 5.43448 147.995 11.9822
5483 1 6.34409 146.419 10.6965
5485 1 9.07227 147.993 10.6971
11632 2 8.16255 146.42 11.9816
5136 1 11.8003 146.419 10.6965
11630 2 10.8907 147.995 11.9822
5134 1 14.5285 147.993 10.6971
11315 2 13.6188 146.42 11.9816
4838 1 17.2566 146.419 10.6965
11317 2 16.347 147.995 11.9822
4840 1 19.9847 147.993 10.6971
12241 2 21.8032 147.995 11.9822
10999 2 19.075 146.42 11.9816
5767 1 0.88803 149.568 10.6967
11961 2 2.70648 149.57 11.9818
5465 1 6.34427 149.568 10.6967
11631 2 8.16272 149.57 11.9818
5135 1 11.8005 149.568 10.6967
11281 2 13.619 149.57 11.9818
4798 1 17.2567 149.568 10.6967
10998 2 19.0752 149.57 11.9818
12147 2 0.91315 102.303 14.1363
5682 1 2.73113 102.29 15.4249
12177 2 3.64338 100.73 14.1095
11882 2 9.09962 100.73 14.1095
11883 2 6.36939 102.303 14.1363
5366 1 8.18737 102.29 15.4249
11542 2 11.8256 102.303 14.1363
11560 2 14.5559 100.73 14.1095
5034 1 13.6436 102.29 15.4249
11194 2 17.2819 102.303 14.1363
11193 2 20.0121 100.73 14.1095
4685 1 19.0998 102.29 15.4249
12146 2 0.909074 105.45 14.1887
5650 1 2.72689 105.436 15.4776
5894 1 0.000848346 103.863 15.4516
12145 2 3.6392 103.876 14.1628
5683 1 5.45709 103.863 15.4516
11853 2 6.36531 105.45 14.1887
11884 2 9.09544 103.876 14.1628
5365 1 8.18313 105.436 15.4776
11541 2 11.8216 105.45 14.1887
5364 1 10.9133 103.863 15.4516
11540 2 14.5517 103.876 14.1628
5018 1 13.6394 105.436 15.4776
11186 2 17.2778 105.45 14.1887
5035 1 16.3696 103.863 15.4516
11195 2 20.0079 103.876 14.1628
4684 1 19.0956 105.436 15.4776
12112 2 0.905292 108.597 14.2387
5649 1 2.72302 108.584 15.5277
5895 1 -0.00321674 107.01 15.503
12148 2 3.63526 107.023 14.214
5648 1 5.45302 107.01 15.503
11851 2 9.0915 107.023 14.214
11852 2 6.36153 108.597 14.2387
5334 1 8.17926 108.584 15.5277
11518 2 11.8178 108.597 14.2387
5367 1 10.9093 107.01 15.503
11543 2 14.5477 107.023 14.214
5017 1 13.6355 108.584 15.5277
11185 2 17.274 108.597 14.2387
5016 1 16.3655 107.01 15.503
11184 2 20.004 107.023 14.214
4677 1 19.0917 108.584 15.5277
12111 2 0.901877 111.745 14.2857
5611 1 2.71958 111.733 15.5746
5866 1 -0.00687733 110.158 15.5515
12110 2 3.63166 110.171 14.2626
5651 1 5.44936 110.158 15.5515
11815 2 6.35812 111.745 14.2857
11854 2 9.08789 110.171 14.2626
5333 1 8.17582 111.733 15.5746
11517 2 11.8144 111.745 14.2857
5332 1 10.9056 110.158 15.5515
11516 2 14.5441 110.171 14.2626
4994 1 13.6321 111.733 15.5746
11170 2 17.2706 111.745 14.2857
5019 1 16.3618 110.158 15.5515
11187 2 20.0004 110.171 14.2626
4676 1 19.0883 111.733 15.5746
12076 2 0.89886 114.895 14.3294
5610 1 2.71658 114.883 15.6181
12113 2 3.62844 113.32 14.308
5609 1 5.44614 113.307 15.5968
11813 2 9.08468 113.32 14.308
11814 2 6.3551 114.895 14.3294
5294 1 8.17282 114.883 15.6181
11486 2 11.8113 114.895 14.3294
5335 1 10.9024 113.307 15.5968
11519 2 14.5409 113.32 14.308
4993 1 13.6291 114.883 15.6181
11169 2 17.2676 114.895 14.3294
4992 1 16.3586 113.307 15.5968
11168 2 19.9972 113.32 14.308
5867 1 21.8149 113.307 15.5968
4661 1 19.0853 114.883 15.6181
12075 2 0.896243 118.045 14.3695
5571 1 2.71402 118.034 15.658
12074 2 3.62562 116.47 14.3499
5612 1 5.44337 116.458 15.6385
11770 2 6.35248 118.045 14.3695
11816 2 9.08186 116.47 14.3499
5293 1 8.17026 118.034 15.658
11485 2 11.8087 118.045 14.3695
5292 1 10.8996 116.458 15.6385
11484 2 14.5381 116.47 14.3499
4962 1 13.6265 118.034 15.658
11146 2 17.265 118.045 14.3695
4995 1 16.3558 116.458 15.6385
11171 2 19.9943 116.47 14.3499
5838 1 21.8121 116.458 15.6385
4660 1 19.0827 118.034 15.658
12040 2 0.894008 121.197 14.4058
5570 1 2.71186 121.186 15.6941
5575 1 4.53216 121.207 13.1201
12077 2 3.6232 119.621 14.3881
5569 1 5.44101 119.61 15.6765
11768 2 9.07944 119.621 14.3881
11769 2 6.35025 121.197 14.4058
5247 1 8.16809 121.186 15.6941
5297 1 9.9884 121.207 13.1201
11446 2 11.8065 121.197 14.4058
5295 1 10.8972 119.61 15.6765
4966 1 15.4446 121.207 13.1201
11487 2 14.5357 119.621 14.3881
4961 1 13.6243 121.186 15.6941
11145 2 17.2627 121.197 14.4058
4960 1 16.3535 119.61 15.6765
4662 1 20.9009 121.207 13.1201
11144 2 19.9919 119.621 14.3881
5839 1 21.8097 119.61 15.6765
4637 1 19.0806 121.186 15.6941
5841 1 1.803 122.782 13.137
12039 2 0.89213 124.349 14.4383
5532 1 2.71006 124.34 15.7264
5574 1 4.53017 124.358 13.1529
12038 2 3.62115 122.773 14.4226
5572 1 5.43903 122.763 15.7107
5573 1 7.25924 122.782 13.137
11724 2 6.34837 124.349 14.4383
11771 2 9.07738 122.773 14.4226
5246 1 8.16629 124.34 15.7264
5251 1 9.98641 124.358 13.1529
11445 2 11.8046 124.349 14.4383
5245 1 10.8953 122.763 15.7107
4965 1 15.4426 124.358 13.1529
5299 1 12.7155 122.782 13.137
11444 2 14.5336 122.773 14.4226
4922 1 13.6225 124.34 15.7264
4964 1 18.1717 122.782 13.137
11114 2 17.2608 124.349 14.4383
4963 1 16.3515 122.763 15.7107
4639 1 20.8989 124.358 13.1529
11147 2 19.9899 122.773 14.4226
5810 1 21.8077 122.763 15.7107
4636 1 19.0788 124.34 15.7264
5812 1 1.80118 125.933 13.1679
12041 2 3.61943 125.925 14.4531
5530 1 5.4374 125.916 15.741
5576 1 7.25742 125.933 13.1679
11722 2 9.07567 125.925 14.4531
5248 1 10.8936 125.916 15.741
5249 1 12.7137 125.933 13.1679
11447 2 14.5319 125.925 14.4531
4967 1 18.1699 125.933 13.1679
4920 1 16.3499 125.916 15.741
11112 2 19.9881 125.925 14.4531
5811 1 21.8061 125.916 15.741
5813 1 1.79968 129.085 13.1947
12008 2 0.890578 127.501 14.4669
5531 1 2.70858 127.493 15.7547
5536 1 4.52851 127.509 13.1818
12006 2 3.61803 129.078 14.4797
5533 1 5.43608 129.07 15.7674
5534 1 7.25592 129.085 13.1947
11723 2 6.34682 127.501 14.4669
11725 2 9.07427 129.078 14.4797
5200 1 8.16482 127.493 15.7547
5250 1 9.98475 127.509 13.1818
11399 2 11.8031 127.501 14.4669
5198 1 10.8923 129.07 15.7674
4926 1 15.441 127.509 13.1818
5252 1 12.7122 129.085 13.1947
11397 2 14.5305 129.078 14.4797
4921 1 13.6211 127.493 15.7547
4924 1 18.1684 129.085 13.1947
11113 2 17.2593 127.501 14.4669
4923 1 16.3486 129.07 15.7674
4638 1 20.8972 127.509 13.1818
11115 2 19.9867 129.078 14.4797
5786 1 21.8048 129.07 15.7674
4605 1 19.0773 127.493 15.7547
5788 1 1.79848 132.236 13.2174
12007 2 0.889323 130.654 14.4914
5500 1 2.7074 130.648 15.7792
5535 1 4.52717 130.66 13.2066
12009 2 3.61692 132.231 14.5022
5498 1 5.43503 132.225 15.7899
5537 1 7.25472 132.236 13.2174
11682 2 9.07316 132.231 14.5022
11684 2 6.34556 130.654 14.4914
5199 1 8.16364 130.648 15.7792
5204 1 9.9834 130.66 13.2066
11398 2 11.8018 130.654 14.4914
5201 1 10.8913 132.225 15.7899
4925 1 15.4396 130.66 13.2066
5202 1 12.711 132.236 13.2174
11400 2 14.5294 132.231 14.5022
4876 1 13.6199 130.648 15.7792
4927 1 18.1672 132.236 13.2174
11075 2 17.258 130.654 14.4914
4874 1 16.3475 132.225 15.7899
4607 1 20.8959 130.66 13.2066
11073 2 19.9856 132.231 14.5022
5787 1 21.8037 132.225 15.7899
4604 1 19.0761 130.648 15.7792
5789 1 1.79756 135.388 13.2361
11984 2 0.888342 133.807 14.512
5499 1 2.70648 133.802 15.7996
5504 1 4.52611 133.812 13.2273
11982 2 3.61607 135.384 14.5207
5501 1 5.43423 135.38 15.8083
5502 1 7.2538 135.388 13.2361
11683 2 6.34458 133.807 14.512
11685 2 9.0723 135.384 14.5207
5160 1 8.16272 133.802 15.7996
5203 1 9.98234 133.812 13.2273
11352 2 11.8008 133.807 14.512
5158 1 10.8905 135.38 15.8083
4880 1 15.4386 133.812 13.2273
5205 1 12.71 135.388 13.2361
11350 2 14.5285 135.384 14.5207
4875 1 13.619 133.802 15.7996
4878 1 18.1663 135.388 13.2361
11074 2 17.2571 133.807 14.512
4877 1 16.3467 135.38 15.8083
4606 1 20.8948 133.812 13.2273
11076 2 19.9848 135.384 14.5207
5770 1 21.8029 135.38 15.8083
4569 1 19.0752 133.802 15.7996
5772 1 1.79689 138.54 13.2507
11983 2 0.887612 136.961 14.5285
5476 1 2.7058 136.957 15.816
5503 1 4.52531 136.964 13.2439
11985 2 3.61546 138.538 14.5352
5474 1 5.43367 138.535 15.8227
5505 1 7.25313 138.54 13.2507
11650 2 9.07169 138.538 14.5352
11652 2 6.34385 136.961 14.5285
5159 1 8.16204 136.957 15.816
5164 1 9.98155 136.964 13.2439
11351 2 11.8001 136.961 14.5285
5161 1 10.8899 138.535 15.8227
4879 1 15.4378 136.964 13.2439
5162 1 12.7094 138.54 13.2507
11353 2 14.5279 138.538 14.5352
4831 1 13.6183 136.957 15.816
4881 1 18.1656 138.54 13.2507
11035 2 17.2563 136.961 14.5285
4829 1 16.3461 138.535 15.8227
4571 1 20.894 136.964 13.2439
11033 2 19.9842 138.538 14.5352
5771 1 21.8024 138.535 15.8227
4568 1 19.0745 136.957 15.816
5773 1 1.79648 141.693 13.2612
11968 2 0.887119 140.115 14.5409
5475 1 2.70535 140.113 15.8284
5480 1 4.52477 140.117 13.2564
11966 2 3.61508 141.691 14.5456
5477 1 5.43332 141.69 15.833
5478 1 7.25272 141.693 13.2612
11651 2 6.34336 140.115 14.5409
11653 2 9.07132 141.691 14.5456
5128 1 8.16159 140.113 15.8284
5163 1 9.98101 140.117 13.2564
11312 2 11.7996 140.115 14.5409
5126 1 10.8896 141.69 15.833
4835 1 15.4373 140.117 13.2564
5165 1 12.709 141.693 13.2612
11310 2 14.5276 141.691 14.5456
4830 1 13.6178 140.113 15.8284
4833 1 18.1652 141.693 13.2612
11034 2 17.2558 140.115 14.5409
4832 1 16.3458 141.69 15.833
4570 1 20.8935 140.117 13.2564
11036 2 19.9838 141.691 14.5456
5762 1 21.802 141.69 15.833
4533 1 19.0741 140.113 15.8284
5764 1 1.7963 144.845 13.2675
11967 2 0.886853 143.268 14.5493
5460 1 2.70511 143.268 15.8367
5479 1 4.52448 143.269 13.2649
11969 2 3.61492 144.845 14.552
5458 1 5.43318 144.846 15.8393
5481 1 7.25254 144.845 13.2675
11626 2 9.07116 144.845 14.552
11628 2 6.34309 143.268 14.5493
5127 1 8.16135 143.268 15.8367
5132 1 9.98072 143.269 13.2649
11311 2 11.7993 143.268 14.5493
5129 1 10.8894 144.846 15.8393
4834 1 15.437 143.269 13.2649
5130 1 12.7088 144.845 13.2675
11313 2 14.5274 144.845 14.552
4793 1 13.6176 143.268 15.8367
4836 1 18.165 144.845 13.2675
10996 2 17.2556 143.268 14.5493
4791 1 16.3457 144.846 15.8393
4535 1 20.8932 143.269 13.2649
10994 2 19.9836 144.845 14.552
5763 1 21.8019 144.846 15.8393
4532 1 19.0738 143.268 15.8367
5765 1 1.79636 147.997 13.2698
11960 2 0.886805 146.422 14.5536
5459 1 2.70507 146.423 15.841
5464 1 4.52442 146.421 13.2692
11958 2 3.61498 147.999 14.5542
5461 1 5.43325 148.001 15.8416
5462 1 7.25259 147.997 13.2698
11627 2 6.34304 146.422 14.5536
11629 2 9.07122 147.999 14.5542
5104 1 8.16131 146.423 15.841
5131 1 9.98066 146.421 13.2692
11280 2 11.7993 146.422 14.5536
5102 1 10.8895 148.001 15.8416
4797 1 15.4369 146.421 13.2692
5133 1 12.7088 147.997 13.2698
11278 2 14.5275 147.999 14.5542
4792 1 13.6175 146.423 15.841
4795 1 18.1651 147.997 13.2698
10995 2 17.2555 146.422 14.5536
4794 1 16.3457 148.001 15.8416
4534 1 20.8931 146.421 13.2692
10997 2 19.9837 147.999 14.5542
5761 1 21.802 148.001 15.8416
4498 1 19.0738 146.423 15.841
11959 2 0.886973 149.576 14.5538
5449 1 2.70524 149.579 15.8412
5463 1 4.52459 149.573 13.2694
11609 2 6.34321 149.576 14.5538
5103 1 8.16147 149.579 15.8412
5105 1 9.98083 149.573 13.2694
11279 2 11.7994 149.576 14.5538
4796 1 15.4371 149.573 13.2694
4760 1 13.6177 149.579 15.8412
10961 2 17.2557 149.576 14.5538
4499 1 20.8933 149.573 13.2694
4497 1 19.074 149.579 15.8412
5646 1 0.910004 102.262 18.0028
11849 2 4.54867 102.276 16.7134
5362 1 6.36624 102.262 18.0028
11538 2 10.0049 102.276 16.7134
5014 1 11.8225 102.262 18.0028
11182 2 15.4612 102.276 16.7134
4682 1 17.2787 102.262 18.0028
10880 2 20.9174 102.276 16.7134
12144 2 1.81836 103.849 16.7398
5645 1 0.90562 105.408 18.0552
11848 2 4.5444 105.422 16.7657
5644 1 3.63587 103.835 18.0294
11847 2 7.2746 103.849 16.7398
5330 1 6.36186 105.408 18.0552
5363 1 9.0921 103.835 18.0294
11514 2 10.0006 105.422 16.7657
5013 1 11.8181 105.408 18.0552
11181 2 15.4569 105.422 16.7657
11539 2 12.7308 103.849 16.7398
5012 1 14.5483 103.835 18.0294
11180 2 18.1871 103.849 16.7398
4674 1 17.2743 105.408 18.0552
10879 2 20.9131 105.422 16.7657
4683 1 20.0046 103.835 18.0294
12108 2 1.81431 106.996 16.7908
5607 1 0.901784 108.556 18.1046
11811 2 4.54058 108.57 16.8152
5647 1 3.63175 106.982 18.0803
11850 2 7.27055 106.996 16.7908
5328 1 9.08799 106.982 18.0803
5329 1 6.35802 108.556 18.1046
11513 2 9.99682 108.57 16.8152
4990 1 11.8143 108.556 18.1046
11166 2 15.4531 108.57 16.8152
11512 2 12.7268 106.996 16.7908
5015 1 14.5442 106.982 18.0803
11183 2 18.183 106.996 16.7908
4673 1 17.2705 108.556 18.1046
10878 2 20.9093 108.57 16.8152
4672 1 20.0005 106.982 18.0803
12109 2 1.81073 110.144 16.8388
5606 1 0.898504 111.706 18.1507
11810 2 4.53725 111.719 16.8615
5605 1 3.62819 110.131 18.1281
11809 2 7.26697 110.144 16.8388
5290 1 6.35474 111.706 18.1507
5331 1 9.08443 110.131 18.1281
11482 2 9.99349 111.719 16.8615
4989 1 11.811 111.706 18.1507
11165 2 15.4497 111.719 16.8615
11515 2 12.7232 110.144 16.8388
4988 1 14.5407 110.131 18.1281
11164 2 18.1794 110.144 16.8388
4658 1 17.2672 111.706 18.1507
10871 2 20.906 111.719 16.8615
4675 1 19.9969 110.131 18.1281
12072 2 1.80764 113.294 16.8834
5567 1 0.895748 114.858 18.1933
11766 2 4.5344 114.87 16.9045
5608 1 3.62518 113.281 18.1724
11812 2 7.26388 113.294 16.8834
5288 1 9.08142 113.281 18.1724
5289 1 6.35199 114.858 18.1933
11481 2 9.99063 114.87 16.9045
4958 1 11.8082 114.858 18.1933
11142 2 15.4469 114.87 16.9045
11480 2 12.7201 113.294 16.8834
4991 1 14.5377 113.281 18.1724
11167 2 18.1764 113.294 16.8834
4657 1 17.2645 114.858 18.1933
10870 2 20.9031 114.87 16.9045
4656 1 19.9939 113.281 18.1724
12073 2 1.80502 116.446 16.9246
5566 1 0.893461 118.011 18.2323
11765 2 4.53199 118.023 16.9438
5565 1 3.62267 116.434 18.2133
11764 2 7.26126 116.446 16.9246
5243 1 6.3497 118.011 18.2323
5291 1 9.07891 116.434 18.2133
11442 2 9.98823 118.023 16.9438
4957 1 11.8059 118.011 18.2323
11141 2 15.4445 118.023 16.9438
11483 2 12.7175 116.446 16.9246
4956 1 14.5351 116.434 18.2133
11140 2 18.1737 116.446 16.9246
4634 1 17.2622 118.011 18.2323
10855 2 20.9007 118.023 16.9438
4659 1 19.9914 116.434 18.2133
12036 2 1.80282 119.599 16.9622
5528 1 0.891582 121.166 18.2677
11720 2 4.52998 121.176 16.9795
5568 1 3.62059 119.588 18.2505
11767 2 7.25906 119.599 16.9622
5241 1 9.07683 119.588 18.2505
5242 1 6.34782 121.166 18.2677
11441 2 9.98622 121.176 16.9795
4918 1 11.8041 121.166 18.2677
11110 2 15.4425 121.176 16.9795
11440 2 12.7153 119.599 16.9622
4959 1 14.5331 119.588 18.2505
11143 2 18.1715 119.599 16.9622
4633 1 17.2603 121.166 18.2677
10854 2 20.8987 121.176 16.9795
4632 1 19.9893 119.588 18.2505
12037 2 1.801 122.753 16.996
5527 1 0.890055 124.321 18.2993
11719 2 4.52833 124.331 17.0114
5526 1 3.6189 122.743 18.284
11718 2 7.25724 122.753 16.996
5196 1 6.34629 124.321 18.2993
5244 1 9.07514 122.743 18.284
11395 2 9.98457 124.331 17.0114
4917 1 11.8025 124.321 18.2993
11109 2 15.4408 124.331 17.0114
11443 2 12.7135 122.753 16.996
4916 1 14.5314 122.743 18.284
11108 2 18.1697 122.753 16.996
4602 1 17.2588 124.321 18.2993
10831 2 20.897 124.331 17.0114
4635 1 19.9876 122.743 18.284
12004 2 1.79951 125.908 17.0259
5529 1 3.61753 125.9 18.3137
11721 2 7.25574 125.908 17.0259
5194 1 9.07377 125.9 18.3137
11393 2 12.712 125.908 17.0259
4919 1 14.53 125.9 18.3137
11111 2 18.1682 125.908 17.0259
4600 1 19.9862 125.9 18.3137
12005 2 1.79831 129.063 17.052
5496 1 0.88883 127.478 18.3271
11680 2 4.52699 127.486 17.0395
5494 1 3.61644 129.056 18.3396
11678 2 7.25454 129.063 17.052
5195 1 6.34507 127.478 18.3271
5197 1 9.07267 129.056 18.3396
11394 2 9.98323 127.486 17.0395
4872 1 11.8013 127.478 18.3271
11071 2 15.4395 127.486 17.0395
11396 2 12.7108 129.063 17.052
4870 1 14.5289 129.056 18.3396
11069 2 18.167 129.063 17.052
4601 1 17.2575 127.478 18.3271
10830 2 20.8957 127.486 17.0395
4603 1 19.9852 129.056 18.3396
11980 2 1.79736 132.219 17.0742
5495 1 0.887865 130.635 18.3511
11679 2 4.52592 130.641 17.0636
5497 1 3.61559 132.214 18.3616
11681 2 7.2536 132.219 17.0742
5154 1 9.07183 132.214 18.3616
5156 1 6.3441 130.635 18.3511
11348 2 9.98216 130.641 17.0636
4871 1 11.8003 130.635 18.3511
11070 2 15.4384 130.641 17.0636
11346 2 12.7098 132.219 17.0742
4873 1 14.5281 132.214 18.3616
11072 2 18.1661 132.219 17.0742
4566 1 17.2566 130.635 18.3511
10803 2 20.8946 130.641 17.0636
4564 1 19.9843 132.214 18.3616
11981 2 1.79665 135.376 17.0925
5472 1 0.887127 133.793 18.3712
11648 2 4.5251 133.798 17.0839
5470 1 3.61495 135.372 18.3797
11646 2 7.25289 135.376 17.0925
5155 1 6.34337 133.793 18.3712
5157 1 9.07119 135.372 18.3797
11347 2 9.98134 133.798 17.0839
4827 1 11.7996 133.793 18.3712
11031 2 15.4376 133.798 17.0839
11349 2 12.7091 135.376 17.0925
4825 1 14.5274 135.372 18.3797
11029 2 18.1654 135.376 17.0925
4565 1 17.2558 133.793 18.3712
10802 2 20.8938 133.798 17.0839
4567 1 19.9837 135.372 18.3797
11964 2 1.79615 138.532 17.1068
5471 1 0.886592 136.951 18.3873
11647 2 4.5245 136.954 17.1001
5473 1 3.61451 138.53 18.3939
11649 2 7.25239 138.532 17.1068
5122 1 9.07075 138.53 18.3939
5124 1 6.34283 136.951 18.3873
11308 2 9.98074 136.954 17.1001
4826 1 11.7991 136.951 18.3873
11030 2 15.437 136.954 17.1001
11306 2 12.7086 138.532 17.1068
4828 1 14.527 138.53 18.3939
11032 2 18.1649 138.532 17.1068
4530 1 17.2553 136.951 18.3873
10775 2 20.8932 136.954 17.1001
4528 1 19.9832 138.53 18.3939
11965 2 1.79585 141.689 17.117
5456 1 0.886242 140.109 18.3995
11624 2 4.5241 140.111 17.1124
5454 1 3.61425 141.688 18.4041
11622 2 7.25209 141.689 17.117
5123 1 6.34248 140.109 18.3995
5125 1 9.07049 141.688 18.4041
11307 2 9.98034 140.111 17.1124
4789 1 11.7987 140.109 18.3995
10992 2 15.4366 140.111 17.1124
11309 2 12.7083 141.689 17.117
4787 1 14.5267 141.688 18.4041
10990 2 18.1646 141.689 17.117
4529 1 17.255 140.109 18.3995
10774 2 20.8928 140.111 17.1124
4531 1 19.983 141.688 18.4041
11956 2 1.79574 144.846 17.1233
5455 1 0.886068 143.267 18.4077
11623 2 4.52389 143.267 17.1207
5457 1 3.61416 144.846 18.4103
11625 2 7.25198 144.846 17.1233
5098 1 9.0704 144.846 18.4103
5100 1 6.34231 143.267 18.4077
11276 2 9.98013 143.267 17.1207
4788 1 11.7985 143.267 18.4077
10991 2 15.4364 143.267 17.1207
11274 2 12.7082 144.846 17.1233
4790 1 14.5266 144.846 18.4103
10993 2 18.1645 144.846 17.1233
4495 1 17.2548 143.267 18.4077
10747 2 20.8926 143.267 17.1207
4493 1 19.9829 144.846 18.4103
11957 2 1.79581 148.003 17.1255
5448 1 0.886062 146.426 18.412
11608 2 4.52387 146.424 17.1249
5446 1 3.61424 148.005 18.4126
11606 2 7.25205 148.003 17.1255
5099 1 6.3423 146.426 18.412
5101 1 9.07048 148.005 18.4126
11275 2 9.98011 146.424 17.1249
4759 1 11.7985 146.426 18.412
10960 2 15.4363 146.424 17.1249
11277 2 12.7083 148.003 17.1255
4757 1 14.5267 148.005 18.4126
10958 2 18.1645 148.003 17.1255
4494 1 17.2548 146.426 18.412
10746 2 20.8926 146.424 17.1249
4496 1 19.983 148.005 18.4126
5447 1 0.88622 149.584 18.4122
11607 2 4.52403 149.581 17.1252
5081 1 6.34246 149.584 18.4122
11249 2 9.98027 149.581 17.1252
4758 1 11.7987 149.584 18.4122
10959 2 15.4365 149.581 17.1252
4464 1 17.2549 149.584 18.4122
10719 2 20.8927 149.581 17.1252
11845 2 2.72723 102.246 19.2915
5326 1 4.54435 102.231 20.5817
11510 2 8.18347 102.246 19.2915
5010 1 10.0006 102.231 20.5817
4670 1 15.4568 102.231 20.5817
11178 2 13.6397 102.246 19.2915
4400 1 20.9131 102.231 20.5817
10877 2 19.0959 102.246 19.2915
5643 1 1.81396 103.804 20.6079
11807 2 2.7229 105.392 19.3433
12106 2 -0.00313463 103.819 19.3178
5325 1 4.53999 105.377 20.6334
11846 2 5.4531 103.819 19.3178
5324 1 7.2702 103.804 20.6079
11509 2 8.17913 105.392 19.3433
4986 1 9.99623 105.377 20.6334
11508 2 10.9093 103.819 19.3178
4669 1 15.4525 105.377 20.6334
5011 1 12.7264 103.804 20.6079
11162 2 13.6354 105.392 19.3433
4668 1 18.1827 103.804 20.6079
11179 2 16.3656 103.819 19.3178
4399 1 20.9087 105.377 20.6334
10876 2 19.0916 105.392 19.3433
5603 1 1.80998 106.951 20.658
11806 2 2.71919 108.541 19.3921
12107 2 -0.00715317 106.966 19.3681
5286 1 4.53637 108.526 20.6818
11805 2 5.44909 106.966 19.3681
5327 1 7.26621 106.951 20.658
11478 2 8.17543 108.541 19.3921
4985 1 9.99261 108.526 20.6818
11511 2 10.9053 106.966 19.3681
4654 1 15.4489 108.526 20.6818
4984 1 12.7225 106.951 20.658
11161 2 13.6317 108.541 19.3921
4671 1 18.1787 106.951 20.658
11160 2 16.3616 106.966 19.3681
4398 1 20.9051 108.526 20.6818
10869 2 19.0879 108.541 19.3921
5604 1 1.8067 110.102 20.7047
11762 2 2.7161 111.692 19.4375
5285 1 4.53342 111.678 20.7268
11808 2 5.44569 110.116 19.4152
5284 1 7.26294 110.102 20.7047
11477 2 8.17234 111.692 19.4375
4954 1 9.98966 111.678 20.7268
11476 2 10.9019 110.116 19.4152
4653 1 15.4459 111.678 20.7268
4987 1 12.7192 110.102 20.7047
11138 2 13.6286 111.692 19.4375
4652 1 18.1754 110.102 20.7047
11163 2 16.3582 110.116 19.4152
12070 2 21.8144 110.116 19.4152
4391 1 20.9021 111.678 20.7268
10868 2 19.0848 111.692 19.4375
5563 1 1.80405 113.254 20.748
11761 2 2.71355 114.845 19.4795
5239 1 4.53105 114.832 20.7683
11760 2 5.44288 113.268 19.4589
5287 1 7.26029 113.254 20.748
11438 2 8.16979 114.845 19.4795
4953 1 9.98729 114.832 20.7683
11479 2 10.8991 113.268 19.4589
4630 1 15.4435 114.832 20.7683
4952 1 12.7165 113.254 20.748
11137 2 13.626 114.845 19.4795
4655 1 18.1728 113.254 20.748
11136 2 16.3554 113.268 19.4589
12071 2 21.8116 113.268 19.4589
4390 1 20.8998 114.832 20.7683
10853 2 19.0823 114.845 19.4795
5564 1 1.80193 116.409 20.7878
11716 2 2.71147 117.999 19.518
5238 1 4.52915 117.987 20.8063
11763 2 5.44058 116.422 19.4992
5237 1 7.25817 116.409 20.7878
11437 2 8.16771 117.999 19.518
4914 1 9.98539 117.987 20.8063
11436 2 10.8968 116.422 19.4992
4629 1 15.4416 117.987 20.8063
4955 1 12.7144 116.409 20.7878
11106 2 13.624 117.999 19.518
4628 1 18.1706 116.409 20.7878
11139 2 16.3531 116.422 19.4992
12034 2 21.8093 116.422 19.4992
4375 1 20.8979 117.987 20.8063
10852 2 19.0802 117.999 19.518
5524 1 1.80024 119.566 20.824
11715 2 2.70979 121.155 19.5529
5192 1 4.52765 121.145 20.8408
11714 2 5.43871 119.577 19.5359
5240 1 7.25648 119.566 20.824
11391 2 8.16603 121.155 19.5529
4913 1 9.98389 121.145 20.8408
11439 2 10.8949 119.577 19.5359
4598 1 15.4401 121.145 20.8408
4912 1 12.7127 119.566 20.824
11105 2 13.6223 121.155 19.5529
4631 1 18.169 119.566 20.824
11104 2 16.3512 119.577 19.5359
12035 2 21.8074 119.577 19.5359
4374 1 20.8964 121.145 20.8408
10829 2 19.0785 121.155 19.5529
5525 1 1.79891 122.724 20.8567
11676 2 2.70844 124.312 19.5841
5191 1 4.52647 124.303 20.8717
11717 2 5.4372 122.734 19.5689
5190 1 7.25514 122.724 20.8567
11390 2 8.16468 124.312 19.5841
4868 1 9.98271 124.303 20.8717
11389 2 10.8934 122.734 19.5689
4597 1 15.4389 124.303 20.8717
4915 1 12.7114 122.724 20.8567
11067 2 13.6209 124.312 19.5841
4596 1 18.1676 122.724 20.8567
11107 2 16.3497 122.734 19.5689
12002 2 21.8059 122.734 19.5689
4352 1 20.8952 124.303 20.8717
10828 2 19.0772 124.312 19.5841
5492 1 1.79786 125.883 20.8858
11674 2 5.43599 125.891 19.5983
5193 1 7.2541 125.883 20.8858
11392 2 10.8922 125.891 19.5983
4866 1 12.7103 125.883 20.8858
4599 1 18.1666 125.883 20.8858
11065 2 16.3485 125.891 19.5983
12003 2 21.8047 125.891 19.5983
5493 1 1.79705 129.042 20.9111
11675 2 2.70737 127.47 19.6115
5152 1 4.52555 127.462 20.8989
11677 2 5.43505 129.049 19.6239
5150 1 7.25329 129.042 20.9111
11344 2 8.16361 127.47 19.6115
4867 1 9.98178 127.462 20.8989
11342 2 10.8913 129.049 19.6239
4562 1 15.438 127.462 20.8989
4869 1 12.7095 129.042 20.9111
11066 2 13.6198 127.47 19.6115
4560 1 18.1658 129.042 20.9111
11068 2 16.3475 129.049 19.6239
11978 2 21.8038 129.049 19.6239
4351 1 20.8943 127.462 20.8989
10801 2 19.0761 127.47 19.6115
5468 1 1.79644 132.203 20.9327
11644 2 2.70654 130.629 19.6352
5151 1 4.52484 130.622 20.9224
11642 2 5.43432 132.208 19.6456
5153 1 7.25267 132.203 20.9327
11343 2 8.16278 130.629 19.6352
4823 1 9.98108 130.622 20.9224
11345 2 10.8906 132.208 19.6456
4561 1 15.4373 130.622 20.9224
4821 1 12.7089 132.203 20.9327
11027 2 13.619 130.629 19.6352
4563 1 18.1652 132.203 20.9327
11025 2 16.3468 132.208 19.6456
11979 2 21.803 132.208 19.6456
4328 1 20.8936 130.622 20.9224
10800 2 19.0753 130.629 19.6352
5469 1 1.79599 135.363 20.9505
11643 2 2.70591 133.788 19.6551
5120 1 4.52431 133.783 20.9421
11645 2 5.43378 135.367 19.6636
5118 1 7.25223 135.363 20.9505
11304 2 8.16215 133.788 19.6551
4822 1 9.98055 133.783 20.9421
11302 2 10.89 135.367 19.6636
4526 1 15.4368 133.783 20.9421
4824 1 12.7085 135.363 20.9505
11026 2 13.6184 133.788 19.6551
4524 1 18.1647 135.363 20.9505
11028 2 16.3463 135.367 19.6636
11962 2 21.8025 135.367 19.6636
4327 1 20.893 133.783 20.9421
10773 2 19.0746 133.788 19.6551
5452 1 1.79569 138.524 20.9644
11620 2 2.70546 136.947 19.6711
5119 1 4.52394 136.944 20.9579
11618 2 5.43341 138.527 19.6776
5121 1 7.25193 138.524 20.9644
11303 2 8.1617 136.947 19.6711
4785 1 9.98018 136.944 20.9579
11305 2 10.8897 138.527 19.6776
4525 1 15.4364 136.944 20.9579
4783 1 12.7082 138.524 20.9644
10988 2 13.6179 136.947 19.6711
4527 1 18.1644 138.524 20.9644
10986 2 16.3459 138.527 19.6776
11963 2 21.8021 138.527 19.6776
4304 1 20.8927 136.944 20.9579
10772 2 19.0742 136.947 19.6711
5453 1 1.79553 141.686 20.9744
11619 2 2.70517 140.107 19.6832
5096 1 4.52372 140.105 20.9699
11621 2 5.4332 141.687 19.6877
5094 1 7.25177 141.686 20.9744
11272 2 8.16141 140.107 19.6832
4784 1 9.97995 140.105 20.9699
11270 2 10.8894 141.687 19.6877
4491 1 15.4362 140.105 20.9699
4786 1 12.708 141.686 20.9744
10987 2 13.6176 140.107 19.6832
4489 1 18.1642 141.686 20.9744
10989 2 16.3457 141.687 19.6877
11954 2 21.8019 141.687 19.6877
4303 1 20.8924 140.105 20.9699
10745 2 19.0739 140.107 19.6832
5444 1 1.7955 144.847 20.9806
11604 2 2.70504 143.267 19.6913
5095 1 4.52362 143.266 20.978
11602 2 5.43314 144.847 19.6939
5097 1 7.25174 144.847 20.9806
11271 2 8.16127 143.267 19.6913
4755 1 9.97986 143.266 20.978
11273 2 10.8894 144.847 19.6939
4490 1 15.4361 143.266 20.978
4753 1 12.708 144.847 20.9806
10956 2 13.6175 143.267 19.6913
4492 1 18.1642 144.847 20.9806
10954 2 16.3456 144.847 19.6939
11955 2 21.8019 144.847 19.6939
4280 1 20.8923 143.266 20.978
10744 2 19.0738 143.267 19.6913
5445 1 1.79559 148.009 20.9828
11603 2 2.70505 146.427 19.6955
5080 1 4.52365 146.428 20.9822
11605 2 5.43323 148.007 19.6961
5078 1 7.25183 148.009 20.9828
11248 2 8.16129 146.427 19.6955
4754 1 9.97989 146.428 20.9822
11246 2 10.8895 148.007 19.6961
4463 1 15.4361 146.428 20.9822
4756 1 12.7081 148.009 20.9828
10955 2 13.6175 146.427 19.6955
4461 1 18.1643 148.009 20.9828
10957 2 16.3457 148.007 19.6961
11953 2 21.8019 148.007 19.6961
4279 1 20.8924 146.428 20.9822
10718 2 19.0738 146.427 19.6955
11593 2 2.7052 149.587 19.6958
5079 1 4.5238 149.589 20.9824
11247 2 8.16144 149.587 19.6958
4730 1 9.98004 149.589 20.9824
4462 1 15.4363 149.589 20.9824
10929 2 13.6177 149.587 19.6958
4256 1 20.8925 149.589 20.9824
10717 2 19.0739 149.587 19.6958
5322 1 2.7217 102.196 23.1612
11803 2 0.905039 102.213 21.8704
11470 2 4.53839 102.176 24.4497
4982 1 8.17793 102.196 23.1612
11506 2 6.36128 102.213 21.8704
11158 2 11.8175 102.213 21.8704
11154 2 9.99463 102.176 24.4497
4666 1 13.6342 102.196 23.1612
10862 2 15.4509 102.176 24.4497
10874 2 17.2738 102.213 21.8704
4397 1 19.0904 102.196 23.1612
10656 2 20.9071 102.176 24.4497
5282 1 2.71762 105.343 23.2118
5601 1 -0.0085843 103.769 23.1869
11802 2 0.900849 105.36 21.9214
11800 2 1.80826 103.75 24.475
5323 1 5.44765 103.769 23.1869
11801 2 3.63096 103.786 21.8963
11469 2 4.53463 105.325 24.4994
4981 1 8.17385 105.343 23.2118
11474 2 6.35709 105.36 21.9214
11507 2 9.0872 103.786 21.8963
11468 2 7.2645 103.75 24.475
4980 1 10.9039 103.769 23.1869
11157 2 11.8133 105.36 21.9214
11130 2 9.99086 105.325 24.4994
4650 1 13.6301 105.343 23.2118
11156 2 14.5434 103.786 21.8963
10861 2 15.4471 105.325 24.4994
11155 2 12.7207 103.75 24.475
4667 1 16.3601 103.769 23.1869
10866 2 17.2696 105.36 21.9214
10860 2 18.177 103.75 24.475
4396 1 19.0863 105.343 23.2118
10875 2 19.9997 103.786 21.8963
10655 2 20.9033 105.325 24.4994
5281 1 2.71443 108.494 23.2588
11758 2 0.897467 108.51 21.969
11754 2 1.80499 106.901 24.523
5280 1 5.44404 106.918 23.2357
11804 2 3.62718 106.935 21.9456
4950 1 8.17067 108.494 23.2588
11472 2 9.08342 106.935 21.9456
11473 2 6.35371 108.51 21.969
11471 2 7.26122 106.901 24.523
4983 1 10.9003 106.918 23.2357
11134 2 11.8099 108.51 21.969
4649 1 13.6269 108.494 23.2588
11159 2 14.5397 106.935 21.9456
11128 2 12.7175 106.901 24.523
4648 1 16.3565 106.918 23.2357
10865 2 17.2662 108.51 21.969
10863 2 18.1737 106.901 24.523
5602 1 21.8128 106.918 23.2357
4389 1 19.0831 108.494 23.2588
10864 2 19.9959 106.935 21.9456
5235 1 2.71199 111.648 23.3025
11757 2 0.894783 111.663 22.0133
5283 1 5.44125 110.071 23.2811
11756 2 3.62416 110.086 21.9916
4949 1 8.16823 111.648 23.3025
11434 2 6.35102 111.663 22.0133
11475 2 9.0804 110.086 21.9916
4948 1 10.8975 110.071 23.2811
11133 2 11.8073 111.663 22.0133
4626 1 13.6245 111.648 23.3025
11132 2 14.5366 110.086 21.9916
4651 1 16.3537 110.071 23.2811
10850 2 17.2635 111.663 22.0133
5561 1 21.81 110.071 23.2811
4388 1 19.0807 111.648 23.3025
10867 2 19.9929 110.086 21.9916
5234 1 2.71014 114.805 23.3428
11712 2 0.892676 114.818 22.0542
5233 1 5.43912 113.226 23.3231
11759 2 3.62178 113.24 22.0342
4910 1 8.16638 114.805 23.3428
11432 2 9.07802 113.24 22.0342
11433 2 6.34891 114.818 22.0542
4951 1 10.8954 113.226 23.3231
11102 2 11.8052 114.818 22.0542
4625 1 13.6226 114.805 23.3428
11135 2 14.5343 113.24 22.0342
4624 1 16.3516 113.226 23.3231
10849 2 17.2614 114.818 22.0542
5562 1 21.8078 113.226 23.3231
4373 1 19.0789 114.805 23.3428
10848 2 19.9905 113.24 22.0342
5188 1 2.70874 117.963 23.3798
11711 2 0.891032 117.975 22.0917
5236 1 5.43751 116.384 23.3617
11710 2 3.61992 116.397 22.0734
4909 1 8.16498 117.963 23.3798
11387 2 6.34727 117.975 22.0917
11435 2 9.07616 116.397 22.0734
4908 1 10.8937 116.384 23.3617
11101 2 11.8035 117.975 22.0917
4594 1 13.6212 117.963 23.3798
11100 2 14.5324 116.397 22.0734
4627 1 16.35 116.384 23.3617
10826 2 17.2597 117.975 22.0917
5522 1 21.8062 116.384 23.3617
4372 1 19.0775 117.963 23.3798
10851 2 19.9886 116.397 22.0734
5187 1 2.70769 121.123 23.4133
11672 2 0.889756 121.134 22.1256
5186 1 5.4363 119.543 23.397
11713 2 3.61847 119.554 22.1091
4864 1 8.16393 121.123 23.4133
11385 2 9.07471 119.554 22.1091
11386 2 6.34599 121.134 22.1256
4911 1 10.8925 119.543 23.397
11063 2 11.8022 121.134 22.1256
4593 1 13.6202 121.123 23.4133
11103 2 14.5309 119.554 22.1091
4592 1 16.3488 119.543 23.397
10825 2 17.2585 121.134 22.1256
5523 1 21.805 119.543 23.397
4350 1 19.0764 121.123 23.4133
10824 2 19.9872 119.554 22.1091
5148 1 2.70691 124.284 23.4434
11671 2 0.888771 124.294 22.1561
5189 1 5.43539 122.704 23.4288
11670 2 3.61735 122.714 22.1413
4863 1 8.16314 124.284 23.4434
11340 2 6.34501 124.294 22.1561
11388 2 9.07359 122.714 22.1413
4862 1 10.8916 122.704 23.4288
11062 2 11.8012 124.294 22.1561
4558 1 13.6194 124.284 23.4434
11061 2 14.5298 122.714 22.1413
4595 1 16.3479 122.704 23.4288
10798 2 17.2575 124.294 22.1561
5490 1 21.8041 122.704 23.4288
4349 1 19.0756 124.284 23.4434
10827 2 19.9861 122.714 22.1413
5147 1 2.70632 127.447 23.47
5146 1 5.43471 125.865 23.4571
11673 2 3.61649 125.874 22.17
11338 2 9.07273 125.874 22.17
4819 1 8.16256 127.447 23.47
4865 1 10.8909 125.865 23.4571
11064 2 14.529 125.874 22.17
4557 1 13.6188 127.447 23.47
4556 1 16.3472 125.865 23.4571
5491 1 21.8034 125.865 23.4571
10796 2 19.9852 125.874 22.17
4326 1 19.075 127.447 23.47
11640 2 0.888017 127.455 22.183
5149 1 5.43421 129.028 23.4819
11638 2 3.61583 129.035 22.195
11339 2 6.34426 127.455 22.183
11341 2 9.07207 129.035 22.195
4817 1 10.8905 129.028 23.4819
11023 2 11.8005 127.455 22.183
11021 2 14.5283 129.035 22.195
4559 1 16.3467 129.028 23.4819
10797 2 17.2567 127.455 22.183
5466 1 21.8029 129.028 23.4819
10799 2 19.9845 129.035 22.195
5116 1 2.7059 130.61 23.4929
11639 2 0.887451 130.616 22.2062
5114 1 5.43386 132.191 23.503
11641 2 3.61535 132.197 22.2164
4818 1 8.16214 130.61 23.4929
11298 2 9.07158 132.197 22.2164
11300 2 6.34369 130.616 22.2062
4820 1 10.8901 132.191 23.503
11022 2 11.7999 130.616 22.2062
4522 1 13.6184 130.61 23.4929
11024 2 14.5278 132.197 22.2164
4520 1 16.3463 132.191 23.503
10770 2 17.2562 130.616 22.2062
5467 1 21.8026 132.191 23.503
4325 1 19.0746 130.61 23.4929
10768 2 19.9841 132.197 22.2164
5115 1 2.70561 133.773 23.5122
11616 2 0.887039 133.778 22.2256
5117 1 5.43362 135.355 23.5205
11614 2 3.615 135.359 22.2339
4781 1 8.16184 133.773 23.5122
11299 2 6.34328 133.778 22.2256
11301 2 9.07124 135.359 22.2339
4779 1 10.8899 135.355 23.5205
10984 2 11.7995 133.778 22.2256
4521 1 13.6181 133.773 23.5122
10982 2 14.5275 135.359 22.2339
4523 1 16.3461 135.355 23.5205
10769 2 17.2558 133.778 22.2256
5450 1 21.8023 135.355 23.5205
4302 1 19.0743 133.773 23.5122
10771 2 19.9837 135.359 22.2339
5092 1 2.70542 136.937 23.5278
11615 2 0.88676 136.94 22.2413
5090 1 5.43348 138.519 23.5341
11617 2 3.61478 138.522 22.2477
4780 1 8.16166 136.937 23.5278
11266 2 9.07102 138.522 22.2477
11268 2 6.343 136.94 22.2413
4782 1 10.8897 138.519 23.5341
10983 2 11.7992 136.94 22.2413
4487 1 13.6179 136.937 23.5278
10985 2 14.5273 138.522 22.2477
4485 1 16.346 138.519 23.5341
10742 2 17.2555 136.94 22.2413
5451 1 21.8022 138.519 23.5341
4301 1 19.0741 136.937 23.5278
10740 2 19.9835 138.522 22.2477
5091 1 2.70532 140.101 23.5395
11600 2 0.886598 140.103 22.2532
5093 1 5.43342 141.684 23.544
11598 2 3.61468 141.685 22.2577
4751 1 8.16156 140.101 23.5395
11267 2 6.34284 140.103 22.2532
11269 2 9.07092 141.685 22.2577
4749 1 10.8897 141.684 23.544
10952 2 11.7991 140.103 22.2532
4486 1 13.6178 140.101 23.5395
10950 2 14.5272 141.685 22.2577
4488 1 16.3459 141.684 23.544
10741 2 17.2553 140.103 22.2532
5442 1 21.8021 141.684 23.544
4278 1 19.074 140.101 23.5395
10743 2 19.9834 141.685 22.2577
5076 1 2.70531 143.266 23.5475
11599 2 0.886544 143.266 22.2612
5074 1 5.43345 144.848 23.55
11601 2 3.61468 144.848 22.2638
4750 1 8.16155 143.266 23.5475
11242 2 9.07091 144.848 22.2638
11244 2 6.34278 143.266 22.2612
4752 1 10.8897 144.848 23.55
10951 2 11.799 143.266 22.2612
4459 1 13.6178 143.266 23.5475
10953 2 14.5272 144.848 22.2638
4457 1 16.3459 144.848 23.55
10715 2 17.2553 143.266 22.2612
5443 1 21.8022 144.848 23.55
4277 1 19.074 143.266 23.5475
10713 2 19.9834 144.848 22.2638
5075 1 2.70538 146.43 23.5516
11592 2 0.886593 146.429 22.2653
5077 1 5.43356 148.013 23.5522
11590 2 3.61477 148.011 22.266
4729 1 8.16162 146.43 23.5516
11243 2 6.34283 146.429 22.2653
11245 2 9.07101 148.011 22.266
4727 1 10.8898 148.013 23.5522
10928 2 11.7991 146.429 22.2653
4458 1 13.6179 146.43 23.5516
10926 2 14.5273 148.011 22.266
4460 1 16.346 148.013 23.5522
10714 2 17.2553 146.429 22.2653
5441 1 21.8023 148.013 23.5522
4255 1 19.0741 146.43 23.5516
10716 2 19.9835 148.011 22.266
5065 1 2.70552 149.595 23.5519
11591 2 0.886741 149.592 22.2656
4728 1 8.16176 149.595 23.5519
11225 2 6.34298 149.592 22.2656
10927 2 11.7992 149.592 22.2656
4436 1 13.618 149.595 23.5519
10692 2 17.2555 149.592 22.2656
4254 1 19.0742 149.595 23.5519
5278 1 0.89838 102.157 25.741
11466 2 2.715 102.135 27.0288
11467 2 5.44147 103.71 27.0533
4978 1 6.35462 102.157 25.741
11126 2 8.17124 102.135 27.0288
4646 1 11.8109 102.157 25.741
11124 2 10.8977 103.71 27.0533
10858 2 13.6275 102.135 27.0288
4394 1 17.2671 102.157 25.741
10859 2 16.3539 103.71 27.0533
10653 2 19.0837 102.135 27.0288
11752 2 21.8102 103.71 27.0533
5277 1 0.894895 105.307 25.7899
11426 2 2.71198 105.287 27.0769
5276 1 3.62462 103.731 25.7659
4946 1 6.35113 105.307 25.7899
4979 1 9.08086 103.731 25.7659
11125 2 8.16822 105.287 27.0769
4645 1 11.8074 105.307 25.7899
4644 1 14.5371 103.731 25.7659
10842 2 13.6245 105.287 27.0769
4386 1 17.2636 105.307 25.7899
4395 1 19.9933 103.731 25.7659
10652 2 19.0807 105.287 27.0769
5231 1 0.892394 108.46 25.8354
11425 2 2.70992 108.442 27.1216
5279 1 3.62166 106.883 25.8131
11430 2 4.53179 108.477 24.5457
11424 2 5.43897 106.864 27.0996
4944 1 9.07789 106.883 25.8131
4945 1 6.34863 108.46 25.8354
11094 2 8.16616 108.442 27.1216
4622 1 11.8049 108.46 25.8354
11129 2 9.98803 108.477 24.5457
11127 2 10.8952 106.864 27.0996
4647 1 14.5341 106.883 25.8131
10846 2 15.4443 108.477 24.5457
10841 2 13.6224 108.442 27.1216
4385 1 17.2611 108.46 25.8354
10840 2 16.3514 106.864 27.0996
4384 1 19.9904 106.883 25.8131
10654 2 20.9005 108.477 24.5457
11753 2 21.8077 106.864 27.0996
10645 2 19.0786 108.442 27.1216
5230 1 0.890637 111.617 25.8776
11755 2 1.80254 110.055 24.5676
11379 2 2.70856 111.601 27.163
5229 1 3.61956 110.038 25.8569
11429 2 4.52969 111.633 24.5886
11427 2 5.43729 110.021 27.1427
4906 1 6.34688 111.617 25.8776
4947 1 9.07579 110.038 25.8569
11428 2 7.25878 110.055 24.5676
11093 2 8.1648 111.601 27.163
4621 1 11.8031 111.617 25.8776
11098 2 9.98593 111.633 24.5886
11092 2 10.8935 110.021 27.1427
4620 1 14.532 110.038 25.8569
10845 2 15.4422 111.633 24.5886
11131 2 12.715 110.055 24.5676
10818 2 13.621 111.601 27.163
4370 1 17.2594 111.617 25.8776
10844 2 18.1713 110.055 24.5676
10843 2 16.3498 110.021 27.1427
4387 1 19.9883 110.038 25.8569
10647 2 20.8984 111.633 24.5886
11706 2 21.806 110.021 27.1427
10644 2 19.0773 111.601 27.163
5184 1 0.889423 114.777 25.9166
11708 2 1.80074 113.212 24.6089
11378 2 2.70768 114.762 27.2014
5232 1 3.61809 113.197 25.8975
11383 2 4.52815 114.791 24.6283
11377 2 5.43619 113.181 27.1826
4904 1 9.07433 113.197 25.8975
4905 1 6.34566 114.777 25.9166
11431 2 7.25698 113.212 24.6089
11055 2 8.16392 114.762 27.2014
4590 1 11.8019 114.777 25.9166
11097 2 9.98439 114.791 24.6283
11095 2 10.8924 113.181 27.1826
4623 1 14.5306 113.197 25.8975
10822 2 15.4406 114.791 24.6283
11096 2 12.7132 113.212 24.6089
10817 2 13.6202 114.762 27.2014
4369 1 17.2581 114.777 25.9166
10847 2 18.1695 113.212 24.6089
10816 2 16.3487 113.181 27.1826
4368 1 19.9868 113.197 25.8975
10646 2 20.8969 114.791 24.6283
11707 2 21.8049 113.181 27.1826
10630 2 19.0764 114.762 27.2014
5183 1 0.888599 117.938 25.9524
11709 2 1.79943 116.371 24.6469
11332 2 2.70715 117.925 27.2367
5182 1 3.61709 116.357 25.9349
11382 2 4.52703 117.951 24.6647
11380 2 5.4355 116.344 27.2195
4860 1 6.34484 117.938 25.9524
4907 1 9.07333 116.357 25.9349
11381 2 7.25567 116.371 24.6469
11054 2 8.16339 117.925 27.2367
4589 1 11.8011 117.938 25.9524
11059 2 9.98327 117.951 24.6647
11053 2 10.8917 116.344 27.2195
4588 1 14.5296 116.357 25.9349
10821 2 15.4395 117.951 24.6647
11099 2 12.7119 116.371 24.6469
10790 2 13.6196 117.925 27.2367
4347 1 17.2573 117.938 25.9524
10820 2 18.1681 116.371 24.6469
10819 2 16.348 116.344 27.2195
4371 1 19.9858 116.357 25.9349
10632 2 20.8957 117.951 24.6647
11666 2 21.8042 116.344 27.2195
10629 2 19.0759 117.925 27.2367
5144 1 0.888051 121.101 25.985
11668 2 1.79848 119.531 24.6816
11331 2 2.70684 121.09 27.2689
5185 1 3.61642 119.52 25.9691
11336 2 4.52622 121.112 24.6977
11330 2 5.43509 119.508 27.2532
4858 1 9.07265 119.52 25.9691
4859 1 6.34429 121.101 25.985
11384 2 7.25471 119.531 24.6816
11015 2 8.16308 121.09 27.2689
4554 1 11.8005 121.101 25.985
11058 2 9.98246 121.112 24.6977
11056 2 10.8913 119.508 27.2532
4591 1 14.5289 119.52 25.9691
10794 2 15.4387 121.112 24.6977
11057 2 12.711 119.531 24.6816
10789 2 13.6193 121.09 27.2689
4346 1 17.2568 121.101 25.985
10823 2 18.1672 119.531 24.6816
10788 2 16.3476 119.508 27.2532
4345 1 19.9851 119.52 25.9691
10631 2 20.8949 121.112 24.6977
11667 2 21.8038 119.508 27.2532
10614 2 19.0756 121.09 27.2689
5143 1 0.887697 124.266 26.0143
11669 2 1.79779 122.694 24.713
11292 2 2.70669 124.256 27.2978
5142 1 3.61597 122.683 26.0001
11335 2 4.52565 124.275 24.7274
11333 2 5.43487 122.673 27.2838
4815 1 6.34394 124.266 26.0143
4861 1 9.07221 122.683 26.0001
11334 2 7.25403 122.694 24.713
11014 2 8.16293 124.256 27.2978
4553 1 11.8002 124.266 26.0143
11019 2 9.98189 124.275 24.7274
11013 2 10.8911 122.673 27.2838
4552 1 14.5284 122.683 26.0001
10793 2 15.4381 124.275 24.7274
11060 2 12.7103 122.694 24.713
10762 2 13.6192 124.256 27.2978
4323 1 17.2564 124.266 26.0143
10792 2 18.1665 122.694 24.713
10791 2 16.3473 122.673 27.2838
4348 1 19.9847 122.683 26.0001
10616 2 20.8944 124.275 24.7274
11634 2 21.8036 122.673 27.2838
10613 2 19.0754 124.256 27.2978
11636 2 1.79731 125.857 24.741
5112 1 0.887478 127.431 26.0402
11291 2 2.70664 127.423 27.3235
5145 1 3.61569 125.848 26.0277
11296 2 4.52524 127.439 24.7536
11290 2 5.43478 125.839 27.3111
4813 1 9.07193 125.848 26.0277
11337 2 7.25354 125.857 24.741
4814 1 6.34372 127.431 26.0402
10976 2 8.16288 127.423 27.3235
4518 1 11.8 127.431 26.0402
11018 2 9.98148 127.439 24.7536
11016 2 10.891 125.839 27.3111
4555 1 14.5282 125.848 26.0277
11017 2 12.7098 125.857 24.741
10766 2 15.4377 127.439 24.7536
10761 2 13.6191 127.423 27.3235
10795 2 18.166 125.857 24.741
4322 1 17.2562 127.431 26.0402
10760 2 16.3473 125.839 27.3111
4321 1 19.9844 125.848 26.0277
10615 2 20.894 127.439 24.7536
11635 2 21.8035 125.839 27.3111
10598 2 19.0754 127.423 27.3235
11637 2 1.79697 129.021 24.7654
5110 1 3.61553 129.014 26.0519
11293 2 5.43476 129.007 27.335
4816 1 9.07176 129.014 26.0519
11294 2 7.25321 129.021 24.7654
10974 2 10.891 129.007 27.335
4516 1 14.528 129.014 26.0519
11020 2 12.7094 129.021 24.7654
10764 2 18.1657 129.021 24.7654
10763 2 16.3472 129.007 27.335
4324 1 19.9842 129.014 26.0519
11610 2 21.8035 129.007 27.335
5111 1 0.887354 130.597 26.0627
11612 2 1.79674 132.186 24.7863
11260 2 2.70666 130.591 27.3457
5113 1 3.61544 132.18 26.0726
11295 2 4.52496 130.603 24.7763
11258 2 5.4348 132.174 27.3555
4775 1 9.07168 132.18 26.0726
4777 1 6.34359 130.597 26.0627
11297 2 7.25298 132.186 24.7863
10975 2 8.16289 130.591 27.3457
4517 1 11.7998 130.597 26.0627
10980 2 9.9812 130.603 24.7763
10977 2 10.891 132.174 27.3555
4519 1 14.5279 132.18 26.0726
10765 2 15.4374 130.603 24.7763
10978 2 12.7092 132.186 24.7863
10734 2 13.6191 130.591 27.3457
4299 1 17.2561 130.597 26.0627
10767 2 18.1655 132.186 24.7863
10732 2 16.3473 132.174 27.3555
4297 1 19.9842 132.18 26.0726
10600 2 20.8937 130.603 24.7763
11611 2 21.8035 132.174 27.3555
10597 2 19.0754 130.591 27.3457
5088 1 0.887299 133.763 26.0816
11613 2 1.79661 135.351 24.8036
11259 2 2.70671 133.759 27.3644
5086 1 3.61541 135.347 26.0897
11264 2 4.52478 133.768 24.7954
4776 1 6.34354 133.763 26.0816
4778 1 9.07165 135.347 26.0897
11262 2 7.25284 135.351 24.8036
10944 2 8.16295 133.759 27.3644
4483 1 11.7998 133.763 26.0816
10979 2 9.98102 133.768 24.7954
4481 1 14.5279 135.347 26.0897
10738 2 15.4373 133.768 24.7954
10981 2 12.7091 135.351 24.8036
10733 2 13.6192 133.759 27.3644
4298 1 17.256 133.763 26.0816
10736 2 18.1653 135.351 24.8036
4300 1 19.9841 135.347 26.0897
10599 2 20.8935 133.768 24.7954
10582 2 19.0754 133.759 27.3644
5087 1 0.887295 136.93 26.0968
11596 2 1.79654 138.517 24.8171
5089 1 3.61543 138.514 26.1031
11263 2 4.52468 136.934 24.8108
4745 1 9.07167 138.514 26.1031
4747 1 6.34353 136.93 26.0968
11265 2 7.25278 138.517 24.8171
4482 1 11.7998 136.93 26.0968
10948 2 9.98092 136.934 24.8108
4484 1 14.5279 138.514 26.1031
10737 2 15.4372 136.934 24.8108
10946 2 12.709 138.517 24.8171
4275 1 17.256 136.93 26.0968
10739 2 18.1653 138.517 24.8171
4273 1 19.9841 138.514 26.1031
10584 2 20.8934 136.934 24.8108
5072 1 0.887333 140.098 26.1084
11597 2 1.79654 141.682 24.8269
5070 1 3.61549 141.681 26.1128
11240 2 4.52465 140.099 24.8225
4746 1 6.34357 140.098 26.1084
4748 1 9.07172 141.681 26.1128
11238 2 7.25278 141.682 24.8269
4455 1 11.7998 140.098 26.1084
10947 2 9.98089 140.099 24.8225
4453 1 14.528 141.681 26.1128
10711 2 15.4371 140.099 24.8225
10949 2 12.709 141.682 24.8269
4274 1 17.256 140.098 26.1084
10709 2 18.1653 141.682 24.8269
4276 1 19.9842 141.681 26.1128
10583 2 20.8934 140.099 24.8225
5071 1 0.887407 143.265 26.1162
11588 2 1.7966 144.848 24.8329
5073 1 3.61558 144.849 26.1187
11239 2 4.52468 143.265 24.8303
4723 1 9.07181 144.849 26.1187
4725 1 6.34365 143.265 26.1162
11241 2 7.25284 144.848 24.8329
4454 1 11.7999 143.265 26.1162
10924 2 9.98092 143.265 24.8303
4456 1 14.5281 144.849 26.1187
10710 2 15.4372 143.265 24.8303
10922 2 12.7091 144.848 24.8329
4252 1 17.2561 143.265 26.1162
10712 2 18.1653 144.848 24.8329
4250 1 19.9843 144.849 26.1187
10568 2 20.8934 143.265 24.8303
5064 1 0.887513 146.433 26.1203
11589 2 1.79671 148.014 24.835
5062 1 3.6157 148.016 26.1209
11224 2 4.52477 146.431 24.8344
4724 1 6.34375 146.433 26.1203
4726 1 9.07194 148.016 26.1209
11222 2 7.25295 148.014 24.835
4435 1 11.8 146.433 26.1203
10923 2 9.98101 146.431 24.8344
4433 1 14.5282 148.016 26.1209
10691 2 15.4372 146.431 24.8344
10925 2 12.7092 148.014 24.835
4251 1 17.2562 146.433 26.1203
10689 2 18.1654 148.014 24.835
4253 1 19.9844 148.016 26.1209
10567 2 20.8935 146.431 24.8344
5063 1 0.887651 149.6 26.1205
11223 2 4.52491 149.597 24.8347
4708 1 6.34389 149.6 26.1205
4434 1 11.8001 149.6 26.1205
10905 2 9.98115 149.597 24.8347
10690 2 15.4374 149.597 24.8347
4233 1 17.2564 149.6 26.1205
10552 2 20.8936 149.597 24.8347
11422 2 0.891468 102.089 29.6069
5275 1 1.80138 103.689 28.3441
4942 1 4.53091 102.113 28.3201
11420 2 3.61848 103.667 29.6304
11122 2 6.34771 102.089 29.6069
4940 1 7.25761 103.689 28.3441
11123 2 9.07471 103.667 29.6304
4642 1 9.98715 102.113 28.3201
10838 2 11.8039 102.089 29.6069
4382 1 15.4434 102.113 28.3201
4643 1 12.7139 103.689 28.3441
10836 2 14.531 103.667 29.6304
10650 2 17.2602 102.089 29.6069
4380 1 18.1701 103.689 28.3441
4208 1 20.8996 102.113 28.3201
10651 2 19.9872 103.667 29.6304
11421 2 0.889504 105.245 29.6531
4941 1 4.52836 105.267 28.3671
11090 2 6.34574 105.245 29.6531
4618 1 9.9846 105.267 28.3671
10837 2 11.802 105.245 29.6531
4381 1 15.4408 105.267 28.3671
10642 2 17.2582 105.245 29.6531
4207 1 20.8971 105.267 28.3671
5227 1 1.79935 106.845 28.3894
11375 2 0.888401 108.405 29.6961
4902 1 4.52677 108.424 28.4108
11423 2 3.61698 106.825 29.675
4943 1 7.25559 106.845 28.3894
11088 2 9.07322 106.825 29.675
11089 2 6.34464 108.405 29.6961
4617 1 9.98301 108.424 28.4108
10814 2 11.8009 108.405 29.6961
4366 1 15.4392 108.424 28.4108
4616 1 12.7118 106.845 28.3894
10839 2 14.5295 106.825 29.675
4383 1 18.1681 106.845 28.3894
10641 2 17.2571 108.405 29.6961
4206 1 20.8955 108.424 28.4108
10640 2 19.9857 106.825 29.675
5228 1 1.79811 110.004 28.4315
11374 2 0.887869 111.568 29.7361
4901 1 4.52583 111.585 28.4515
11373 2 3.6162 109.986 29.7165
4900 1 7.25435 110.004 28.4315
11051 2 6.34411 111.568 29.7361
11091 2 9.07244 109.986 29.7165
4586 1 9.98207 111.585 28.4515
10813 2 11.8003 111.568 29.7361
4365 1 15.4383 111.585 28.4515
4619 1 12.7106 110.004 28.4315
10812 2 14.5287 109.986 29.7165
4364 1 18.1668 110.004 28.4315
10627 2 17.2566 111.568 29.7361
4199 1 20.8945 111.585 28.4515
10643 2 19.9849 109.986 29.7165
5180 1 1.79742 113.166 28.4707
11328 2 0.887705 114.733 29.7733
4856 1 4.52533 114.748 28.4892
11376 2 3.61587 113.15 29.7551
4903 1 7.25366 113.166 28.4707
11049 2 9.07211 113.15 29.7551
11050 2 6.34394 114.733 29.7733
4585 1 9.98157 114.748 28.4892
10786 2 11.8002 114.733 29.7733
4343 1 15.4378 114.748 28.4892
4584 1 12.7099 113.166 28.4707
10815 2 14.5283 113.15 29.7551
4367 1 18.1661 113.166 28.4707
10626 2 17.2564 114.733 29.7733
4198 1 20.8941 114.748 28.4892
10625 2 19.9846 113.15 29.7551
5181 1 1.79708 116.33 28.507
11327 2 0.887771 117.9 29.8076
4855 1 4.52513 117.913 28.524
11326 2 3.61584 116.316 29.7908
4854 1 7.25332 116.33 28.507
11011 2 6.34401 117.9 29.8076
11052 2 9.07207 116.316 29.7908
4550 1 9.98137 117.913 28.524
10785 2 11.8002 117.9 29.8076
4342 1 15.4376 117.913 28.524
4587 1 12.7096 116.33 28.507
10784 2 14.5283 116.316 29.7908
4341 1 18.1658 116.33 28.507
10611 2 17.2565 117.9 29.8076
4187 1 20.8938 117.913 28.524
10628 2 19.9846 116.316 29.7908
5140 1 1.79698 119.496 28.5402
11288 2 0.887971 121.068 29.839
4811 1 4.5251 121.079 28.5557
11329 2 3.61598 119.483 29.8237
4857 1 7.25322 119.496 28.5402
11009 2 9.07222 119.483 29.8237
11010 2 6.34421 121.068 29.839
4549 1 9.98134 121.079 28.5557
10758 2 11.8004 121.068 29.839
4319 1 15.4376 121.079 28.5557
4548 1 12.7095 119.496 28.5402
10787 2 14.5285 119.483 29.8237
4344 1 18.1657 119.496 28.5402
10610 2 17.2567 121.068 29.839
4186 1 20.8938 121.079 28.5557
10609 2 19.9847 119.483 29.8237
5141 1 1.79701 122.663 28.5704
11287 2 0.888241 124.237 29.8673
4810 1 4.52518 124.247 28.5843
11286 2 3.61622 122.652 29.8535
4809 1 7.25325 122.663 28.5704
10972 2 6.34448 124.237 29.8673
11012 2 9.07246 122.652 29.8535
4514 1 9.98142 124.247 28.5843
10757 2 11.8007 124.237 29.8673
4318 1 15.4377 124.247 28.5843
4551 1 12.7095 122.663 28.5704
10756 2 14.5287 122.652 29.8535
4317 1 18.1657 122.663 28.5704
10595 2 17.257 124.237 29.8673
4175 1 20.8939 124.247 28.5843
10612 2 19.9849 122.652 29.8535
5108 1 1.79713 125.831 28.5973
11256 2 0.888539 127.407 29.8923
11289 2 3.61651 125.822 29.8802
4773 1 4.52533 127.415 28.6096
4812 1 7.25337 125.831 28.5973
10970 2 9.07275 125.822 29.8802
10971 2 6.34478 127.407 29.8923
4513 1 9.98157 127.415 28.6096
10730 2 11.801 127.407 29.8923
4512 1 12.7096 125.831 28.5973
10759 2 14.529 125.822 29.8802
4295 1 15.4378 127.415 28.6096
4320 1 18.1658 125.831 28.5973
10594 2 17.2573 127.407 29.8923
10593 2 19.9852 125.822 29.8802
4174 1 20.894 127.415 28.6096
5109 1 1.79729 128.999 28.621
11254 2 3.61681 128.992 29.9037
4771 1 7.25353 128.999 28.621
10973 2 9.07305 128.992 29.9037
4515 1 12.7098 128.999 28.621
10728 2 14.5293 128.992 29.9037
4293 1 18.166 128.999 28.621
10596 2 19.9855 128.992 29.9037
5084 1 1.79747 132.169 28.6413
11255 2 0.888836 130.578 29.9141
4772 1 4.5255 130.584 28.6316
11257 2 3.6171 132.163 29.9237
4774 1 7.25371 132.169 28.6413
10938 2 9.07334 132.163 29.9237
10940 2 6.34507 130.578 29.9141
4479 1 9.98174 130.584 28.6316
10729 2 11.8013 130.578 29.9141
4294 1 15.438 130.584 28.6316
4477 1 12.7099 132.169 28.6413
10731 2 14.5296 132.163 29.9237
4296 1 18.1662 132.169 28.6413
10579 2 17.2576 130.578 29.9141
4163 1 20.8942 130.584 28.6316
10577 2 19.9858 132.163 29.9237
5085 1 1.79765 135.339 28.6581
11232 2 0.889115 133.749 29.9325
4743 1 4.52568 133.754 28.6501
11230 2 3.61737 135.335 29.9404
11261 2 5.43487 135.343 27.3724
4741 1 7.25389 135.339 28.6581
10939 2 6.34535 133.749 29.9325
10941 2 9.0736 135.335 29.9404
4478 1 9.98192 133.754 28.6501
10703 2 11.8016 133.749 29.9325
10942 2 10.8911 135.343 27.3724
4271 1 15.4382 133.754 28.6501
4480 1 12.7101 135.339 28.6581
10701 2 14.5298 135.335 29.9404
4269 1 18.1664 135.339 28.6581
10578 2 17.2578 133.749 29.9325
10735 2 16.3473 135.343 27.3724
11594 2 21.8036 135.343 27.3724
4162 1 20.8944 133.754 28.6501
10580 2 19.9861 135.335 29.9404
5068 1 1.79782 138.509 28.6712
11231 2 0.88937 136.92 29.9473
11236 2 2.70679 136.927 27.3795
4742 1 4.52586 136.924 28.6651
11233 2 3.61761 138.506 29.9534
11234 2 5.43496 138.511 27.3857
4744 1 7.25406 138.509 28.6712
10914 2 9.07384 138.506 29.9534
10916 2 6.34561 136.92 29.9473
10943 2 8.16303 136.927 27.3795
4451 1 9.98209 136.924 28.6651
10702 2 11.8018 136.92 29.9473
10945 2 10.8912 138.511 27.3857
4270 1 15.4383 136.924 28.6651
4449 1 12.7103 138.509 28.6712
10704 2 14.5301 138.506 29.9534
10707 2 13.6193 136.927 27.3795
4272 1 18.1665 138.509 28.6712
10563 2 17.2581 136.92 29.9473
10705 2 16.3474 138.511 27.3857
11595 2 21.8037 138.511 27.3857
4151 1 20.8946 136.924 28.6651
10561 2 19.9863 138.506 29.9534
10581 2 19.0755 136.927 27.3795
5069 1 1.79799 141.679 28.6808
11216 2 0.889595 140.092 29.9586
11235 2 2.70689 140.096 27.3909
4721 1 4.52603 140.094 28.6765
11214 2 3.61781 141.678 29.9629
11237 2 5.43507 141.68 27.3953
4719 1 7.25422 141.679 28.6808
10915 2 6.34583 140.092 29.9586
10917 2 9.07405 141.678 29.9629
10920 2 8.16313 140.096 27.3909
4450 1 9.98226 140.094 28.6765
10683 2 11.8021 140.092 29.9586
10918 2 10.8913 141.68 27.3953
4248 1 15.4385 140.094 28.6765
4452 1 12.7105 141.679 28.6808
10681 2 14.5303 141.678 29.9629
10706 2 13.6194 140.096 27.3909
4246 1 18.1667 141.679 28.6808
10562 2 17.2583 140.092 29.9586
10708 2 16.3475 141.68 27.3953
11586 2 21.8038 141.68 27.3953
4150 1 20.8947 140.094 28.6765
10564 2 19.9865 141.678 29.9629
10566 2 19.0756 140.096 27.3909
5060 1 1.79814 144.85 28.6866
11215 2 0.889788 143.264 29.9662
11220 2 2.70701 143.265 27.3987
4720 1 4.52618 143.265 28.6842
11217 2 3.61799 144.85 29.9687
11218 2 5.43519 144.849 27.4012
4722 1 7.25438 144.85 28.6866
10898 2 9.07423 144.85 29.9687
10900 2 6.34603 143.264 29.9662
10919 2 8.16325 143.265 27.3987
4431 1 9.98242 143.265 28.6842
10682 2 11.8023 143.264 29.9662
10921 2 10.8914 144.849 27.4012
4247 1 15.4387 143.265 28.6842
4429 1 12.7106 144.85 28.6866
10684 2 14.5305 144.85 29.9687
10687 2 13.6195 143.265 27.3987
4249 1 18.1669 144.85 28.6866
10548 2 17.2585 143.264 29.9662
10685 2 16.3477 144.849 27.4012
11587 2 21.8039 144.849 27.4012
4139 1 20.8949 143.265 28.6842
10546 2 19.9867 144.85 29.9687
10565 2 19.0757 143.265 27.3987
5061 1 1.79827 148.02 28.6888
11208 2 0.889949 146.436 29.9702
11219 2 2.70713 146.434 27.4027
4707 1 4.52633 146.435 28.6882
11206 2 3.61814 148.022 29.9708
11221 2 5.43532 148.018 27.4033
4705 1 7.25451 148.02 28.6888
10899 2 6.34619 146.436 29.9702
10901 2 9.07437 148.022 29.9708
10904 2 8.16337 146.434 27.4027
4430 1 9.98256 146.435 28.6882
10671 2 11.8024 146.436 29.9702
10902 2 10.8916 148.018 27.4033
4232 1 15.4388 146.435 28.6882
4432 1 12.7108 148.02 28.6888
10669 2 14.5306 148.022 29.9708
10686 2 13.6196 146.434 27.4027
4230 1 18.167 148.02 28.6888
10547 2 17.2587 146.436 29.9702
10688 2 16.3478 148.018 27.4033
11585 2 21.804 148.018 27.4033
4138 1 20.895 146.435 28.6882
10549 2 19.9869 148.022 29.9708
10551 2 19.0758 146.434 27.4027
11207 2 0.890077 149.608 29.9705
11209 2 2.70727 149.603 27.403
4706 1 4.52646 149.606 28.6884
10889 2 6.34632 149.608 29.9705
10903 2 8.16351 149.603 27.403
4416 1 9.9827 149.606 28.6884
10670 2 11.8026 149.608 29.9705
4231 1 15.4389 149.606 28.6884
10672 2 13.6197 149.603 27.403
10537 2 17.2588 149.608 29.9705
4127 1 20.8952 149.606 28.6884
10550 2 19.076 149.603 27.403
4938 1 2.70727 102.065 30.8978
11419 2 1.796 103.62 32.2055
11086 2 4.52458 102.04 32.183
4939 1 5.4346 103.644 30.9206
4614 1 8.16351 102.065 30.8978
11084 2 7.25224 103.62 32.2055
10834 2 9.98081 102.04 32.183
4612 1 10.8908 103.644 30.9206
4378 1 13.6197 102.065 30.8978
10638 2 15.4371 102.04 32.183
10835 2 12.7085 103.62 32.2055
4379 1 16.3471 103.644 30.9206
10636 2 18.1647 103.62 32.2055
4205 1 19.076 102.065 30.8978
10528 2 20.8933 102.04 32.183
5225 1 21.8033 103.644 30.9206
4898 1 2.70595 105.224 30.9427
11085 2 4.52387 105.201 32.2273
4613 1 8.16218 105.224 30.9427
10810 2 9.9801 105.201 32.2273
4362 1 13.6184 105.224 30.9427
10637 2 15.4363 105.201 32.2273
4204 1 19.0747 105.224 30.9427
10527 2 20.8926 105.201 32.2273
4897 1 2.70541 108.386 30.9846
11371 2 1.79565 106.783 32.2483
4896 1 5.43372 106.804 30.964
11047 2 4.5238 108.366 32.2687
4582 1 8.16165 108.386 30.9846
11087 2 7.25189 106.783 32.2483
4615 1 10.89 106.804 30.964
10809 2 9.98004 108.366 32.2687
4361 1 13.6179 108.386 30.9846
10623 2 15.4363 108.366 32.2687
10808 2 12.7081 106.783 32.2483
4360 1 16.3462 106.804 30.964
10639 2 18.1644 106.783 32.2483
5226 1 21.8024 106.804 30.964
4197 1 19.0741 108.386 30.9846
10526 2 20.8925 108.366 32.2687
4852 1 2.70536 111.551 31.0239
11372 2 1.79581 109.949 32.2884
4899 1 5.43346 109.968 31.0046
11046 2 4.52412 111.533 32.3075
4581 1 8.1616 111.551 31.0239
11045 2 7.25205 109.949 32.2884
4580 1 10.8897 109.968 31.0046
10782 2 9.98036 111.533 32.3075
4339 1 13.6178 111.551 31.0239
10622 2 15.4366 111.533 32.3075
10811 2 12.7083 109.949 32.2884
4363 1 16.3459 109.968 31.0046
10621 2 18.1645 109.949 32.2884
5178 1 21.8022 109.968 31.0046
4196 1 19.0741 111.551 31.0239
10523 2 20.8928 111.533 32.3075
4851 1 2.7056 114.718 31.0604
11324 2 1.79625 113.118 32.3259
4850 1 5.43358 113.134 31.0425
11007 2 4.52466 114.702 32.3437
4546 1 8.16184 114.718 31.0604
11048 2 7.25249 113.118 32.3259
4583 1 10.8898 113.134 31.0425
10781 2 9.9809 114.702 32.3437
4338 1 13.6181 114.718 31.0604
10607 2 15.4371 114.702 32.3437
10780 2 12.7087 113.118 32.3259
4337 1 16.3461 113.134 31.0425
10624 2 18.165 113.118 32.3259
5179 1 21.8023 113.134 31.0425
4185 1 19.0743 114.718 31.0604
10522 2 20.8934 114.702 32.3437
4807 1 2.70601 117.886 31.0942
11325 2 1.79685 116.288 32.3608
4853 1 5.43391 116.302 31.0777
11006 2 4.5253 117.873 32.3772
4545 1 8.16225 117.886 31.0942
11005 2 7.25309 116.288 32.3608
4544 1 10.8902 116.302 31.0777
10754 2 9.98154 117.873 32.3772
4315 1 13.6185 117.886 31.0942
10606 2 15.4378 117.873 32.3772
10783 2 12.7093 116.288 32.3608
4340 1 16.3464 116.302 31.0777
10605 2 18.1656 116.288 32.3608
5138 1 21.8026 116.302 31.0777
4184 1 19.0747 117.886 31.0942
10519 2 20.894 117.873 32.3772
4806 1 2.70649 121.056 31.1252
11284 2 1.79752 119.459 32.3928
4805 1 5.43436 119.471 31.1101
10968 2 4.52597 121.045 32.4078
4510 1 8.16273 121.056 31.1252
11008 2 7.25375 119.459 32.3928
4547 1 10.8906 119.471 31.1101
10753 2 9.98221 121.045 32.4078
4314 1 13.619 121.056 31.1252
10591 2 15.4384 121.045 32.4078
10752 2 12.71 119.459 32.3928
4313 1 16.3468 119.471 31.1101
10608 2 18.1662 119.459 32.3928
5139 1 21.8031 119.471 31.1101
4173 1 19.0752 121.056 31.1252
10518 2 20.8947 121.045 32.4078
4769 1 2.70699 124.227 31.1531
11285 2 1.79818 122.631 32.4221
4808 1 5.43486 122.642 31.1395
10967 2 4.52663 124.217 32.4355
4509 1 8.16323 124.227 31.1531
10966 2 7.25442 122.631 32.4221
4508 1 10.8911 122.642 31.1395
10726 2 9.98287 124.217 32.4355
4291 1 13.6195 124.227 31.1531
10590 2 15.4391 124.217 32.4355
10755 2 12.7107 122.631 32.4221
4316 1 16.3473 122.642 31.1395
10589 2 18.1669 122.631 32.4221
5106 1 21.8036 122.642 31.1395
4172 1 19.0757 124.227 31.1531
10515 2 20.8953 124.217 32.4355
11252 2 1.79882 125.804 32.4483
4768 1 2.70747 127.399 31.178
4767 1 5.43535 125.813 31.166
10936 2 4.52724 127.391 32.4602
10969 2 7.25506 125.804 32.4483
4475 1 8.16371 127.399 31.178
4511 1 10.8916 125.813 31.166
10725 2 9.98348 127.391 32.4602
10724 2 12.7113 125.804 32.4483
4290 1 13.62 127.399 31.178
10575 2 15.4397 127.391 32.4602
4289 1 16.3478 125.813 31.166
10592 2 18.1675 125.804 32.4483
5107 1 21.8041 125.813 31.166
4161 1 19.0762 127.399 31.178
10514 2 20.896 127.391 32.4602
11253 2 1.79941 128.978 32.4713
4770 1 5.43582 128.985 31.1892
10934 2 7.25565 128.978 32.4713
4473 1 10.8921 128.985 31.1892
10727 2 12.7119 128.978 32.4713
4292 1 16.3483 128.985 31.1892
10573 2 18.1681 128.978 32.4713
5082 1 21.8045 128.985 31.1892
4739 1 2.70792 130.571 31.1996
11228 2 1.79993 132.152 32.4911
4737 1 5.43625 132.157 31.2091
10935 2 4.5278 130.565 32.4816
4474 1 8.16416 130.571 31.1996
10937 2 7.25617 132.152 32.4911
4476 1 10.8925 132.157 31.2091
10699 2 9.98404 130.565 32.4816
4267 1 13.6204 130.571 31.1996
10574 2 15.4403 130.565 32.4816
10697 2 12.7124 132.152 32.4911
4265 1 16.3487 132.157 31.2091
10576 2 18.1686 132.152 32.4911
5083 1 21.805 132.157 31.2091
4160 1 19.0766 130.571 31.1996
10511 2 20.8965 130.565 32.4816
4738 1 2.70832 133.744 31.2178
11229 2 1.80038 135.326 32.5074
4740 1 5.43662 135.33 31.2256
10912 2 4.52828 133.739 32.4997
4447 1 8.16456 133.744 31.2178
10910 2 7.25661 135.326 32.5074
4445 1 10.8929 135.33 31.2256
10698 2 9.98452 133.739 32.4997
4266 1 13.6208 133.744 31.2178
10559 2 15.4408 133.739 32.4997
10700 2 12.7129 135.326 32.5074
4268 1 16.3491 135.33 31.2256
10557 2 18.1691 135.326 32.5074
5066 1 21.8053 135.33 31.2256
4149 1 19.077 133.744 31.2178
10510 2 20.897 133.739 32.4997
4717 1 2.70867 136.917 31.2325
11212 2 1.80075 138.501 32.5203
4715 1 5.43694 138.504 31.2385
10911 2 4.52869 136.914 32.5143
4446 1 8.1649 136.917 31.2325
10913 2 7.25699 138.501 32.5203
4448 1 10.8932 138.504 31.2385
10679 2 9.98493 136.914 32.5143
4244 1 13.6211 136.917 31.2325
10558 2 15.4412 136.914 32.5143
10677 2 12.7132 138.501 32.5203
4242 1 16.3494 138.504 31.2385
10560 2 18.1695 138.501 32.5203
5067 1 21.8057 138.504 31.2385
4148 1 19.0774 136.917 31.2325
10507 2 20.8974 136.914 32.5143
4716 1 2.70896 140.09 31.2437
11213 2 1.80105 141.676 32.5296
4718 1 5.4372 141.677 31.2479
10896 2 4.52903 140.089 32.5254
4427 1 8.16519 140.09 31.2437
10894 2 7.25729 141.676 32.5296
4425 1 10.8934 141.677 31.2479
10678 2 9.98527 140.089 32.5254
4243 1 13.6214 140.09 31.2437
10544 2 15.4415 140.089 32.5254
10680 2 12.7135 141.676 32.5296
4245 1 16.3497 141.677 31.2479
10542 2 18.1698 141.676 32.5296
5058 1 21.8059 141.677 31.2479
4137 1 19.0777 140.09 31.2437
10506 2 20.8977 140.089 32.5254
4703 1 2.70919 143.264 31.2513
11204 2 1.80128 144.851 32.5354
4701 1 5.43741 144.851 31.2537
10895 2 4.52929 143.264 32.533
4426 1 8.16543 143.264 31.2513
10897 2 7.25752 144.851 32.5354
4428 1 10.8936 144.851 31.2537
10667 2 9.98553 143.264 32.533
4228 1 13.6217 143.264 31.2513
10543 2 15.4418 143.264 32.533
10665 2 12.7138 144.851 32.5354
4226 1 16.3499 144.851 31.2537
10545 2 18.17 144.851 32.5354
5059 1 21.8061 144.851 31.2537
4136 1 19.0779 143.264 31.2513
10503 2 20.898 143.264 32.533
4702 1 2.70937 146.438 31.2552
11205 2 1.80144 148.026 32.5374
4704 1 5.43756 148.024 31.2558
10888 2 4.52949 146.439 32.5369
4415 1 8.16561 146.438 31.2552
10886 2 7.25768 148.026 32.5374
4413 1 10.8938 148.024 31.2558
10666 2 9.98573 146.439 32.5369
4227 1 13.6218 146.438 31.2552
10536 2 15.442 146.439 32.5369
10668 2 12.7139 148.026 32.5374
4229 1 16.35 148.024 31.2558
10534 2 18.1702 148.026 32.5374
5057 1 21.8063 148.024 31.2558
4126 1 19.0781 146.438 31.2552
10502 2 20.8982 146.439 32.5369
4694 1 2.70949 149.611 31.2555
10887 2 4.52961 149.614 32.5371
4414 1 8.16573 149.611 31.2555
10660 2 9.98585 149.614 32.5371
4217 1 13.622 149.611 31.2555
10535 2 15.4421 149.614 32.5371
4125 1 19.0782 149.611 31.2555
10499 2 20.8983 149.614 32.5371
4894 1 0.884316 102.013 33.4728
11082 2 2.7025 101.987 34.7559
4892 1 3.61238 103.595 33.4946
11083 2 5.43084 103.57 34.7776
4610 1 6.34055 102.013 33.4728
10806 2 8.15874 101.987 34.7559
4611 1 9.06861 103.595 33.4946
4358 1 11.7968 102.013 33.4728
10804 2 10.8871 103.57 34.7776
10634 2 13.615 101.987 34.7559
4356 1 14.5249 103.595 33.4946
4202 1 17.253 102.013 33.4728
10635 2 16.3433 103.57 34.7776
10525 2 19.0712 101.987 34.7559
11369 2 21.7996 103.57 34.7776
4203 1 19.9811 103.595 33.4946
4893 1 0.884363 105.178 33.5158
11043 2 2.70306 105.155 34.7987
4578 1 6.3406 105.178 33.5158
10805 2 8.1593 105.155 34.7987
4357 1 11.7968 105.178 33.5158
10619 2 13.6155 105.155 34.7987
4194 1 17.2531 105.178 33.5158
10524 2 19.0718 105.155 34.7987
4848 1 0.884918 108.346 33.5563
11042 2 2.70399 108.325 34.8389
4895 1 3.61271 106.762 33.5363
11041 2 5.43162 106.74 34.8191
4576 1 9.06895 106.762 33.5363
4577 1 6.34116 108.346 33.5563
10778 2 8.16023 108.325 34.8389
4335 1 11.7974 108.346 33.5563
10807 2 10.8879 106.74 34.8191
4359 1 14.5252 106.762 33.5363
10618 2 13.6165 108.325 34.8389
4193 1 17.2536 108.346 33.5563
10617 2 16.3441 106.74 34.8191
11370 2 21.8003 106.74 34.8191
4192 1 19.9814 106.762 33.5363
10521 2 19.0727 108.325 34.8389
4847 1 0.885736 111.515 33.5943
11003 2 2.70509 111.498 34.8768
4846 1 3.61342 109.93 33.5756
11044 2 5.43265 109.911 34.8581
4542 1 6.34197 111.515 33.5943
4579 1 9.06966 109.93 33.5756
10777 2 8.16133 111.498 34.8768
4334 1 11.7982 111.515 33.5943
10776 2 10.8889 109.911 34.8581
4333 1 14.5259 109.93 33.5756
10603 2 13.6176 111.498 34.8768
4182 1 17.2545 111.515 33.5943
10620 2 16.3451 109.911 34.8581
11322 2 21.8014 109.911 34.8581
4195 1 19.9821 109.93 33.5756
10520 2 19.0738 111.498 34.8768
4803 1 0.88667 114.687 33.63
11002 2 2.70625 114.671 34.9122
4849 1 3.61431 113.101 33.6125
11001 2 5.43379 113.084 34.8948
4540 1 9.07055 113.101 33.6125
4541 1 6.34291 114.687 33.63
10750 2 8.16249 114.671 34.9122
4311 1 11.7991 114.687 33.63
10779 2 10.89 113.084 34.8948
4336 1 14.5268 113.101 33.6125
10602 2 13.6187 114.671 34.9122
4181 1 17.2554 114.687 33.63
10601 2 16.3463 113.084 34.8948
11323 2 21.8025 113.084 34.8948
4180 1 19.983 113.101 33.6125
10517 2 19.075 114.671 34.9122
4802 1 0.887634 117.86 33.663
10964 2 2.70739 117.846 34.9451
4801 1 3.61527 116.273 33.6468
11004 2 5.43494 116.258 34.929
4506 1 6.34387 117.86 33.663
4543 1 9.07151 116.273 33.6468
10749 2 8.16363 117.846 34.9451
4310 1 11.8001 117.86 33.663
10748 2 10.8912 116.258 34.929
4309 1 14.5277 116.273 33.6468
10587 2 13.6199 117.846 34.9451
4170 1 17.2563 117.86 33.663
10604 2 16.3474 116.258 34.929
11282 2 21.8037 116.258 34.929
4183 1 19.984 116.273 33.6468
10516 2 19.0761 117.846 34.9451
4765 1 0.888568 121.033 33.6934
10963 2 2.70847 121.021 34.9753
4804 1 3.61623 119.446 33.6786
10962 2 5.43606 119.434 34.9605
4504 1 9.07246 119.446 33.6786
4505 1 6.34481 121.033 33.6934
10722 2 8.16471 121.021 34.9753
4287 1 11.801 121.033 33.6934
10751 2 10.8923 119.434 34.9605
4312 1 14.5287 119.446 33.6786
10586 2 13.6209 121.021 34.9753
4169 1 17.2573 121.033 33.6934
10585 2 16.3485 119.434 34.9605
11283 2 21.8048 119.434 34.9605
4168 1 19.9849 119.446 33.6786
10513 2 19.0772 121.021 34.9753
4764 1 0.889438 124.208 33.7208
10932 2 2.70946 124.198 35.0026
4763 1 3.61713 122.62 33.7075
10965 2 5.43709 122.61 34.9893
4471 1 6.34568 124.208 33.7208
4507 1 9.07337 122.62 33.7075
10721 2 8.1657 124.198 35.0026
4286 1 11.8019 124.208 33.7208
10720 2 10.8933 122.61 34.9893
4285 1 14.5296 122.62 33.7075
10571 2 13.6219 124.198 35.0026
4158 1 17.2582 124.208 33.7208
10588 2 16.3496 122.61 34.9893
11250 2 21.8058 122.61 34.9893
4171 1 19.9858 122.62 33.7075
10512 2 19.0782 124.198 35.0026
4735 1 0.890226 127.383 33.7453
10931 2 2.71034 127.374 35.0269
4766 1 3.61796 125.795 33.7334
10930 2 5.43803 125.786 35.0151
4469 1 9.0742 125.795 33.7334
4470 1 6.34646 127.383 33.7453
10695 2 8.16658 127.374 35.0269
10723 2 10.8943 125.786 35.0151
4263 1 11.8027 127.383 33.7453
4288 1 14.5304 125.795 33.7334
10570 2 13.6228 127.374 35.0269
10569 2 16.3505 125.786 35.0151
4157 1 17.2589 127.383 33.7453
11251 2 21.8067 125.786 35.0151
4156 1 19.9867 125.795 33.7334
10509 2 19.0791 127.374 35.0269
4733 1 3.6187 128.97 33.7563
10933 2 5.43886 128.963 35.0379
4472 1 9.07494 128.97 33.7563
10693 2 10.8951 128.963 35.0379
4261 1 14.5312 128.97 33.7563
10572 2 16.3513 128.963 35.0379
11226 2 21.8076 128.963 35.0379
4159 1 19.9874 128.97 33.7563
4734 1 0.890917 130.558 33.7665
10908 2 2.71112 130.552 35.0481
4736 1 3.61934 132.146 33.7759
10906 2 5.43958 132.14 35.0574
4441 1 9.07558 132.146 33.7759
4443 1 6.34716 130.558 33.7665
10694 2 8.16735 130.552 35.0481
4262 1 11.8034 130.558 33.7665
10696 2 10.8958 132.14 35.0574
4264 1 14.5318 132.146 33.7759
10555 2 13.6236 130.552 35.0481
4146 1 17.2596 130.558 33.7665
10553 2 16.3521 132.14 35.0574
11227 2 21.8083 132.14 35.0574
4144 1 19.9881 132.146 33.7759
10508 2 19.0798 130.552 35.0481
4713 1 0.891508 133.734 33.7845
10907 2 2.71177 133.729 35.0659
4711 1 3.61989 135.322 33.7922
10909 2 5.44018 135.318 35.0736
4442 1 6.34775 133.734 33.7845
4444 1 9.07612 135.322 33.7922
10675 2 8.16801 133.729 35.0659
4240 1 11.804 133.734 33.7845
10673 2 10.8964 135.318 35.0736
4238 1 14.5324 135.322 33.7922
10554 2 13.6243 133.729 35.0659
4145 1 17.2602 133.734 33.7845
10556 2 16.3527 135.318 35.0736
11210 2 21.8089 135.318 35.0736
4147 1 19.9886 135.322 33.7922
10505 2 19.0805 133.729 35.0659
4712 1 0.892002 136.91 33.799
10892 2 2.71232 136.907 35.0804
4714 1 3.62033 138.498 33.805
10890 2 5.44067 138.496 35.0863
4421 1 9.07657 138.498 33.805
4423 1 6.34824 136.91 33.799
10674 2 8.16856 136.907 35.0804
10676 2 10.8969 138.496 35.0863
4239 1 11.8045 136.91 33.799
10540 2 13.6248 136.907 35.0804
4241 1 14.5328 138.498 33.805
10538 2 16.3531 138.496 35.0863
4134 1 17.2607 136.91 33.799
10504 2 19.081 136.907 35.0804
4132 1 19.989 138.498 33.805
11211 2 21.8094 138.496 35.0863
10891 2 2.71275 140.085 35.0914
4699 1 0.892399 140.087 33.8101
10893 2 5.44105 141.674 35.0955
4697 1 3.62068 141.675 33.8143
10663 2 8.16899 140.085 35.0914
4424 1 9.07692 141.675 33.8143
4422 1 6.34864 140.087 33.8101
10661 2 10.8973 141.674 35.0955
4224 1 11.8049 140.087 33.8101
10539 2 13.6252 140.085 35.0914
4222 1 14.5332 141.675 33.8143
10541 2 16.3535 141.674 35.0955
4133 1 17.2611 140.087 33.8101
10501 2 19.0815 140.085 35.0914
4135 1 19.9894 141.675 33.8143
11202 2 21.8098 141.674 35.0955
10884 2 2.71308 143.263 35.0988
4698 1 0.892701 143.263 33.8176
10882 2 5.44132 144.852 35.1012
4700 1 3.62094 144.852 33.82
10662 2 8.16932 143.263 35.0988
4411 1 6.34894 143.263 33.8176
4409 1 9.07717 144.852 33.82
10664 2 10.8976 144.852 35.1012
4223 1 11.8052 143.263 33.8176
10532 2 13.6256 143.263 35.0988
4225 1 14.5334 144.852 33.82
10530 2 16.3538 144.852 35.1012
4123 1 17.2614 143.263 33.8176
10500 2 19.0818 143.263 35.0988
4121 1 19.9897 144.852 33.82
11203 2 21.81 144.852 35.1012
10883 2 2.7133 146.441 35.1027
4693 1 0.89291 146.44 33.8214
10885 2 5.44149 148.03 35.1033
4691 1 3.6211 148.028 33.822
10659 2 8.16954 146.441 35.1027
4412 1 9.07734 148.028 33.822
4410 1 6.34915 146.44 33.8214
10657 2 10.8977 148.03 35.1033
4216 1 11.8054 146.44 33.8214
10531 2 13.6258 146.441 35.1027
4214 1 14.5336 148.028 33.822
10533 2 16.354 148.03 35.1033
4122 1 17.2616 146.44 33.8214
10498 2 19.082 146.441 35.1027
4124 1 19.9898 148.028 33.822
11201 2 21.8102 148.03 35.1033
10881 2 2.71342 149.619 35.1029
4692 1 0.893029 149.617 33.8217
10658 2 8.16965 149.619 35.1029
4404 1 6.34927 149.617 33.8217
4215 1 11.8055 149.617 33.8217
10529 2 13.6259 149.619 35.1029
4116 1 17.2617 149.617 33.8217
10497 2 19.0821 149.619 35.1029
12670 2 0.88212 101.931 37.3248
16409 1 2.69945 101.902 38.6109
4891 1 1.79151 103.544 36.0652
18295 1 5.42875 103.492 38.6317
4574 1 4.51899 101.959 36.0441
12668 2 3.61104 103.519 37.346
12639 2 6.33836 101.931 37.3248
16255 1 8.15569 101.902 38.6109
12640 2 9.06728 103.519 37.346
4572 1 7.24775 103.544 36.0652
12606 2 11.7946 101.931 37.3248
18207 1 10.885 103.492 38.6317
4354 1 9.97523 101.959 36.0441
4190 1 15.4315 101.959 36.0441
16001 1 13.6119 101.902 38.6109
12604 2 14.5235 103.519 37.346
4355 1 12.704 103.544 36.0652
12575 2 17.2508 101.931 37.3248
18025 1 16.3412 103.492 38.6317
4188 1 18.1602 103.544 36.0652
18312 1 21.7975 103.492 38.6317
4112 1 20.8877 101.959 36.0441
15718 1 19.0682 101.902 38.6109
12576 2 19.9798 103.519 37.346
12669 2 0.883761 105.107 37.3667
18296 1 2.70179 105.082 38.652
4844 1 1.79297 106.717 36.1057
18297 1 5.43104 106.672 38.6718
4573 1 4.52034 105.131 36.0857
12671 2 3.61274 106.695 37.3868
12636 2 6.34 105.107 37.3667
18205 1 8.15803 105.082 38.652
12634 2 9.06898 106.695 37.3868
4575 1 7.24921 106.717 36.1057
12605 2 11.7962 105.107 37.3667
18203 1 10.8873 106.672 38.6718
4331 1 9.97658 105.131 36.0857
18026 1 13.6143 105.082 38.652
4189 1 15.4328 105.131 36.0857
12607 2 14.5252 106.695 37.3868
4329 1 12.7054 106.717 36.1057
12572 2 17.2525 105.107 37.3667
18027 1 16.3435 106.672 38.6718
4191 1 18.1617 106.717 36.1057
18310 1 21.7998 106.672 38.6718
17757 1 19.0705 105.082 38.652
4111 1 20.8891 105.131 36.0857
12570 2 19.9815 106.695 37.3868
12666 2 0.885495 108.284 37.4063
18292 1 2.70403 108.262 38.6912
4538 1 4.52186 108.304 36.1252
12635 2 6.34173 108.284 37.4063
18204 1 8.16027 108.262 38.6912
12602 2 11.798 108.284 37.4063
4330 1 9.9781 108.304 36.1252
18022 1 13.6165 108.262 38.6912
4178 1 15.4343 108.304 36.1252
12571 2 17.2542 108.284 37.4063
17756 1 19.0727 108.262 38.6912
4110 1 20.8906 108.304 36.1252
12665 2 0.887215 111.461 37.4437
18291 1 2.70613 111.443 38.7283
4845 1 1.79453 109.892 36.1441
18290 1 5.43322 109.852 38.71
12664 2 3.61448 109.872 37.4253
4537 1 4.52342 111.479 36.1625
12632 2 6.34345 111.461 37.4437
12637 2 9.07072 109.872 37.4253
18197 1 8.16236 111.443 38.7283
4536 1 7.25076 109.892 36.1441
18206 1 10.8895 109.852 38.71
12601 2 11.7997 111.461 37.4437
4307 1 9.97966 111.479 36.1625
12600 2 14.527 109.872 37.4253
18021 1 13.6186 111.443 38.7283
4177 1 15.4359 111.479 36.1625
4332 1 12.707 109.892 36.1441
18020 1 16.3457 109.852 38.71
12568 2 17.2559 111.461 37.4437
4176 1 18.1632 109.892 36.1441
18311 1 21.8019 109.852 38.71
12573 2 19.9832 109.872 37.4253
17751 1 19.0748 111.443 38.7283
4109 1 20.8921 111.479 36.1625
12662 2 0.88886 114.64 37.4788
18281 1 2.70806 114.624 38.7631
4799 1 1.79607 113.067 36.1804
18293 1 5.43523 113.033 38.746
12667 2 3.61617 113.05 37.4615
4502 1 4.52494 114.655 36.1976
12630 2 9.07241 113.05 37.4615
12631 2 6.3451 114.64 37.4788
18196 1 8.1643 114.624 38.7631
4539 1 7.25231 113.067 36.1804
18195 1 10.8915 113.033 38.746
12598 2 11.8013 114.64 37.4788
4306 1 9.98118 114.655 36.1976
12603 2 14.5286 113.05 37.4615
18010 1 13.6205 114.624 38.7631
4166 1 15.4374 114.655 36.1976
4305 1 12.7085 113.067 36.1804
18023 1 16.3477 113.033 38.746
12567 2 17.2576 114.64 37.4788
4179 1 18.1648 113.067 36.1804
18308 1 21.8039 113.033 38.746
12566 2 19.9849 113.05 37.4615
17750 1 19.0768 114.624 38.7631
4108 1 20.8937 114.655 36.1976
12661 2 0.89039 117.819 37.5113
18280 1 2.70982 117.805 38.7956
4800 1 1.79755 116.244 36.2142
12660 2 3.61776 116.229 37.4954
18279 1 5.43708 116.214 38.7797
4501 1 4.52637 117.832 36.2302
12628 2 6.34663 117.819 37.5113
12633 2 9.074 116.229 37.4954
18181 1 8.16606 117.805 38.7956
4500 1 7.25379 116.244 36.2142
12597 2 11.8029 117.819 37.5113
18198 1 10.8933 116.214 38.7797
4283 1 9.9826 117.832 36.2302
12596 2 14.5302 116.229 37.4954
18009 1 13.6223 117.805 38.7956
4165 1 15.4388 117.832 36.2302
4308 1 12.71 116.244 36.2142
12564 2 17.2591 117.819 37.5113
18008 1 16.3496 116.214 38.7797
4164 1 18.1663 116.244 36.2142
18309 1 21.8058 116.214 38.7797
12569 2 19.9865 116.229 37.4954
17737 1 19.0785 117.805 38.7956
4107 1 20.8951 117.832 36.2302
12658 2 0.891784 120.998 37.5413
4761 1 1.79892 119.421 36.2455
12663 2 3.61922 119.408 37.5267
18282 1 5.43875 119.395 38.8108
4467 1 4.52767 121.01 36.2601
12626 2 9.07546 119.408 37.5267
12627 2 6.34802 120.998 37.5413
4503 1 7.25516 119.421 36.2455
12594 2 11.8043 120.998 37.5413
18179 1 10.895 119.395 38.8108
4282 1 9.98391 121.01 36.2601
12599 2 14.5317 119.408 37.5267
4154 1 15.4401 121.01 36.2601
4281 1 12.7114 119.421 36.2455
12563 2 17.2605 120.998 37.5413
18011 1 16.3512 119.395 38.8108
4167 1 18.1676 119.421 36.2455
18306 1 21.8075 119.395 38.8108
12562 2 19.9879 119.408 37.5267
4106 1 20.8964 121.01 36.2601
12657 2 0.893031 124.178 37.5684
4762 1 1.80016 122.599 36.2741
12656 2 3.62055 122.588 37.5552
4466 1 4.52885 124.188 36.2873
12624 2 6.34927 124.178 37.5684
12629 2 9.07678 122.588 37.5552
4465 1 7.2564 122.599 36.2741
12593 2 11.8055 124.178 37.5684
4259 1 9.98508 124.188 36.2873
12592 2 14.533 122.588 37.5552
4153 1 15.4413 124.188 36.2873
4284 1 12.7126 122.599 36.2741
12560 2 17.2617 124.178 37.5684
4152 1 18.1689 122.599 36.2741
12565 2 19.9893 122.588 37.5552
4105 1 20.8976 124.188 36.2873
4731 1 1.80126 125.777 36.2997
12654 2 0.894127 127.358 37.5925
12659 2 3.62172 125.768 37.5808
4439 1 4.52988 127.366 36.3114
12622 2 9.07796 125.768 37.5808
4468 1 7.2575 125.777 36.2997
12623 2 6.35037 127.358 37.5925
12590 2 11.8066 127.358 37.5925
4258 1 9.98612 127.366 36.3114
12595 2 14.5342 125.768 37.5808
4257 1 12.7137 125.777 36.2997
4142 1 15.4424 127.366 36.3114
4155 1 18.17 125.777 36.2997
12559 2 17.2628 127.358 37.5925
12558 2 19.9904 125.768 37.5808
4104 1 20.8986 127.366 36.3114
4732 1 1.80222 128.956 36.3223
12652 2 3.62274 128.948 37.6034
12625 2 9.07898 128.948 37.6034
4437 1 7.25846 128.956 36.3223
12588 2 14.5352 128.948 37.6034
4260 1 12.7147 128.956 36.3223
4140 1 18.1709 128.956 36.3223
12561 2 19.9915 128.948 37.6034
12653 2 0.895072 130.538 37.6134
4709 1 1.80304 132.135 36.3418
12655 2 3.62361 132.129 37.6227
4438 1 4.53077 130.545 36.3325
12618 2 9.07985 132.129 37.6227
12620 2 6.35131 130.538 37.6134
4440 1 7.25928 132.135 36.3418
12589 2 11.8075 130.538 37.6134
4236 1 9.98701 130.545 36.3325
12591 2 14.5361 132.129 37.6227
4141 1 15.4432 130.545 36.3325
4234 1 12.7155 132.135 36.3418
12556 2 17.2638 130.538 37.6134
4143 1 18.1718 132.135 36.3418
12554 2 19.9923 132.129 37.6227
4103 1 20.8995 130.545 36.3325
12650 2 0.895868 133.719 37.6311
4710 1 1.80373 135.314 36.3578
12648 2 3.62433 135.31 37.6387
4419 1 4.53152 133.724 36.3502
12619 2 6.35211 133.719 37.6311
12621 2 9.08057 135.31 37.6387
4417 1 7.25996 135.314 36.3578
12586 2 11.8083 133.719 37.6311
4235 1 9.98776 133.724 36.3502
12584 2 14.5368 135.31 37.6387
4130 1 15.444 133.724 36.3502
4237 1 12.7162 135.314 36.3578
12555 2 17.2646 133.719 37.6311
4128 1 18.1724 135.314 36.3578
12557 2 19.993 135.31 37.6387
4102 1 20.9002 133.724 36.3502
12649 2 0.896519 136.9 37.6455
4695 1 1.80428 138.493 36.3705
12651 2 3.62491 138.491 37.6514
4418 1 4.53214 136.904 36.3646
12614 2 9.08115 138.491 37.6514
12616 2 6.35276 136.9 37.6455
4420 1 7.26051 138.493 36.3705
12585 2 11.809 136.9 37.6455
4220 1 9.98837 136.904 36.3646
12587 2 14.5374 138.491 37.6514
4129 1 15.4446 136.904 36.3646
4218 1 12.7168 138.493 36.3705
12552 2 17.2652 136.9 37.6455
4131 1 18.173 138.493 36.3705
12550 2 19.9936 138.491 37.6514
4101 1 20.9009 136.904 36.3646
12646 2 0.897031 140.081 37.6564
4696 1 1.8047 141.673 36.3797
12644 2 3.62536 141.672 37.6605
4407 1 4.53262 140.083 36.3756
12615 2 6.35327 140.081 37.6564
12617 2 9.08159 141.672 37.6605
4405 1 7.26094 141.673 36.3797
12582 2 11.8095 140.081 37.6564
4219 1 9.98886 140.083 36.3756
12580 2 14.5378 141.672 37.6605
4119 1 15.4451 140.083 36.3756
4221 1 12.7172 141.673 36.3797
12551 2 17.2657 140.081 37.6564
4117 1 18.1734 141.673 36.3797
12553 2 19.9941 141.672 37.6605
4100 1 20.9013 140.083 36.3756
12645 2 0.897407 143.262 37.6638
4689 1 1.80499 144.853 36.3853
12647 2 3.62566 144.853 37.6661
4406 1 4.53298 143.263 36.383
12610 2 9.0819 144.853 37.6661
12612 2 6.35365 143.262 37.6638
4408 1 7.26123 144.853 36.3853
12581 2 11.8099 143.262 37.6638
4212 1 9.98922 143.263 36.383
12583 2 14.5381 144.853 37.6661
4118 1 15.4455 143.263 36.383
4210 1 12.7175 144.853 36.3853
12548 2 17.2661 143.262 37.6638
4120 1 18.1737 144.853 36.3853
12546 2 19.9944 144.853 37.6661
4099 1 20.9017 143.263 36.383
12643 2 0.897649 146.444 37.6676
4690 1 1.80517 148.032 36.3874
12641 2 3.62584 148.034 37.6682
4403 1 4.53321 146.443 36.3868
12611 2 6.35389 146.444 37.6676
12613 2 9.08208 148.034 37.6682
4401 1 7.26141 148.032 36.3874
12579 2 11.8101 146.444 37.6676
4211 1 9.98945 146.443 36.3868
12577 2 14.5383 148.034 37.6682
4115 1 15.4457 146.443 36.3868
4213 1 12.7176 148.032 36.3874
12547 2 17.2664 146.444 37.6676
4113 1 18.1739 148.032 36.3874
12549 2 19.9946 148.034 37.6682
4098 1 20.9019 146.443 36.3868
12642 2 0.89776 149.625 37.6679
4402 1 4.53333 149.622 36.3871
12609 2 6.354 149.625 37.6679
12578 2 11.8102 149.625 37.6679
4209 1 9.98957 149.622 36.3871
4114 1 15.4458 149.622 36.3871
12545 2 17.2665 149.625 37.6679
4097 1 20.902 149.622 36.3871
23951 2 1.79321 103.466 39.9103
16407 1 0.882315 101.845 41.1727
18294 1 3.6119 103.439 41.1938
22015 2 4.52016 101.875 39.889
18200 1 9.06814 103.439 41.1938
23922 2 7.24945 103.466 39.9103
16233 1 6.33855 101.845 41.1727
15999 1 11.7948 101.845 41.1727
21817 2 9.97639 101.875 39.889
18024 1 14.5244 103.439 41.1938
23800 2 12.7057 103.466 39.9103
21567 2 15.4326 101.875 39.889
23592 2 18.1619 103.466 39.9103
15673 1 17.251 101.845 41.1727
17753 1 19.9806 103.439 41.1938
21232 2 20.8889 101.875 39.889
18288 1 0.885175 105.033 41.2144
23952 2 1.79551 106.65 39.9511
18286 1 3.61463 106.626 41.2345
23920 2 4.52249 105.058 39.931
18201 1 6.34141 105.033 41.2144
18202 1 9.07087 106.626 41.2345
23918 2 7.25175 106.65 39.9511
18018 1 11.7977 105.033 41.2144
23801 2 9.97873 105.058 39.931
18016 1 14.5271 106.626 41.2345
23590 2 15.435 105.058 39.931
23802 2 12.708 106.65 39.9511
17754 1 17.2539 105.033 41.2144
23588 2 18.1642 106.65 39.9511
17755 1 19.9833 106.626 41.2345
23292 2 20.8912 105.058 39.931
18287 1 0.887794 108.22 41.254
23919 2 4.52474 108.241 39.9707
18193 1 6.34403 108.22 41.254
18017 1 11.8003 108.22 41.254
23797 2 9.98098 108.241 39.9707
23589 2 15.4372 108.241 39.9707
17748 1 17.2565 108.22 41.254
23291 2 20.8935 108.241 39.9707
23948 2 1.7977 109.833 39.9897
18277 1 0.89018 111.406 41.2914
18289 1 3.61713 109.813 41.273
23912 2 4.52686 111.424 40.0081
18191 1 9.07337 109.813 41.273
23921 2 7.25394 109.833 39.9897
18192 1 6.34642 111.406 41.2914
18006 1 11.8027 111.406 41.2914
23796 2 9.9831 111.424 40.0081
18019 1 14.5296 109.813 41.273
23795 2 12.7102 109.833 39.9897
23582 2 15.4393 111.424 40.0081
23591 2 18.1664 109.833 39.9897
17747 1 17.2589 111.406 41.2914
17746 1 19.9858 109.813 41.273
23290 2 20.8956 111.424 40.0081
23949 2 1.79975 113.016 40.026
18276 1 0.892343 114.591 41.3265
18275 1 3.61941 112.999 41.3093
23911 2 4.52882 114.608 40.0432
18194 1 9.07565 112.999 41.3093
23910 2 7.25598 113.016 40.026
18177 1 6.34858 114.591 41.3265
18005 1 11.8048 114.591 41.3265
23785 2 9.98506 114.608 40.0432
18004 1 14.5319 112.999 41.3093
23798 2 12.7122 113.016 40.026
23581 2 15.4413 114.608 40.0432
23580 2 18.1685 113.016 40.026
17734 1 17.2611 114.591 41.3265
17749 1 19.9881 112.999 41.3093
23283 2 20.8975 114.608 40.0432
18265 1 0.894288 117.777 41.3591
23944 2 1.80162 116.199 40.0598
18278 1 3.62146 116.184 41.3432
23897 2 4.53061 117.791 40.0758
18175 1 9.0777 116.184 41.3432
18176 1 6.35053 117.777 41.3591
23913 2 7.25786 116.199 40.0598
17986 1 11.8068 117.777 41.3591
23784 2 9.98685 117.791 40.0758
18007 1 14.5339 116.184 41.3432
23566 2 15.4431 117.791 40.0758
23783 2 12.7141 116.199 40.0598
17733 1 17.263 117.777 41.3591
23583 2 18.1703 116.199 40.0598
17732 1 19.9902 116.184 41.3432
23282 2 20.8993 117.791 40.0758
18269 1 2.7114 120.986 38.8254
18264 1 0.896016 120.962 41.3891
23945 2 1.80331 119.382 40.0911
18263 1 3.6233 119.37 41.3745
23896 2 4.53221 120.974 40.1057
18180 1 8.16763 120.986 38.8254
18154 1 6.35225 120.962 41.3891
18178 1 9.07954 119.37 41.3745
23895 2 7.25955 119.382 40.0911
17985 1 11.8085 120.962 41.3891
23765 2 9.98845 120.974 40.1057
17990 1 13.6239 120.986 38.8254
17984 1 14.5358 119.37 41.3745
23565 2 15.4447 120.974 40.1057
23786 2 12.7158 119.382 40.0911
17712 1 17.2647 120.962 41.3891
23564 2 18.172 119.382 40.0911
17736 1 19.0801 120.986 38.8254
17735 1 19.992 119.37 41.3745
23267 2 20.9009 120.974 40.1057
18268 1 2.71279 124.168 38.8524
18253 1 0.897536 124.148 41.4161
23940 2 1.80482 122.566 40.1196
18267 1 5.44023 122.577 38.8392
18266 1 3.62492 122.555 41.403
23881 2 4.53363 124.158 40.1328
18158 1 8.16903 124.168 38.8524
18152 1 9.08116 122.555 41.403
18153 1 6.35377 124.148 41.4161
23898 2 7.26106 122.566 40.1196
18182 1 10.8965 122.577 38.8392
17958 1 11.81 124.148 41.4161
23764 2 9.98987 124.158 40.1328
17989 1 13.6253 124.168 38.8524
17987 1 14.5374 122.555 41.403
23542 2 15.4461 124.158 40.1328
23763 2 12.7173 122.566 40.1196
17988 1 16.3527 122.577 38.8392
17711 1 17.2663 124.148 41.4161
23567 2 18.1735 122.566 40.1196
18307 1 21.8089 122.577 38.8392
17715 1 19.0815 124.168 38.8524
17710 1 19.9936 122.555 41.403
23266 2 20.9023 124.158 40.1328
18257 1 2.714 127.35 38.8764
18252 1 0.898861 127.333 41.4402
23941 2 1.80615 125.749 40.1452
18270 1 5.44154 125.759 38.8648
18251 1 3.62634 125.74 41.4285
23880 2 4.53487 127.341 40.1568
18157 1 8.17024 127.35 38.8764
18130 1 6.3551 127.333 41.4402
18155 1 9.08258 125.74 41.4285
23879 2 7.26239 125.749 40.1452
18156 1 10.8978 125.759 38.8648
17957 1 11.8113 127.333 41.4402
23738 2 9.99111 127.341 40.1568
17962 1 13.6265 127.35 38.8764
17956 1 14.5388 125.74 41.4285
23541 2 15.4473 127.341 40.1568
23766 2 12.7186 125.749 40.1452
17991 1 16.354 125.759 38.8648
17682 1 17.2676 127.333 41.4402
23540 2 18.1749 125.749 40.1452
18304 1 21.8103 125.759 38.8648
17714 1 19.0827 127.35 38.8764
17713 1 19.9951 125.74 41.4285
23243 2 20.9036 127.341 40.1568
23936 2 1.8073 128.933 40.1677
18255 1 5.44266 128.941 38.8873
18254 1 3.62757 128.926 41.451
18128 1 9.08381 128.926 41.451
23882 2 7.26354 128.933 40.1677
18159 1 10.8989 128.941 38.8873
17959 1 14.54 128.926 41.451
23736 2 12.7198 128.933 40.1677
17960 1 16.3551 128.941 38.8873
23543 2 18.176 128.933 40.1677
18305 1 21.8114 128.941 38.8873
17680 1 19.9963 128.926 41.451
18256 1 2.71504 130.532 38.8973
18241 1 0.899994 130.518 41.461
23937 2 1.80828 132.117 40.187
18258 1 5.44362 132.123 38.9065
23865 2 4.53593 130.525 40.1777
18239 1 3.62861 132.111 41.4703
18134 1 8.17128 130.532 38.8973
18129 1 6.35623 130.518 41.461
18131 1 9.08485 132.111 41.4703
23863 2 7.26452 132.117 40.187
18132 1 10.8999 132.123 38.9065
17923 1 11.8125 130.518 41.461
23737 2 9.99217 130.525 40.1777
17961 1 13.6275 130.532 38.8973
23510 2 15.4484 130.525 40.1777
17921 1 14.5411 132.111 41.4703
23739 2 12.7208 132.117 40.187
17963 1 16.3561 132.123 38.9065
17681 1 17.2687 130.518 41.461
23508 2 18.177 132.117 40.187
17685 1 19.0838 130.532 38.8973
18302 1 21.8123 132.123 38.9065
23242 2 20.9046 130.525 40.1777
17683 1 19.9973 132.111 41.4703
18245 1 2.71591 133.714 38.915
18240 1 0.900942 133.704 41.4787
23932 2 1.80909 135.301 40.2029
18243 1 5.4444 135.305 38.9225
18242 1 3.62947 135.297 41.4862
23864 2 4.53683 133.709 40.1954
18133 1 8.17215 133.714 38.915
18104 1 9.08571 135.297 41.4862
18106 1 6.35718 133.704 41.4787
23866 2 7.26533 135.301 40.2029
18135 1 10.9006 135.305 38.9225
17922 1 11.8134 133.704 41.4787
23710 2 9.99307 133.709 40.1954
17927 1 13.6284 133.714 38.915
17924 1 14.5419 135.297 41.4862
23509 2 15.4493 133.709 40.1954
23708 2 12.7216 135.301 40.2029
17925 1 16.3569 135.305 38.9225
17644 1 17.2697 133.704 41.4787
23511 2 18.1778 135.301 40.2029
18303 1 21.8131 135.305 38.9225
17684 1 19.0846 133.714 38.915
17642 1 19.9982 135.297 41.4862
23211 2 20.9055 133.709 40.1954
18244 1 2.71662 136.897 38.9293
18229 1 0.901713 136.89 41.4929
23933 2 1.80974 138.485 40.2155
18246 1 5.44504 138.488 38.9351
18227 1 3.63015 138.483 41.4988
23849 2 4.53756 136.893 40.2096
18110 1 8.17286 136.897 38.9293
18105 1 6.35795 136.89 41.4929
18107 1 9.08639 138.483 41.4988
23847 2 7.26598 138.485 40.2155
18108 1 10.9013 138.488 38.9351
17887 1 11.8142 136.89 41.4929
23709 2 9.9938 136.893 40.2096
17926 1 13.6291 136.897 38.9293
17885 1 14.5426 138.483 41.4988
23471 2 15.45 136.893 40.2096
23711 2 12.7222 138.485 40.2155
17928 1 16.3575 138.488 38.9351
17643 1 17.2704 136.89 41.4929
23469 2 18.1785 138.485 40.2155
18300 1 21.8138 138.488 38.9351
17647 1 19.0853 136.897 38.9293
17645 1 19.9989 138.483 41.4988
23210 2 20.9063 136.893 40.2096
18233 1 2.71717 140.079 38.9401
18228 1 0.902313 140.076 41.5038
23928 2 1.81023 141.67 40.2246
18231 1 5.44551 141.671 38.9442
18230 1 3.63067 141.669 41.5079
23848 2 4.53813 140.078 40.2205
18109 1 8.17341 140.079 38.9401
18080 1 9.08691 141.669 41.5079
18082 1 6.35855 140.076 41.5038
23850 2 7.26647 141.67 40.2246
18111 1 10.9018 141.671 38.9442
17886 1 11.8148 140.076 41.5038
23682 2 9.99436 140.078 40.2205
17891 1 13.6297 140.079 38.9401
17888 1 14.5431 141.669 41.5079
23470 2 15.4506 140.078 40.2205
23680 2 12.7227 141.67 40.2246
17889 1 16.358 141.671 38.9442
17599 1 17.271 140.076 41.5038
23472 2 18.1789 141.67 40.2246
18301 1 21.8142 141.671 38.9442
17646 1 19.0859 140.079 38.9401
17597 1 19.9994 141.669 41.5079
23171 2 20.9068 140.078 40.2205
18232 1 2.71757 143.262 38.9475
18218 1 0.902744 143.262 41.5111
23929 2 1.81057 144.854 40.2302
18234 1 5.44584 144.854 38.9498
18216 1 3.63102 144.855 41.5134
23833 2 4.53854 143.262 40.2278
18086 1 8.17381 143.262 38.9475
18081 1 6.35898 143.262 41.5111
18083 1 9.08726 144.855 41.5134
23831 2 7.26681 144.854 40.2302
18084 1 10.9021 144.854 38.9498
17852 1 11.8152 143.262 41.5111
23681 2 9.99478 143.262 40.2278
17890 1 13.6301 143.262 38.9475
17850 1 14.5435 144.855 41.5134
23431 2 15.451 143.262 40.2278
23683 2 12.723 144.854 40.2302
17892 1 16.3583 144.854 38.9498
17598 1 17.2715 143.262 41.5111
23429 2 18.1793 144.854 40.2302
18298 1 21.8146 144.854 38.9498
17602 1 19.0863 143.262 38.9475
17600 1 19.9997 144.855 41.5134
23170 2 20.9073 143.262 40.2278
18222 1 2.71783 146.445 38.9513
18217 1 0.903011 146.448 41.5149
23925 2 1.81075 148.039 40.2322
18220 1 5.44602 148.037 38.9519
18219 1 3.6312 148.041 41.5155
23832 2 4.5388 146.446 40.2317
18085 1 8.17407 146.445 38.9513
18060 1 9.08744 148.041 41.5155
18062 1 6.35925 146.448 41.5149
23834 2 7.26699 148.039 40.2322
18087 1 10.9023 148.037 38.9519
17851 1 11.8155 146.448 41.5149
23655 2 9.99503 146.446 40.2317
17856 1 13.6303 146.445 38.9513
17853 1 14.5437 148.041 41.5155
23430 2 15.4513 146.446 40.2317
23653 2 12.7232 148.039 40.2322
17854 1 16.3585 148.037 38.9519
17555 1 17.2717 146.448 41.5149
23432 2 18.1795 148.039 40.2322
18299 1 21.8147 148.037 38.9519
17601 1 19.0865 146.445 38.9513
17553 1 19.9999 148.041 41.5155
23124 2 20.9075 146.446 40.2317
18221 1 2.71794 149.628 38.9516
18211 1 0.903113 149.634 41.5152
23818 2 4.5389 149.631 40.2319
18063 1 8.17417 149.628 38.9516
18061 1 6.35935 149.634 41.5152
17821 1 11.8156 149.634 41.5152
23654 2 9.99514 149.631 40.2319
17855 1 13.6304 149.628 38.9516
23392 2 15.4514 149.631 40.2319
17554 1 17.2718 149.634 41.5152
17556 1 19.0867 149.628 38.9516
23123 2 20.9076 149.631 40.2319
18284 1 1.79722 103.386 43.7516
22001 2 2.7043 101.818 42.4484
23915 2 5.43373 103.414 42.4702
16231 1 4.52385 101.788 43.7296
18199 1 7.25346 103.386 43.7516
21815 2 8.16054 101.818 42.4484
23799 2 10.89 103.414 42.4702
15969 1 9.98009 101.788 43.7296
18013 1 12.7097 103.386 43.7516
15671 1 15.4363 101.788 43.7296
21529 2 13.6168 101.818 42.4484
17752 1 18.1659 103.386 43.7516
23585 2 16.3462 103.414 42.4702
23950 2 21.8024 103.414 42.4702
15339 1 20.8926 101.788 43.7296
21230 2 19.073 101.818 42.4484
18285 1 1.8 106.581 43.7937
23916 2 2.70689 105.009 42.4914
18189 1 4.52676 104.984 43.773
23917 2 5.43625 106.604 42.512
18187 1 7.25624 106.581 43.7937
23793 2 8.16313 105.009 42.4914
18014 1 9.983 104.984 43.773
23791 2 10.8925 106.604 42.512
17744 1 15.4392 104.984 43.773
18015 1 12.7125 106.581 43.7937
23586 2 13.6194 105.009 42.4914
17742 1 18.1687 106.581 43.7937
23587 2 16.3487 106.604 42.512
23946 2 21.805 106.604 42.512
17412 1 20.8955 104.984 43.773
23289 2 19.0756 105.009 42.4914
23908 2 2.70934 108.199 42.532
18188 1 4.52941 108.177 43.8138
23792 2 8.16557 108.199 42.532
18002 1 9.98565 108.177 43.8138
17743 1 15.4419 108.177 43.8138
23578 2 13.6218 108.199 42.532
17411 1 20.8981 108.177 43.8138
23288 2 19.0781 108.199 42.532
18273 1 1.80253 109.773 43.8333
23907 2 2.71161 111.387 42.57
23906 2 5.43861 109.793 42.5513
18173 1 4.53183 111.369 43.8521
18190 1 7.25877 109.773 43.8333
23781 2 8.16785 111.387 42.57
23794 2 10.8949 109.793 42.5513
18001 1 9.98807 111.369 43.8521
18000 1 12.715 109.773 43.8333
17730 1 15.4443 111.369 43.8521
23577 2 13.6241 111.387 42.57
17745 1 18.1712 109.773 43.8333
23576 2 16.3511 109.793 42.5513
23947 2 21.8073 109.793 42.5513
17410 1 20.9005 111.369 43.8521
23281 2 19.0803 111.387 42.57
18274 1 1.80484 112.964 43.8703
23893 2 2.7137 114.575 42.6056
23909 2 5.4408 112.981 42.5881
18172 1 4.53403 114.559 43.8879
18171 1 7.26108 112.964 43.8703
23780 2 8.16994 114.575 42.6056
23779 2 10.897 112.981 42.5881
17982 1 9.99027 114.559 43.8879
18003 1 12.7173 112.964 43.8703
17729 1 15.4465 114.559 43.8879
23562 2 13.6262 114.575 42.6056
17728 1 18.1736 112.964 43.8703
23579 2 16.3533 112.981 42.5881
23942 2 21.8095 112.981 42.5881
17403 1 20.9027 114.559 43.8879
23280 2 19.0824 114.575 42.6056
18261 1 1.80693 116.154 43.9048
23892 2 2.71559 117.763 42.6385
18150 1 4.53601 117.749 43.921
23891 2 5.44279 116.169 42.6224
18174 1 7.26317 116.154 43.9048
23761 2 8.17183 117.763 42.6385
17981 1 9.99225 117.749 43.921
23782 2 10.899 116.169 42.6224
17708 1 15.4485 117.749 43.921
17980 1 12.7194 116.154 43.9048
23561 2 13.6281 117.763 42.6385
17731 1 18.1756 116.154 43.9048
23560 2 16.3553 116.169 42.6224
23943 2 21.8115 116.169 42.6224
17402 1 20.9047 117.749 43.921
23265 2 19.0843 117.763 42.6385
18262 1 1.8088 119.344 43.9364
23877 2 2.71729 120.95 42.6686
18149 1 4.53778 120.938 43.9512
23894 2 5.44458 119.357 42.6539
18148 1 7.26504 119.344 43.9364
23760 2 8.17353 120.95 42.6686
17954 1 9.99401 120.938 43.9512
23759 2 10.9008 119.357 42.6539
17707 1 15.4503 120.938 43.9512
17983 1 12.7213 119.344 43.9364
23538 2 13.6298 120.95 42.6686
17706 1 18.1775 119.344 43.9364
23563 2 16.3571 119.357 42.6539
23938 2 21.8133 119.357 42.6539
17387 1 20.9065 120.938 43.9512
23264 2 19.086 120.95 42.6686
18249 1 1.81046 122.533 43.9652
23876 2 2.71879 124.137 42.6958
18126 1 4.53934 124.127 43.9785
23875 2 5.44618 122.544 42.6826
18151 1 7.2667 122.533 43.9652
23734 2 8.17503 124.137 42.6958
17953 1 9.99557 124.127 43.9785
23762 2 10.9024 122.544 42.6826
17678 1 15.4518 124.127 43.9785
17952 1 12.7229 122.533 43.9652
23537 2 13.6313 124.137 42.6958
17709 1 18.1792 122.533 43.9652
23536 2 16.3587 122.544 42.6826
23939 2 21.8149 122.544 42.6826
17386 1 20.9081 124.127 43.9785
23241 2 19.0875 124.137 42.6958
18250 1 1.81192 125.722 43.991
23861 2 2.72011 127.324 42.72
18125 1 4.5407 127.316 44.0027
23878 2 5.44759 125.731 42.7083
18124 1 7.26816 125.722 43.991
23733 2 8.17635 127.324 42.72
17919 1 9.99694 127.316 44.0027
23732 2 10.9038 125.731 42.7083
17677 1 15.4532 127.316 44.0027
17955 1 12.7244 125.722 43.991
23506 2 13.6326 127.324 42.72
17676 1 18.1806 125.722 43.991
23539 2 16.3601 125.731 42.7083
23934 2 21.8163 125.731 42.7083
17363 1 20.9094 127.316 44.0027
23240 2 19.0888 127.324 42.72
18237 1 1.81319 128.911 44.0136
23859 2 5.44882 128.918 42.7308
18127 1 7.26943 128.911 44.0136
23735 2 10.9051 128.918 42.7308
17917 1 12.7257 128.911 44.0136
17679 1 18.1819 128.911 44.0136
23504 2 16.3613 128.918 42.7308
23935 2 21.8175 128.918 42.7308
23860 2 2.72124 130.512 42.7409
18238 1 1.81427 132.099 44.0329
18102 1 4.54188 130.505 44.0237
23862 2 5.44986 132.105 42.7501
23706 2 8.17748 130.512 42.7409
18100 1 7.27051 132.099 44.0329
17918 1 9.99811 130.505 44.0237
23704 2 10.9061 132.105 42.7501
17640 1 15.4544 130.505 44.0237
23505 2 13.6337 130.512 42.7409
17920 1 12.7268 132.099 44.0329
17638 1 18.183 132.099 44.0329
23507 2 16.3623 132.105 42.7501
17362 1 20.9106 130.505 44.0237
23209 2 19.09 130.512 42.7409
23930 2 21.8186 132.105 42.7501
18225 1 1.81517 135.288 44.0489
23845 2 2.7222 133.699 42.7585
18101 1 4.54286 133.694 44.0413
23843 2 5.45073 135.293 42.7661
18103 1 7.27141 135.288 44.0489
23705 2 8.17843 133.699 42.7585
17883 1 9.9991 133.694 44.0413
23707 2 10.907 135.293 42.7661
17639 1 15.4553 133.694 44.0413
17881 1 12.7276 135.288 44.0489
23467 2 13.6347 133.699 42.7585
17641 1 18.1839 135.288 44.0489
23465 2 16.3632 135.293 42.7661
23931 2 21.8194 135.293 42.7661
17331 1 20.9116 133.694 44.0413
23208 2 19.0909 133.699 42.7585
18226 1 1.81588 138.477 44.0615
23844 2 2.72297 136.886 42.7728
18078 1 4.54367 136.883 44.0556
23846 2 5.45142 138.48 42.7787
18076 1 7.27212 138.477 44.0615
23678 2 8.17921 136.886 42.7728
17882 1 9.99991 136.883 44.0556
23676 2 10.9077 138.48 42.7787
17595 1 15.4561 136.883 44.0556
17884 1 12.7284 138.477 44.0615
23466 2 13.6355 136.886 42.7728
17593 1 18.1846 138.477 44.0615
23468 2 16.3639 138.48 42.7787
23926 2 21.8201 138.48 42.7787
17330 1 20.9124 136.883 44.0556
23169 2 19.0917 136.886 42.7728
18214 1 1.81642 141.666 44.0705
23829 2 2.72358 140.074 42.7836
18077 1 4.54429 140.072 44.0664
23827 2 5.45194 141.668 42.7878
18079 1 7.27266 141.666 44.0705
23677 2 8.17982 140.074 42.7836
17848 1 10.0005 140.072 44.0664
23679 2 10.9082 141.668 42.7878
17594 1 15.4568 140.072 44.0664
17846 1 12.7289 141.666 44.0705
23427 2 13.6361 140.074 42.7836
17596 1 18.1851 141.666 44.0705
23425 2 16.3644 141.668 42.7878
23927 2 21.8207 141.668 42.7878
17291 1 20.913 140.072 44.0664
23168 2 19.0923 140.074 42.7836
18215 1 1.81678 144.856 44.0761
23828 2 2.72401 143.261 42.791
18058 1 4.54474 143.261 44.0738
23830 2 5.45229 144.855 42.7933
18056 1 7.27302 144.856 44.0761
23651 2 8.18025 143.261 42.791
17847 1 10.001 143.261 44.0738
23649 2 10.9085 144.855 42.7933
17551 1 15.4572 143.261 44.0738
17849 1 12.7293 144.856 44.0761
23426 2 13.6365 143.261 42.791
17549 1 18.1855 144.856 44.0761
23428 2 16.3648 144.855 42.7933
23923 2 21.821 144.855 42.7933
17290 1 20.9135 143.261 44.0738
23122 2 19.0927 143.261 42.791
18210 1 1.81697 148.045 44.0781
23817 2 2.72428 146.449 42.7948
18057 1 4.54502 146.45 44.0776
23815 2 5.45247 148.043 42.7954
18059 1 7.27321 148.045 44.0781
23650 2 8.18052 146.449 42.7948
17820 1 10.0013 146.45 44.0776
23652 2 10.9087 148.043 42.7954
17550 1 15.4575 146.45 44.0776
17818 1 12.7294 148.045 44.0781
23391 2 13.6368 146.449 42.7948
17552 1 18.1857 148.045 44.0781
23389 2 16.3649 148.043 42.7954
23924 2 21.8212 148.043 42.7954
17245 1 20.9137 146.45 44.0776
23121 2 19.093 146.449 42.7948
23816 2 2.72438 149.636 42.795
18043 1 4.54511 149.639 44.0778
23628 2 8.18062 149.636 42.795
17819 1 10.0014 149.639 44.0778
17512 1 15.4576 149.639 44.0778
23390 2 13.6369 149.636 42.795
17244 1 20.9138 149.639 44.0778
23076 2 19.0931 149.636 42.795
21999 2 0.890622 101.763 45.0033
16217 1 2.7113 101.733 46.2823
23914 2 3.61999 103.362 45.0262
18184 1 5.44074 103.335 46.3056
23788 2 9.07623 103.362 45.0262
21793 2 6.34686 101.763 45.0033
15967 1 8.16754 101.733 46.2823
21527 2 11.8031 101.763 45.0033
18012 1 10.897 103.335 46.3056
23584 2 14.5325 103.362 45.0262
15633 1 13.6238 101.733 46.2823
21185 2 17.2593 101.763 45.0033
17739 1 16.3532 103.335 46.3056
23285 2 19.9887 103.362 45.0262
18283 1 21.8095 103.335 46.3056
15337 1 19.08 101.733 46.2823
23904 2 0.893094 104.961 45.0483
18185 1 2.71389 104.936 46.3281
23902 2 3.62241 106.559 45.0697
18186 1 5.44323 106.536 46.3497
23789 2 6.34933 104.961 45.0483
23790 2 9.07865 106.559 45.0697
17998 1 8.17013 104.936 46.3281
23574 2 11.8056 104.961 45.0483
17996 1 10.8995 106.536 46.3497
23572 2 14.5349 106.559 45.0697
17740 1 13.6264 104.936 46.3281
23286 2 17.2618 104.961 45.0483
17741 1 16.3557 106.536 46.3497
23287 2 19.9911 106.559 45.0697
18271 1 21.8119 106.536 46.3497
17409 1 19.0826 104.936 46.3281
23903 2 0.895448 108.157 45.0903
18169 1 2.7163 108.135 46.3707
18167 1 5.44555 109.734 46.3909
23777 2 6.35169 108.157 45.0903
17997 1 8.17253 108.135 46.3707
23573 2 11.8079 108.157 45.0903
17999 1 10.9018 109.734 46.3909
17726 1 13.6288 108.135 46.3707
23278 2 17.2642 108.157 45.0903
17724 1 16.358 109.734 46.3909
18272 1 21.8143 109.734 46.3909
17408 1 19.085 108.135 46.3707
23889 2 0.897655 111.351 45.1295
18168 1 2.71853 111.332 46.4104
23905 2 3.62469 109.754 45.1103
23775 2 9.08093 109.754 45.1103
23776 2 6.35389 111.351 45.1295
17978 1 8.17477 111.332 46.4104
23558 2 11.8101 111.351 45.1295
23575 2 14.5372 109.754 45.1103
17725 1 13.631 111.332 46.4104
23277 2 17.2664 111.351 45.1295
23276 2 19.9934 109.754 45.1103
17401 1 19.0872 111.332 46.4104
23888 2 0.899699 114.543 45.1659
18146 1 2.72059 114.527 46.4472
23887 2 3.62682 112.947 45.1481
18170 1 5.4477 112.93 46.4291
23778 2 9.08306 112.947 45.1481
23757 2 6.35594 114.543 45.1659
17977 1 8.17683 114.527 46.4472
23557 2 11.8122 114.543 45.1659
17976 1 10.9039 112.93 46.4291
23556 2 14.5393 112.947 45.1481
17704 1 13.6331 114.527 46.4472
23262 2 17.2684 114.543 45.1659
17727 1 16.3602 112.93 46.4291
23279 2 19.9955 112.947 45.1481
18259 1 21.8164 112.93 46.4291
17400 1 19.0893 114.527 46.4472
23873 2 0.901567 117.735 45.1994
18145 1 2.72247 117.721 46.481
23890 2 3.62877 116.139 45.183
18144 1 5.44967 116.124 46.4645
23755 2 9.08501 116.139 45.183
23756 2 6.35781 117.735 45.1994
17950 1 8.17871 117.721 46.481
23534 2 11.814 117.735 45.1994
17979 1 10.9059 116.124 46.4645
23559 2 14.5413 116.139 45.183
17703 1 13.635 117.721 46.481
23261 2 17.2703 117.735 45.1994
17702 1 16.3622 116.124 46.4645
23260 2 19.9975 116.139 45.183
18260 1 21.8184 116.124 46.4645
17385 1 19.0912 117.721 46.481
23872 2 0.903255 120.926 45.23
18122 1 2.72418 120.914 46.5119
23871 2 3.63055 119.33 45.2151
18147 1 5.45147 119.317 46.4968
23730 2 6.35949 120.926 45.23
23758 2 9.08679 119.33 45.2151
17949 1 8.18041 120.914 46.5119
23533 2 11.8157 120.926 45.23
17948 1 10.9077 119.317 46.4968
23532 2 14.543 119.33 45.2151
17674 1 13.6367 120.914 46.5119
23238 2 17.272 120.926 45.23
17705 1 16.3639 119.317 46.4968
23263 2 19.9993 119.33 45.2151
18247 1 21.8202 119.317 46.4968
17384 1 19.0929 120.914 46.5119
23857 2 0.904761 124.117 45.2575
18121 1 2.7257 124.107 46.5396
23874 2 3.63215 122.521 45.2442
18120 1 5.45308 122.51 46.5261
23728 2 9.08839 122.521 45.2442
23729 2 6.361 124.117 45.2575
17915 1 8.18193 124.107 46.5396
23502 2 11.8172 124.117 45.2575
17951 1 10.9093 122.51 46.5261
23535 2 14.5446 122.521 45.2442
17673 1 13.6382 124.107 46.5396
23237 2 17.2735 124.117 45.2575
17672 1 16.3656 122.51 46.5261
23236 2 20.0009 122.521 45.2442
18248 1 21.8218 122.51 46.5261
17361 1 19.0944 124.107 46.5396
23856 2 0.906091 127.308 45.2819
18098 1 2.72704 127.299 46.564
23855 2 3.63357 125.712 45.2701
18123 1 5.45451 125.703 46.5522
23702 2 6.36233 127.308 45.2819
23731 2 9.08981 125.712 45.2701
17914 1 8.18328 127.299 46.564
23501 2 11.8186 127.308 45.2819
17913 1 10.9107 125.703 46.5522
23500 2 14.546 125.712 45.2701
17636 1 13.6395 127.299 46.564
23206 2 17.2748 127.308 45.2819
17675 1 16.367 125.703 46.5522
23239 2 20.0023 125.712 45.2701
18235 1 21.8232 125.703 46.5522
17360 1 19.0958 127.299 46.564
23858 2 3.63481 128.903 45.2928
18096 1 5.45577 128.895 46.575
23700 2 9.09105 128.903 45.2928
17916 1 10.912 128.895 46.575
23503 2 14.5473 128.903 45.2928
17634 1 16.3682 128.895 46.575
23204 2 20.0035 128.903 45.2928
18236 1 21.8245 128.895 46.575
23841 2 0.907243 130.498 45.303
18097 1 2.72821 130.491 46.5852
23839 2 3.63587 132.093 45.3122
18099 1 5.45685 132.088 46.5945
23701 2 6.36348 130.498 45.303
23703 2 9.09211 132.093 45.3122
17879 1 8.18445 130.491 46.5852
23463 2 11.8197 130.498 45.303
17877 1 10.9131 132.088 46.5945
23461 2 14.5483 132.093 45.3122
17635 1 13.6407 130.491 46.5852
23205 2 17.276 130.498 45.303
17637 1 16.3693 132.088 46.5945
23207 2 20.0046 132.093 45.3122
17329 1 19.0969 130.491 46.5852
18223 1 21.8256 132.088 46.5945
23840 2 0.908217 133.689 45.3207
18074 1 2.7292 133.684 46.6029
18224 1 0.00151073 135.28 46.6106
23842 2 3.63676 135.284 45.3283
18072 1 5.45775 135.28 46.6106
23672 2 9.093 135.284 45.3283
23674 2 6.36446 133.689 45.3207
17878 1 8.18544 133.684 46.6029
23462 2 11.8207 133.689 45.3207
17880 1 10.914 135.28 46.6106
23464 2 14.5492 135.284 45.3283
17591 1 13.6417 133.684 46.6029
23166 2 17.2769 133.689 45.3207
17589 1 16.3702 135.28 46.6106
23164 2 20.0055 135.284 45.3283
17328 1 19.0979 133.684 46.6029
23825 2 0.909016 136.879 45.335
18073 1 2.73001 136.876 46.6173
18212 1 0.00223417 138.472 46.6232
23823 2 3.63747 138.475 45.3409
18075 1 5.45847 138.472 46.6232
23673 2 6.36525 136.879 45.335
23675 2 9.09371 138.475 45.3409
17844 1 8.18625 136.876 46.6173
23423 2 11.8215 136.879 45.335
17842 1 10.9147 138.472 46.6232
23421 2 14.5499 138.475 45.3409
17590 1 13.6425 136.876 46.6173
23165 2 17.2777 136.879 45.335
17592 1 16.3709 138.472 46.6232
23167 2 20.0062 138.475 45.3409
17289 1 19.0987 136.876 46.6173
23824 2 0.909639 140.07 45.3458
18054 1 2.73065 140.068 46.6282
18213 1 0.00277887 141.664 46.6323
23826 2 3.638 141.665 45.35
18052 1 5.45902 141.664 46.6323
23645 2 9.09424 141.665 45.35
23647 2 6.36588 140.07 45.3458
17843 1 8.18689 140.068 46.6282
23422 2 11.8221 140.07 45.3458
17845 1 10.9153 141.664 46.6323
23424 2 14.5505 141.665 45.35
17547 1 13.6431 140.068 46.6282
23119 2 17.2784 140.07 45.3458
17545 1 16.3715 141.664 46.6323
23117 2 20.0067 141.665 45.35
17288 1 19.0994 140.068 46.6282
23813 2 0.910086 143.261 45.3532
18053 1 2.7311 143.26 46.6355
18208 1 0.00314412 144.857 46.6378
23811 2 3.63836 144.856 45.3555
18055 1 5.45938 144.857 46.6378
23646 2 6.36632 143.261 45.3532
23648 2 9.0946 144.856 45.3555
17816 1 8.18734 143.26 46.6355
23387 2 11.8226 143.261 45.3532
17814 1 10.9156 144.857 46.6378
23385 2 14.5508 144.856 45.3555
17546 1 13.6436 143.26 46.6355
23118 2 17.2788 143.261 45.3532
17548 1 16.3719 144.857 46.6378
23120 2 20.0071 144.856 45.3555
17243 1 19.0998 143.26 46.6355
23812 2 0.910358 146.451 45.357
18042 1 2.73138 146.453 46.6393
18209 1 0.00332871 148.049 46.6399
23814 2 3.63855 148.047 45.3576
18040 1 5.45957 148.049 46.6399
23625 2 9.09479 148.047 45.3576
23627 2 6.3666 146.451 45.357
17815 1 8.18762 146.453 46.6393
23386 2 11.8228 146.451 45.357
17817 1 10.9158 148.049 46.6399
23388 2 14.551 148.047 45.3576
17511 1 13.6439 146.453 46.6393
23075 2 17.2791 146.451 45.357
17509 1 16.372 148.049 46.6399
23073 2 20.0073 148.047 45.3576
17242 1 19.1001 146.453 46.6393
23806 2 0.910454 149.642 45.3572
18041 1 2.73147 149.645 46.6396
23626 2 6.36669 149.642 45.3572
17793 1 8.18771 149.645 46.6396
23356 2 11.8229 149.642 45.3572
17510 1 13.6439 149.645 46.6396
23074 2 17.2792 149.642 45.3572
17199 1 19.1002 149.645 46.6396
23900 2 1.80793 103.312 47.5788
16215 1 0.900434 101.681 48.8316
21777 2 2.72441 101.659 50.1031
21791 2 4.53498 101.709 47.5545
18183 1 3.62959 103.286 48.8564
23768 2 5.45338 103.264 50.1288
23787 2 7.26416 103.312 47.5788
17993 1 9.08583 103.286 48.8564
15945 1 6.35667 101.681 48.8316
21495 2 8.18065 101.659 50.1031
21497 2 9.99122 101.709 47.5545
23568 2 10.9096 103.264 50.1288
15631 1 11.8129 101.681 48.8316
23569 2 12.7204 103.312 47.5788
21183 2 15.4475 101.709 47.5545
17738 1 14.5421 103.286 48.8564
21145 2 13.6369 101.659 50.1031
23284 2 18.1766 103.312 47.5788
23269 2 16.3659 103.264 50.1288
15294 1 17.2691 101.681 48.8316
20855 2 20.9037 101.709 47.5545
23899 2 21.8221 103.264 50.1288
17405 1 19.9983 103.286 48.8564
20853 2 19.0931 101.659 50.1031
23901 2 1.81002 106.515 47.6245
18165 1 0.902489 104.889 48.8803
23769 2 2.7261 104.869 50.1534
23773 2 4.5371 104.914 47.6021
18163 1 3.63161 106.492 48.9031
23770 2 5.45505 106.472 50.177
23771 2 7.26626 106.515 47.6245
17994 1 6.35873 104.889 48.8803
17995 1 9.08785 106.492 48.9031
23550 2 8.18234 104.869 50.1534
23570 2 9.99334 104.914 47.6021
17722 1 11.815 104.889 48.8803
23548 2 10.9113 106.472 50.177
23274 2 15.4496 104.914 47.6021
23571 2 12.7225 106.515 47.6245
17720 1 14.5441 106.492 48.9031
23270 2 13.6386 104.869 50.1534
23272 2 18.1787 106.515 47.6245
17406 1 17.2712 104.889 48.8803
23271 2 16.3675 106.472 50.177
22932 2 20.9058 104.914 47.6021
23883 2 21.8238 106.472 50.177
17407 1 20.0003 106.492 48.9031
22929 2 19.0948 104.869 50.1534
23885 2 1.81204 109.715 47.6668
18164 1 0.904471 108.094 48.9251
23749 2 2.72776 108.075 50.1996
23772 2 4.53916 108.115 47.6461
18166 1 3.63355 109.695 48.9463
23747 2 5.4567 109.677 50.2213
23774 2 7.26828 109.715 47.6668
17972 1 9.08979 109.695 48.9463
17974 1 6.36071 108.094 48.9251
23549 2 8.184 108.075 50.1996
23554 2 9.9954 108.115 47.6461
17721 1 11.8169 108.094 48.9251
23551 2 10.9129 109.677 50.2213
23273 2 15.4516 108.115 47.6461
23552 2 12.7245 109.715 47.6668
17723 1 14.546 109.695 48.9463
23254 2 13.6402 108.075 50.1996
23275 2 18.1808 109.715 47.6668
17398 1 17.2732 108.094 48.9251
23252 2 16.3692 109.677 50.2213
22931 2 20.9079 108.115 47.6461
23884 2 21.8254 109.677 50.2213
17396 1 20.0023 109.695 48.9463
22928 2 19.0965 108.075 50.1996
18142 1 0.906368 111.295 48.9666
23748 2 2.72939 111.278 50.2421
23753 2 4.54113 111.314 47.6868
17973 1 6.36261 111.295 48.9666
23526 2 8.18563 111.278 50.2421
23553 2 9.99737 111.314 47.6868
17700 1 11.8188 111.295 48.9666
23258 2 15.4536 111.314 47.6868
23253 2 13.6419 111.278 50.2421
17397 1 17.2751 111.295 48.9666
22930 2 20.9098 111.314 47.6868
22921 2 19.0981 111.278 50.2421
23886 2 1.81395 112.913 47.7059
18141 1 0.908167 114.495 49.0047
23752 2 4.54299 114.511 47.7243
18140 1 3.6354 112.895 48.986
23751 2 7.27019 112.913 47.7059
17975 1 9.09164 112.895 48.986
17946 1 6.36441 114.495 49.0047
23530 2 9.99923 114.511 47.7243
17699 1 11.8206 114.495 49.0047
23555 2 12.7264 112.913 47.7059
23257 2 15.4555 114.511 47.7243
17698 1 14.5479 112.895 48.986
23256 2 18.1827 112.913 47.7059
17382 1 17.2769 114.495 49.0047
22923 2 20.9117 114.511 47.7243
17399 1 20.0041 112.895 48.986
23869 2 1.81575 116.109 47.7419
18118 1 0.909852 117.693 49.0395
23726 2 4.54472 117.707 47.7587
18143 1 3.63714 116.094 49.0225
23754 2 7.27199 116.109 47.7419
17944 1 9.09338 116.094 49.0225
17945 1 6.36609 117.693 49.0395
23529 2 10.001 117.707 47.7587
17670 1 11.8223 117.693 49.0395
23234 2 15.4572 117.707 47.7587
23528 2 12.7282 116.109 47.7419
17701 1 14.5496 116.094 49.0225
23259 2 18.1845 116.109 47.7419
17381 1 17.2786 117.693 49.0395
22922 2 20.9134 117.707 47.7587
17380 1 20.0059 116.094 49.0225
23870 2 1.81741 119.304 47.7747
18117 1 0.911407 120.89 49.0711
23725 2 4.54631 120.902 47.79
18116 1 3.63877 119.291 49.0557
23724 2 7.27365 119.304 47.7747
17911 1 6.36765 120.89 49.0711
17947 1 9.095 119.291 49.0557
23498 2 10.0025 120.902 47.79
17669 1 11.8239 120.89 49.0711
23233 2 15.4588 120.902 47.79
23531 2 12.7299 119.304 47.7747
17668 1 14.5512 119.291 49.0557
23232 2 18.1861 119.304 47.7747
17358 1 17.2801 120.89 49.0711
22907 2 20.915 120.902 47.79
17383 1 20.0075 119.291 49.0557
23853 2 1.81893 122.499 47.8044
18094 1 0.912823 124.086 49.0993
23698 2 4.54775 124.096 47.8179
18119 1 3.64025 122.488 49.0856
23727 2 7.27517 122.499 47.8044
17909 1 9.09649 122.488 49.0856
17910 1 6.36906 124.086 49.0993
23497 2 10.004 124.096 47.8179
17632 1 11.8253 124.086 49.0993
23202 2 15.4602 124.096 47.8179
23496 2 12.7314 122.499 47.8044
17671 1 14.5527 122.488 49.0856
23235 2 18.1876 122.499 47.8044
17357 1 17.2815 124.086 49.0993
22906 2 20.9165 124.096 47.8179
17356 1 20.009 122.488 49.0856
23854 2 1.82029 125.693 47.8307
18093 1 0.914098 127.282 49.1242
23697 2 4.54903 127.29 47.8426
18092 1 3.6416 125.684 49.1122
23696 2 7.27653 125.693 47.8307
17875 1 6.37034 127.282 49.1242
17912 1 9.09784 125.684 49.1122
23459 2 10.0053 127.29 47.8426
17631 1 11.8266 127.282 49.1242
23201 2 15.4615 127.29 47.8426
23499 2 12.7328 125.693 47.8307
17630 1 14.5541 125.684 49.1122
23200 2 18.189 125.693 47.8307
17326 1 17.2828 127.282 49.1242
22883 2 20.9177 127.29 47.8426
17359 1 20.0103 125.684 49.1122
23837 2 1.8215 128.887 47.8537
18070 1 0.915224 130.478 49.1456
23670 2 4.55016 130.484 47.8639
18095 1 3.6428 128.88 49.1353
23699 2 7.27774 128.887 47.8537
17873 1 9.09904 128.88 49.1353
17874 1 6.37146 130.478 49.1456
23458 2 10.0064 130.484 47.8639
17587 1 11.8277 130.478 49.1456
23162 2 15.4626 130.484 47.8639
23457 2 12.734 128.887 47.8537
17633 1 14.5553 128.88 49.1353
23203 2 18.1902 128.887 47.8537
17325 1 17.2839 130.478 49.1456
22882 2 20.9189 130.484 47.8639
17324 1 20.0115 128.88 49.1353
23838 2 1.82255 132.081 47.8733
18068 1 3.64385 132.075 49.155
23668 2 7.27879 132.081 47.8733
17876 1 9.10009 132.075 49.155
23460 2 12.735 132.081 47.8733
17585 1 14.5563 132.075 49.155
23160 2 18.1913 132.081 47.8733
17327 1 20.0126 132.075 49.155
23821 2 1.82343 135.275 47.8894
18069 1 0.916191 133.673 49.1635
23669 2 4.55113 133.678 47.8818
18071 1 3.64473 135.271 49.1712
23671 2 7.27967 135.275 47.8894
17838 1 9.10097 135.271 49.1712
17840 1 6.37243 133.673 49.1635
23419 2 10.0074 133.678 47.8818
17586 1 11.8287 133.673 49.1635
23161 2 15.4636 133.678 47.8818
23417 2 12.7359 135.275 47.8894
17588 1 14.5572 135.271 49.1712
23163 2 18.1921 135.275 47.8894
17286 1 17.2849 133.673 49.1635
22851 2 20.9198 133.678 47.8818
17284 1 20.0134 135.271 49.1712
23822 2 1.82414 138.469 47.9021
18050 1 0.916991 136.869 49.178
23643 2 4.55193 136.872 47.8962
18048 1 3.64545 138.467 49.1839
23641 2 7.28038 138.469 47.9021
17839 1 6.37323 136.869 49.178
17841 1 9.10168 138.467 49.1839
23418 2 10.0082 136.872 47.8962
17543 1 11.8295 136.869 49.178
23115 2 15.4644 136.872 47.8962
23420 2 12.7366 138.469 47.9021
17541 1 14.5579 138.467 49.1839
23113 2 18.1929 138.469 47.9021
17285 1 17.2857 136.869 49.178
22850 2 20.9206 136.872 47.8962
17287 1 20.0142 138.467 49.1839
23809 2 1.82468 141.663 47.9112
18049 1 0.917619 140.064 49.1889
23642 2 4.55255 140.066 47.9071
18051 1 3.64599 141.662 49.193
23644 2 7.28092 141.663 47.9112
17810 1 9.10223 141.662 49.193
17812 1 6.37386 140.064 49.1889
23383 2 10.0088 140.066 47.9071
17542 1 11.8301 140.064 49.1889
23114 2 15.465 140.066 47.9071
23381 2 12.7372 141.663 47.9112
17544 1 14.5585 141.662 49.193
23116 2 18.1934 141.663 47.9112
17240 1 17.2863 140.064 49.1889
22811 2 20.9213 140.066 47.9071
17238 1 20.0147 141.662 49.193
23810 2 1.82504 144.857 47.9168
18038 1 0.918072 143.26 49.1963
23623 2 4.553 143.26 47.9144
18036 1 3.64635 144.858 49.1986
23621 2 7.28128 144.857 47.9168
17811 1 6.37431 143.26 49.1963
17813 1 9.10259 144.858 49.1986
23382 2 10.0092 143.26 47.9144
17507 1 11.8305 143.26 49.1963
23071 2 15.4655 143.26 47.9144
23384 2 12.7375 144.857 47.9168
17505 1 14.5588 144.858 49.1986
23069 2 18.1938 144.857 47.9168
17239 1 17.2868 143.26 49.1963
22810 2 20.9217 143.26 47.9144
17241 1 20.0151 144.858 49.1986
23805 2 1.82522 148.051 47.9188
18037 1 0.918344 146.455 49.2001
23622 2 4.55327 146.454 47.9182
18039 1 3.64653 148.053 49.2007
23624 2 7.28146 148.051 47.9188
17790 1 9.10277 148.053 49.2007
17792 1 6.37458 146.455 49.2001
23355 2 10.0095 146.454 47.9182
17506 1 11.8308 146.455 49.2001
23070 2 15.4657 146.454 47.9182
23353 2 12.7377 148.051 47.9188
17508 1 14.559 148.053 49.2007
23072 2 18.1939 148.051 47.9188
17198 1 17.2871 146.455 49.2001
22767 2 20.922 146.454 47.9182
17196 1 20.0152 148.053 49.2007
18031 1 0.918435 149.651 49.2003
23608 2 4.55336 149.648 47.9185
17791 1 6.37467 149.651 49.2003
23354 2 10.0096 149.648 47.9185
17476 1 11.8309 149.651 49.2003
23032 2 15.4658 149.648 47.9185
17197 1 17.2871 149.651 49.2003
22766 2 20.9221 149.648 47.9185
18161 1 1.81957 103.239 51.4051
21775 2 0.914707 101.611 52.6502
23767 2 3.64347 103.219 52.6772
15943 1 4.54694 101.632 51.3787
17992 1 7.27581 103.239 51.4051
23545 2 9.0997 103.219 52.6772
21473 2 6.37095 101.611 52.6502
15601 1 10.0032 101.632 51.3787
21143 2 11.8272 101.611 52.6502
17717 1 12.732 103.239 51.4051
23268 2 14.5559 103.219 52.6772
15292 1 15.4594 101.632 51.3787
17404 1 18.1883 103.239 51.4051
20812 2 17.2834 101.611 52.6502
22925 2 20.0122 103.219 52.6772
14995 1 20.9157 101.632 51.3787
18162 1 1.82105 106.45 51.4545
23745 2 0.915973 104.825 52.7031
17970 1 4.54843 104.845 51.4303
23743 2 3.64472 106.431 52.7278
17968 1 7.27729 106.45 51.4545
23546 2 6.37221 104.825 52.7031
23547 2 9.10095 106.431 52.7278
17718 1 10.0047 104.845 51.4303
23250 2 11.8284 104.825 52.7031
17394 1 15.4609 104.845 51.4303
17719 1 12.7335 106.45 51.4545
23248 2 14.5572 106.431 52.7278
17392 1 18.1898 106.45 51.4545
22926 2 17.2847 104.825 52.7031
17067 1 20.9171 104.845 51.4303
22927 2 20.0134 106.431 52.7278
18138 1 1.82254 109.657 51.4998
23744 2 0.91722 108.035 52.7515
17969 1 4.54991 108.054 51.4776
23746 2 3.64597 109.639 52.7742
17971 1 7.27878 109.657 51.4998
23520 2 9.10221 109.639 52.7742
23522 2 6.37346 108.035 52.7515
17696 1 10.0062 108.054 51.4776
23249 2 11.8297 108.035 52.7515
17393 1 15.4624 108.054 51.4776
17694 1 12.735 109.657 51.4998
23251 2 14.5584 109.639 52.7742
17395 1 18.1913 109.657 51.4998
22918 2 17.2859 108.035 52.7515
17066 1 20.9186 108.054 51.4776
22916 2 20.0147 109.639 52.7742
23718 2 0.918479 111.243 52.7959
17942 1 4.5514 111.26 51.521
23521 2 6.37472 111.243 52.7959
17695 1 10.0076 111.26 51.521
23226 2 11.831 111.243 52.7959
17378 1 15.4639 111.26 51.521
22917 2 17.2872 111.243 52.7959
17065 1 20.9201 111.26 51.521
23867 2 0.00206763 112.879 50.262
23722 2 2.73097 114.479 50.281
18139 1 1.82401 112.862 51.5412
23717 2 0.919746 114.448 52.8363
23750 2 5.45831 112.879 50.262
23716 2 3.64723 112.845 52.8166
17941 1 4.55286 114.463 51.5606
23525 2 8.18721 114.479 50.281
17940 1 7.28025 112.862 51.5412
23523 2 9.10347 112.845 52.8166
23490 2 6.37598 114.448 52.8363
23524 2 10.9145 112.879 50.262
17666 1 10.0091 114.463 51.5606
23225 2 11.8322 114.448 52.8363
23230 2 13.6434 114.479 50.281
17697 1 12.7365 112.862 51.5412
23224 2 14.5597 112.845 52.8166
17377 1 15.4653 114.463 51.5606
23255 2 16.3708 112.879 50.262
17376 1 18.1927 112.862 51.5412
22902 2 17.2885 114.448 52.8363
22920 2 19.0997 114.479 50.281
22919 2 20.0159 112.845 52.8166
17058 1 20.9216 114.463 51.5606
23721 2 2.73249 117.679 50.3165
23868 2 0.00361944 116.079 50.2992
18114 1 1.82546 116.064 51.5791
23690 2 0.921004 117.651 52.873
23720 2 5.45986 116.079 50.2992
17907 1 4.55428 117.665 51.5966
23719 2 3.6485 116.049 52.8551
23494 2 8.18872 117.679 50.3165
17943 1 7.2817 116.064 51.5791
23488 2 9.10474 116.049 52.8551
23489 2 6.37724 117.651 52.873
23527 2 10.9161 116.079 50.2992
17665 1 10.0105 117.665 51.5966
23194 2 11.8335 117.651 52.873
23229 2 13.645 117.679 50.3165
17354 1 15.4668 117.665 51.5966
17664 1 12.7379 116.064 51.5791
23227 2 14.561 116.049 52.8551
23228 2 16.3723 116.079 50.2992
17379 1 18.1942 116.064 51.5791
22901 2 17.2897 117.651 52.873
22905 2 19.1012 117.679 50.3165
17057 1 20.923 117.665 51.5966
22900 2 20.0172 116.049 52.8551
23694 2 2.73391 120.878 50.3485
23851 2 0.0050921 119.278 50.3329
18115 1 1.82685 119.265 51.6133
23689 2 0.922232 120.853 52.9059
23723 2 5.46133 119.278 50.3329
17906 1 4.55564 120.866 51.629
23688 2 3.64974 119.252 52.8899
23493 2 8.19015 120.878 50.3485
17905 1 7.28309 119.265 51.6133
23451 2 6.37847 120.853 52.9059
23491 2 9.10598 119.252 52.8899
23492 2 10.9176 119.278 50.3329
17628 1 10.0119 120.866 51.629
23193 2 11.8347 120.853 52.9059
23198 2 13.6464 120.878 50.3485
17353 1 15.4681 120.866 51.629
17667 1 12.7393 119.265 51.6133
23192 2 14.5622 119.252 52.8899
23231 2 16.3738 119.278 50.3329
17352 1 18.1956 119.265 51.6133
22878 2 17.2909 120.853 52.9059
22904 2 19.1026 120.878 50.3485
17042 1 20.9244 120.866 51.629
22903 2 20.0185 119.252 52.8899
23693 2 2.73523 124.076 50.3771
23852 2 0.00646739 122.477 50.3632
18090 1 1.82816 122.466 51.6439
23662 2 0.923406 124.055 52.9351
23692 2 5.46271 122.477 50.3632
17871 1 4.55691 124.065 51.6579
23691 2 3.65095 122.454 52.9209
23455 2 8.19147 124.076 50.3771
17908 1 7.2844 122.466 51.6439
23449 2 9.10718 122.454 52.9209
23450 2 6.37964 124.055 52.9351
23495 2 10.9189 122.477 50.3632
17627 1 10.0131 124.065 51.6579
23154 2 11.8359 124.055 52.9351
23197 2 13.6477 124.076 50.3771
17322 1 15.4694 124.065 51.6579
17626 1 12.7406 122.466 51.6439
23195 2 14.5634 122.454 52.9209
23196 2 16.3752 122.477 50.3632
17355 1 18.1969 122.466 51.6439
22877 2 17.2921 124.055 52.9351
22881 2 19.1039 124.076 50.3771
17041 1 20.9256 124.065 51.6579
22876 2 20.0197 122.454 52.9209
23666 2 2.73644 127.273 50.4022
23835 2 0.00773225 125.675 50.3901
18091 1 1.82939 125.665 51.671
23661 2 0.924506 127.256 52.9606
23695 2 5.46397 125.675 50.3901
17870 1 4.55808 127.265 51.6832
23660 2 3.65209 125.656 52.9483
23454 2 8.19268 127.273 50.4022
17869 1 7.28562 125.665 51.671
23411 2 6.38074 127.256 52.9606
23452 2 9.10832 125.656 52.9483
23453 2 10.9202 125.675 50.3901
17583 1 10.0143 127.265 51.6832
23153 2 11.837 127.256 52.9606
23158 2 13.6489 127.273 50.4022
17321 1 15.4706 127.265 51.6832
17629 1 12.7419 125.665 51.671
23152 2 14.5646 125.656 52.9483
23199 2 16.3764 125.675 50.3901
17320 1 18.1981 125.665 51.671
22846 2 17.2932 127.256 52.9606
22880 2 19.1052 127.273 50.4022
17018 1 20.9268 127.265 51.6832
22879 2 20.0208 125.656 52.9483
23665 2 2.73751 130.471 50.4237
23836 2 0.00887473 128.872 50.4134
18066 1 1.8305 128.864 51.6945
23635 2 0.92551 130.457 52.9825
23664 2 5.46511 128.872 50.4134
17836 1 4.55913 130.464 51.7049
23663 2 3.65314 128.857 52.972
23415 2 8.19375 130.471 50.4237
17872 1 7.28674 128.864 51.6945
23409 2 9.10938 128.857 52.972
23410 2 6.38175 130.457 52.9825
23456 2 10.9214 128.872 50.4134
17582 1 10.0154 130.464 51.7049
23107 2 11.838 130.457 52.9825
23157 2 13.65 130.471 50.4237
17282 1 15.4716 130.464 51.7049
17581 1 12.743 128.864 51.6945
23155 2 14.5656 128.857 52.972
23156 2 16.3776 128.872 50.4134
17323 1 18.1992 128.864 51.6945
22845 2 17.2942 130.457 52.9825
22849 2 19.1062 130.471 50.4237
17017 1 20.9279 130.464 51.7049
22844 2 20.0219 128.857 52.972
23819 2 0.00988095 132.069 50.4332
18067 1 1.83149 132.063 51.7144
23667 2 5.46612 132.069 50.4332
23633 2 3.65409 132.057 52.9921
17834 1 7.28773 132.063 51.7144
23412 2 9.11033 132.057 52.9921
23413 2 10.9224 132.069 50.4332
17584 1 12.744 132.063 51.7144
23105 2 14.5666 132.057 52.9921
23159 2 16.3786 132.069 50.4332
17280 1 18.2002 132.063 51.7144
22847 2 20.0228 132.057 52.9921
23639 2 2.73845 133.668 50.4418
23820 2 0.0107381 135.267 50.4495
18046 1 1.83234 135.262 51.7308
23634 2 0.926397 133.657 53.0008
23637 2 5.46698 135.267 50.4495
17835 1 4.56006 133.663 51.723
23636 2 3.65491 135.258 53.0086
23414 2 8.19469 133.668 50.4418
17837 1 7.28858 135.262 51.7308
23373 2 9.11115 135.258 53.0086
23375 2 6.38264 133.657 53.0008
23416 2 10.9232 135.267 50.4495
17539 1 10.0163 133.663 51.723
23106 2 11.8389 133.657 53.0008
23111 2 13.6509 133.668 50.4418
17281 1 15.4725 133.663 51.723
17537 1 12.7448 135.262 51.7308
23108 2 14.5674 135.258 53.0086
23109 2 16.3795 135.267 50.4495
17283 1 18.2011 135.262 51.7308
22806 2 17.2951 133.657 53.0008
22848 2 19.1072 133.668 50.4418
16986 1 20.9288 133.663 51.723
22804 2 20.0236 135.258 53.0086
23638 2 2.73923 136.865 50.4563
23807 2 0.0114358 138.464 50.4623
18047 1 1.83304 138.461 51.7436
23615 2 0.927147 136.858 53.0155
23640 2 5.46767 138.464 50.4623
17808 1 4.56083 136.862 51.7376
23613 2 3.65558 138.458 53.0215
23379 2 8.19547 136.865 50.4563
17806 1 7.28928 138.461 51.7436
23374 2 6.38339 136.858 53.0155
23376 2 9.11182 138.458 53.0215
23377 2 10.9239 138.464 50.4623
17538 1 10.0171 136.862 51.7376
23063 2 11.8396 136.858 53.0155
23110 2 13.6517 136.865 50.4563
17236 1 15.4733 136.862 51.7376
17540 1 12.7455 138.461 51.7436
23061 2 14.5681 138.458 53.0215
23112 2 16.3802 138.464 50.4623
17234 1 18.2018 138.461 51.7436
22805 2 17.2959 136.858 53.0155
22809 2 19.1079 136.865 50.4563
16985 1 20.9295 136.862 51.7376
22807 2 20.0243 138.458 53.0215
23619 2 2.73984 140.062 50.4673
23808 2 0.0119664 141.661 50.4714
18034 1 1.83357 141.66 51.7528
23614 2 0.927745 140.058 53.0265
23617 2 5.4682 141.661 50.4714
17807 1 4.56144 140.06 51.7486
23616 2 3.6561 141.659 53.0307
23378 2 8.19608 140.062 50.4673
17809 1 7.28981 141.66 51.7528
23345 2 9.11234 141.659 53.0307
23347 2 6.38398 140.058 53.0265
23380 2 10.9244 141.661 50.4714
17503 1 10.0177 140.06 51.7486
23062 2 11.8402 140.058 53.0265
23067 2 13.6523 140.062 50.4673
17235 1 15.4739 140.06 51.7486
17501 1 12.746 141.66 51.7528
23064 2 14.5686 141.659 53.0307
23065 2 16.3807 141.661 50.4714
17237 1 18.2023 141.66 51.7528
22762 2 17.2965 140.058 53.0265
22808 2 19.1086 140.062 50.4673
16950 1 20.9302 140.06 51.7486
22760 2 20.0248 141.659 53.0307
23618 2 2.74029 143.259 50.4747
23803 2 0.0123234 144.858 50.4771
18035 1 1.83393 144.859 51.7584
23603 2 0.92818 143.259 53.034
23620 2 5.46856 144.858 50.4771
17788 1 4.56189 143.259 51.7561
23601 2 3.65645 144.859 53.0364
23351 2 8.19652 143.259 50.4747
17786 1 7.29016 144.859 51.7584
23346 2 6.38442 143.259 53.034
23348 2 9.11269 144.859 53.0364
23349 2 10.9248 144.858 50.4771
17502 1 10.0181 143.259 51.7561
23027 2 11.8407 143.259 53.034
23066 2 13.6528 143.259 50.4747
17194 1 15.4744 143.259 51.7561
17504 1 12.7464 144.859 51.7584
23025 2 14.5689 144.859 53.0364
23068 2 16.381 144.858 50.4771
17192 1 18.2026 144.859 51.7584
22761 2 17.2969 143.259 53.034
22765 2 19.109 143.259 50.4747
16949 1 20.9306 143.259 51.7561
22763 2 20.0252 144.859 53.0364
23607 2 2.74055 146.457 50.4785
23804 2 0.0125024 148.055 50.4791
18030 1 1.8341 148.057 51.7605
23602 2 0.928444 146.459 53.0378
23605 2 5.46874 148.055 50.4791
17787 1 4.56216 146.458 51.7599
23604 2 3.65663 148.059 53.0384
23350 2 8.19679 146.457 50.4785
17789 1 7.29034 148.057 51.7605
23325 2 9.11287 148.059 53.0384
23327 2 6.38468 146.459 53.0378
23352 2 10.925 148.055 50.4791
17475 1 10.0184 146.458 51.7599
23026 2 11.8409 146.459 53.0378
23031 2 13.653 146.457 50.4785
17193 1 15.4746 146.458 51.7599
17473 1 12.7466 148.057 51.7605
23028 2 14.5691 148.059 53.0384
23029 2 16.3812 148.055 50.4791
17195 1 18.2028 148.057 51.7605
22722 2 17.2972 146.459 53.0378
22764 2 19.1093 146.457 50.4785
16914 1 20.9309 146.458 51.7599
22720 2 20.0253 148.059 53.0384
23606 2 2.74064 149.654 50.4788
23596 2 0.92853 149.659 53.0381
17773 1 4.56224 149.657 51.7601
23328 2 8.19688 149.654 50.4788
23326 2 6.38477 149.659 53.0381
17474 1 10.0185 149.657 51.7601
22996 2 11.841 149.659 53.0381
23030 2 13.6531 149.654 50.4788
17157 1 15.4747 149.657 51.7601
22721 2 17.2972 149.659 53.0381
22723 2 19.1094 149.654 50.4788
16913 1 20.931 149.657 51.7601
18160 1 0.0102353 103.195 53.9526
15929 1 2.73786 101.586 53.9248
23741 2 1.83407 103.176 55.2248
17965 1 5.46647 103.195 53.9526
21471 2 4.56171 101.567 55.1966
15599 1 8.19409 101.586 53.9248
23544 2 7.29031 103.176 55.2248
17716 1 10.9227 103.195 53.9526
21113 2 10.0179 101.567 55.1966
15256 1 13.6503 101.586 53.9248
23245 2 12.7466 103.176 55.2248
20810 2 15.4742 101.567 55.1966
17389 1 16.379 103.195 53.9526
22924 2 18.2028 103.176 55.2248
14993 1 19.1066 101.586 53.9248
20536 2 20.9304 101.567 55.1966
17966 1 2.73885 104.803 53.9791
18136 1 0.0112341 106.409 54.0045
23742 2 1.83497 106.391 55.2776
17967 1 5.46747 106.409 54.0045
23518 2 4.56265 104.784 55.2518
17692 1 8.19509 104.803 53.9791
23516 2 7.29121 106.391 55.2776
17690 1 10.9237 106.409 54.0045
23246 2 10.0189 104.784 55.2518
17390 1 13.6513 104.803 53.9791
22914 2 15.4751 104.784 55.2518
23247 2 12.7474 106.391 55.2776
17391 1 16.3799 106.409 54.0045
22912 2 18.2037 106.391 55.2776
17064 1 19.1076 104.803 53.9791
22602 2 20.9314 104.784 55.2518
17938 1 2.73987 108.015 54.0287
18137 1 0.0122727 109.62 54.0519
23714 2 1.83586 109.603 55.326
17936 1 5.46851 109.62 54.0519
23517 2 4.56353 107.997 55.3024
17691 1 8.1961 108.015 54.0287
23519 2 7.2921 109.603 55.326
17693 1 10.9247 109.62 54.0519
23222 2 10.0198 107.997 55.3024
17374 1 13.6523 108.015 54.0287
22913 2 15.476 107.997 55.3024
23220 2 12.7483 109.603 55.326
17372 1 16.381 109.62 54.0519
22915 2 18.2046 109.603 55.326
17063 1 19.1086 108.015 54.0287
22601 2 20.9322 107.997 55.3024
17937 1 2.74093 111.225 54.074
23486 2 4.56444 111.208 55.3485
17662 1 8.19717 111.225 54.074
23221 2 10.0207 111.208 55.3485
17373 1 13.6534 111.225 54.074
22898 2 15.4769 111.208 55.3485
17056 1 19.1096 111.225 54.074
22600 2 20.9332 111.208 55.3485
18112 1 0.0133604 112.828 54.0951
17903 1 2.74204 114.432 54.1152
23715 2 1.83679 112.812 55.37
17939 1 5.4696 112.828 54.0951
23485 2 4.5654 114.416 55.3905
17661 1 8.19828 114.432 54.1152
23484 2 7.29303 112.812 55.37
17660 1 10.9258 112.828 54.0951
23190 2 10.0216 114.416 55.3905
17350 1 13.6545 114.432 54.1152
23223 2 12.7493 112.812 55.37
22897 2 15.4779 114.416 55.3905
17375 1 16.3821 112.828 54.0951
22896 2 18.2055 112.812 55.37
17055 1 19.1108 114.432 54.1152
22593 2 20.9341 114.416 55.3905
17902 1 2.74317 117.637 54.1524
18113 1 0.0144844 116.035 54.1343
23686 2 1.83778 116.02 55.4099
17901 1 5.47072 116.035 54.1343
23447 2 4.5664 117.623 55.4283
17624 1 8.19941 117.637 54.1524
23487 2 7.29401 116.02 55.4099
17663 1 10.927 116.035 54.1343
23189 2 10.0226 117.623 55.4283
17349 1 13.6556 117.637 54.1524
22874 2 15.4789 117.623 55.4283
23188 2 12.7503 116.02 55.4099
17348 1 16.3832 116.035 54.1343
22899 2 18.2065 116.02 55.4099
17040 1 19.1119 117.637 54.1524
22592 2 20.9351 117.623 55.4283
17867 1 2.7443 120.841 54.1858
18088 1 0.0156212 119.239 54.1696
23687 2 1.83879 119.226 55.4457
17904 1 5.47186 119.239 54.1696
23446 2 4.56742 120.829 55.4621
17623 1 8.20054 120.841 54.1858
23445 2 7.29503 119.226 55.4457
17622 1 10.9281 119.239 54.1696
23150 2 10.0237 120.829 55.4621
17318 1 13.6568 120.841 54.1858
22873 2 15.4799 120.829 55.4621
23191 2 12.7513 119.226 55.4457
17351 1 16.3843 119.239 54.1696
22872 2 18.2075 119.226 55.4457
17039 1 19.113 120.841 54.1858
22577 2 20.9361 120.829 55.4621
17866 1 2.74541 124.045 54.2153
18089 1 0.0167432 122.443 54.201
23658 2 1.83982 122.432 55.4775
17865 1 5.47298 122.443 54.201
23407 2 4.56844 124.034 55.492
17579 1 8.20165 124.045 54.2153
23448 2 7.29605 122.432 55.4775
17625 1 10.9292 122.443 54.201
23149 2 10.0247 124.034 55.492
17317 1 13.6579 124.045 54.2153
22842 2 15.4809 124.034 55.492
23148 2 12.7523 122.432 55.4775
17316 1 16.3855 122.443 54.201
22875 2 18.2085 122.432 55.4775
17016 1 19.1141 124.045 54.2153
22576 2 20.9372 124.034 55.492
17832 1 2.74646 127.248 54.2411
18064 1 0.0178257 125.646 54.2287
23659 2 1.84082 125.637 55.5054
17868 1 5.47406 125.646 54.2287
23406 2 4.56943 127.239 55.518
17578 1 8.2027 127.248 54.2411
23405 2 7.29706 125.637 55.5054
17577 1 10.9303 125.646 54.2287
23103 2 10.0257 127.239 55.518
17278 1 13.6589 127.248 54.2411
22841 2 15.4819 127.239 55.518
23151 2 12.7533 125.637 55.5054
17319 1 16.3865 125.646 54.2287
22840 2 18.2095 125.637 55.5054
17015 1 19.1152 127.248 54.2411
22553 2 20.9381 127.239 55.518
17831 1 2.74744 130.45 54.2632
18065 1 0.0188439 128.849 54.2526
23631 2 1.84179 128.841 55.5296
17830 1 5.47508 128.849 54.2526
23371 2 4.57036 130.443 55.5403
17535 1 8.20368 130.45 54.2632
23408 2 7.29802 128.841 55.5296
17580 1 10.9313 128.849 54.2526
23102 2 10.0266 130.443 55.5403
17277 1 13.6599 130.45 54.2632
22802 2 15.4828 130.443 55.5403
23101 2 12.7543 128.841 55.5296
17276 1 16.3876 128.849 54.2526
22843 2 18.2105 128.841 55.5296
16984 1 19.1162 130.45 54.2632
22552 2 20.9391 130.443 55.5403
18044 1 0.0197698 132.051 54.2728
23632 2 1.84267 132.045 55.55
17833 1 5.47601 132.051 54.2728
23369 2 7.29891 132.045 55.55
17533 1 10.9322 132.051 54.2728
23104 2 12.7551 132.045 55.55
17279 1 16.3885 132.051 54.2728
22800 2 18.2114 132.045 55.55
17804 1 2.74831 133.652 54.2815
18045 1 0.0205773 135.253 54.2894
23611 2 1.84345 135.249 55.5667
17802 1 5.47682 135.253 54.2894
23370 2 4.5712 133.647 55.5588
17534 1 8.20455 133.652 54.2815
23372 2 7.29969 135.249 55.5667
17536 1 10.9331 135.253 54.2894
23059 2 10.0274 133.647 55.5588
17232 1 13.6608 133.652 54.2815
22801 2 15.4837 133.647 55.5588
23057 2 12.7559 135.249 55.5667
17230 1 16.3893 135.253 54.2894
22803 2 18.2122 135.249 55.5667
16983 1 19.117 133.652 54.2815
22522 2 20.9399 133.647 55.5588
17803 1 2.74905 136.854 54.2963
18032 1 0.0212462 138.455 54.3023
23612 2 1.8441 138.453 55.5797
17805 1 5.47748 138.455 54.3023
23343 2 4.57191 136.851 55.5736
17499 1 8.20529 136.854 54.2963
23341 2 7.30034 138.453 55.5797
17497 1 10.9337 138.455 54.3023
23058 2 10.0282 136.851 55.5736
17231 1 13.6615 136.854 54.2963
22758 2 15.4844 136.851 55.5736
23060 2 12.7566 138.453 55.5797
17233 1 16.39 138.455 54.3023
22756 2 18.2128 138.453 55.5797
16948 1 19.1178 136.854 54.2963
22521 2 20.9406 136.851 55.5736
17784 1 2.74964 140.056 54.3074
18033 1 0.0217611 141.657 54.3116
23599 2 1.84461 141.656 55.589
17782 1 5.478 141.657 54.3116
23342 2 4.57249 140.054 55.5848
17498 1 8.20588 140.056 54.3074
23344 2 7.30085 141.656 55.589
17500 1 10.9342 141.657 54.3116
23023 2 10.0287 140.054 55.5848
17190 1 13.6621 140.056 54.3074
22757 2 15.485 140.054 55.5848
23021 2 12.7571 141.656 55.589
17188 1 16.3905 141.657 54.3116
22759 2 18.2133 141.656 55.589
16947 1 19.1184 140.056 54.3074
22490 2 20.9412 140.054 55.5848
17783 1 2.75008 143.258 54.3149
18028 1 0.0221102 144.859 54.3173
23600 2 1.84495 144.86 55.5947
17785 1 5.47835 144.859 54.3173
23323 2 4.57292 143.258 55.5923
17471 1 8.20631 143.258 54.3149
23321 2 7.30119 144.86 55.5947
17469 1 10.9346 144.859 54.3173
23022 2 10.0292 143.258 55.5923
17189 1 13.6626 143.258 54.3149
22718 2 15.4854 143.258 55.5923
23024 2 12.7574 144.86 55.5947
17191 1 16.3908 144.859 54.3173
22716 2 18.2137 144.86 55.5947
16912 1 19.1188 143.258 54.3149
22489 2 20.9416 143.258 55.5923
17772 1 2.75034 146.46 54.3187
18029 1 0.0222845 148.061 54.3193
23595 2 1.84512 148.064 55.5968
17770 1 5.47852 148.061 54.3193
23322 2 4.57318 146.462 55.5962
17470 1 8.20658 146.46 54.3187
23324 2 7.30136 148.064 55.5968
17472 1 10.9348 148.061 54.3193
22995 2 10.0294 146.462 55.5962
17156 1 13.6628 146.46 54.3187
22717 2 15.4857 146.462 55.5962
22993 2 12.7576 148.064 55.5968
17154 1 16.391 148.061 54.3193
22719 2 18.2138 148.064 55.5968
16911 1 19.1191 146.46 54.3187
22458 2 20.9419 146.462 55.5962
17771 1 2.75042 149.662 54.319
23308 2 4.57326 149.665 55.5964
17448 1 8.20666 149.662 54.319
22994 2 10.0295 149.665 55.5964
17155 1 13.6629 149.662 54.319
22683 2 15.4857 149.665 55.5964
16878 1 19.1191 149.662 54.319
22457 2 20.942 149.665 55.5964
15927 1 0.929017 101.544 56.4708
23740 2 0.02493 103.136 57.7723
21457 2 2.75267 101.526 57.7432
17964 1 3.65747 103.154 56.4996
23513 2 5.48117 103.136 57.7723
17687 1 9.11371 103.154 56.4996
15577 1 6.38526 101.544 56.4708
21111 2 8.2089 101.526 57.7432
15254 1 11.8415 101.544 56.4708
23244 2 10.9374 103.136 57.7723
17388 1 14.5699 103.154 56.4996
20776 2 13.6651 101.526 57.7432
14960 1 17.2977 101.544 56.4708
22909 2 16.3936 103.136 57.7723
17060 1 20.0262 103.154 56.4996
20534 2 19.1214 101.526 57.7432
17934 1 0.929669 104.763 56.5273
23514 2 2.75338 104.745 57.8002
23712 2 0.0255735 106.353 57.827
17932 1 3.6581 106.371 56.5537
23515 2 5.48181 106.353 57.827
17688 1 6.38591 104.763 56.5273
17689 1 9.11434 106.371 56.5537
23218 2 8.20962 104.745 57.8002
17370 1 11.8421 104.763 56.5273
23216 2 10.9381 106.353 57.827
17368 1 14.5706 106.371 56.5537
22910 2 13.6659 104.745 57.8002
17061 1 17.2984 104.763 56.5273
22911 2 16.3943 106.353 57.827
17062 1 20.0268 106.371 56.5537
22599 2 19.1221 104.745 57.8002
17933 1 0.930303 107.978 56.579
23482 2 2.75399 107.961 57.8526
23713 2 0.0261796 109.568 57.8771
17935 1 3.65876 109.584 56.6031
23480 2 5.48242 109.568 57.8771
17656 1 9.115 109.584 56.6031
17658 1 6.38654 107.978 56.579
23217 2 8.21023 107.961 57.8526
17369 1 11.8428 107.978 56.579
23219 2 10.9387 109.568 57.8771
17371 1 14.5712 109.584 56.6031
22894 2 13.6665 107.961 57.8526
17053 1 17.299 107.978 56.579
22892 2 16.3949 109.568 57.8771
17051 1 20.0275 109.584 56.6031
22598 2 19.1227 107.961 57.8526
17899 1 0.930999 111.19 56.6261
23481 2 2.75462 111.174 57.9004
17657 1 6.38724 111.19 56.6261
23186 2 8.21086 111.174 57.9004
17346 1 11.8435 111.19 56.6261
22893 2 13.6671 111.174 57.9004
17052 1 17.2997 111.19 56.6261
22591 2 19.1233 111.174 57.9004
17898 1 0.931782 114.401 56.6688
23684 2 0.0268333 112.78 57.9226
23443 2 2.75531 114.386 57.9437
17897 1 3.6595 112.796 56.648
23483 2 5.48307 112.78 57.9226
17659 1 9.11574 112.796 56.648
17620 1 6.38802 114.401 56.6688
23185 2 8.21155 114.386 57.9437
17345 1 11.8443 114.401 56.6688
23184 2 10.9393 112.78 57.9226
17344 1 14.572 112.796 56.648
22870 2 13.6678 114.386 57.9437
17037 1 17.3005 114.401 56.6688
22895 2 16.3955 112.78 57.9226
17054 1 20.0282 112.796 56.648
22590 2 19.124 114.386 57.9437
17863 1 0.932644 117.61 56.7072
23442 2 2.75608 117.596 57.9826
23685 2 0.0275658 115.991 57.9637
17900 1 3.66032 116.005 56.6886
23441 2 5.4838 115.991 57.9637
17618 1 9.11656 116.005 56.6886
17619 1 6.38888 117.61 56.7072
23146 2 8.21232 117.596 57.9826
17314 1 11.8451 117.61 56.7072
23187 2 10.94 115.991 57.9637
17347 1 14.5728 116.005 56.6886
22869 2 13.6686 117.596 57.9826
17036 1 17.3014 117.61 56.7072
22868 2 16.3963 115.991 57.9637
17035 1 20.029 116.005 56.6886
22575 2 19.1248 117.596 57.9826
17862 1 0.933563 120.817 56.7415
23403 2 2.75692 120.805 58.0173
23656 2 0.0283753 119.201 58.0005
17861 1 3.66122 119.213 56.7249
23444 2 5.48461 119.201 58.0005
17575 1 6.3898 120.817 56.7415
17621 1 9.11746 119.213 56.7249
23145 2 8.21316 120.805 58.0173
17313 1 11.846 120.817 56.7415
23144 2 10.9409 119.201 58.0005
17312 1 14.5737 119.213 56.7249
22838 2 13.6694 120.805 58.0173
17013 1 17.3023 120.817 56.7415
22871 2 16.3971 119.201 58.0005
17038 1 20.0299 119.213 56.7249
22574 2 19.1256 120.805 58.0173
17828 1 0.934509 124.024 56.7717
23402 2 2.75781 124.014 58.0478
23657 2 0.0292415 122.409 58.0331
17864 1 3.66215 122.421 56.7571
23401 2 5.48548 122.409 58.0331
17573 1 9.11839 122.421 56.7571
17574 1 6.39075 124.024 56.7717
23099 2 8.21404 124.014 58.0478
17274 1 11.847 124.024 56.7717
23147 2 10.9417 122.409 58.0331
17315 1 14.5746 122.421 56.7571
22837 2 13.6703 124.014 58.0478
17012 1 17.3032 124.024 56.7717
22836 2 16.398 122.409 58.0331
17011 1 20.0309 122.421 56.7571
22551 2 19.1265 124.014 58.0478
17827 1 0.935449 127.23 56.798
23367 2 2.7587 127.222 58.0744
23629 2 0.0301333 125.618 58.0616
17826 1 3.6631 125.627 56.7853
23404 2 5.48637 125.618 58.0616
17531 1 6.39169 127.23 56.798
17576 1 9.11934 125.627 56.7853
23098 2 8.21493 127.222 58.0744
17273 1 11.8479 127.23 56.798
23097 2 10.9426 125.618 58.0616
17272 1 14.5756 125.627 56.7853
22798 2 13.6712 127.222 58.0744
16981 1 17.3042 127.23 56.798
22839 2 16.3988 125.618 58.0616
17014 1 20.0318 125.627 56.7853
22550 2 19.1274 127.222 58.0744
17800 1 0.936345 130.436 56.8204
23366 2 2.75956 130.429 58.097
23630 2 0.0310133 128.825 58.0862
17829 1 3.66402 128.833 56.8097
23365 2 5.48725 128.825 58.0862
17529 1 9.12026 128.833 56.8097
17530 1 6.39258 130.436 56.8204
23055 2 8.21579 130.429 58.097
17228 1 11.8488 130.436 56.8204
23100 2 10.9435 128.825 58.0862
17275 1 14.5765 128.833 56.8097
22797 2 13.672 130.429 58.097
16980 1 17.3051 130.436 56.8204
22796 2 16.3997 128.825 58.0862
16979 1 20.0327 128.833 56.8097
22520 2 19.1283 130.429 58.097
23609 2 0.0318438 132.033 58.1069
17798 1 3.66489 132.039 56.8302
23368 2 5.48808 132.033 58.1069
17532 1 9.12112 132.039 56.8302
23053 2 10.9443 132.033 58.1069
17226 1 14.5774 132.039 56.8302
22799 2 16.4006 132.033 58.1069
16982 1 20.0336 132.039 56.8302
17799 1 0.937163 133.642 56.8391
23339 2 2.76035 133.636 58.1158
23610 2 0.0325895 135.24 58.1237
17801 1 3.66565 135.244 56.847
23337 2 5.48883 135.24 58.1237
17493 1 9.12189 135.244 56.847
17495 1 6.3934 133.642 56.8391
23054 2 8.21659 133.636 58.1158
17227 1 11.8496 133.642 56.8391
23056 2 10.9451 135.24 58.1237
17229 1 14.5781 135.244 56.847
22754 2 13.6728 133.636 58.1158
16945 1 17.3059 133.642 56.8391
22752 2 16.4013 135.24 58.1237
16943 1 20.0344 135.244 56.847
22519 2 19.1291 133.636 58.1158
17780 1 0.937871 136.847 56.854
23338 2 2.76104 136.843 58.1308
23597 2 0.0332206 138.447 58.1369
17778 1 3.6663 138.45 56.86
23340 2 5.48946 138.447 58.1369
17494 1 6.39411 136.847 56.854
17496 1 9.12253 138.45 56.86
23019 2 8.21728 136.843 58.1308
17186 1 11.8503 136.847 56.854
23017 2 10.9457 138.447 58.1369
17184 1 14.5788 138.45 56.86
22753 2 13.6735 136.843 58.1308
16944 1 17.3066 136.847 56.854
22755 2 16.4019 138.447 58.1369
16946 1 20.035 138.45 56.86
22488 2 19.1298 136.843 58.1308
17779 1 0.938446 140.052 56.8652
23319 2 2.7616 140.05 58.1421
23598 2 0.0337135 141.654 58.1463
17781 1 3.6668 141.655 56.8694
23317 2 5.48995 141.654 58.1463
17465 1 9.12304 141.655 56.8694
17467 1 6.39468 140.052 56.8652
23018 2 8.21784 140.05 58.1421
17185 1 11.8509 140.052 56.8652
23020 2 10.9462 141.654 58.1463
17187 1 14.5793 141.655 56.8694
22714 2 13.6741 140.05 58.1421
16909 1 17.3072 140.052 56.8652
22712 2 16.4024 141.654 58.1463
16907 1 20.0355 141.655 56.8694
22487 2 19.1303 140.05 58.1421
17768 1 0.938869 143.258 56.8727
23318 2 2.76202 143.257 58.1496
23593 2 0.0340506 144.861 58.152
17766 1 3.66714 144.86 56.8751
23320 2 5.49029 144.861 58.152
17466 1 6.39511 143.258 56.8727
17468 1 9.12338 144.86 56.8751
22991 2 8.21826 143.257 58.1496
17152 1 11.8513 143.258 56.8727
22989 2 10.9465 144.861 58.152
17150 1 14.5796 144.86 56.8751
22713 2 13.6745 143.257 58.1496
16908 1 17.3076 143.258 56.8727
22715 2 16.4028 144.861 58.152
16910 1 20.0359 144.86 56.8751
22456 2 19.1307 143.257 58.1496
17767 1 0.939127 146.463 56.8766
23307 2 2.76228 146.464 58.1535
23594 2 0.0342203 148.068 58.1541
17769 1 3.66731 148.066 56.8772
23305 2 5.49046 148.068 58.1541
17445 1 9.12355 148.066 56.8772
17447 1 6.39536 146.463 56.8766
22990 2 8.21851 146.464 58.1535
17151 1 11.8516 146.463 56.8766
22992 2 10.9467 148.068 58.1541
17153 1 14.5798 148.066 56.8772
22682 2 13.6748 146.464 58.1535
16877 1 17.3078 146.463 56.8766
22680 2 16.4029 148.068 58.1541
16875 1 20.036 148.066 56.8772
22455 2 19.131 146.464 58.1535
17761 1 0.93921 149.668 56.8769
23306 2 2.76236 149.671 58.1538
17446 1 6.39545 149.668 56.8769
22968 2 8.2186 149.671 58.1538
17123 1 11.8517 149.668 56.8769
22681 2 13.6748 149.671 58.1538
16876 1 17.3079 149.668 56.8769
22426 2 19.1311 149.671 58.1538
17930 1 1.84854 103.115 59.0471
21455 2 0.943633 101.487 60.2906
17929 1 0.0395189 103.078 61.5954
15561 1 2.76741 101.468 61.5652
23512 2 3.67209 103.098 60.3202
15575 1 4.57641 101.505 59.0174
17649 1 5.49576 103.078 61.5954
17686 1 7.30478 103.115 59.0471
23213 2 9.12832 103.098 60.3202
21089 2 6.39987 101.487 60.2906
15224 1 8.22365 101.468 61.5652
15226 1 10.0326 101.505 59.0174
20774 2 11.8561 101.487 60.2906
17364 1 10.952 103.078 61.5954
17365 1 12.761 103.115 59.0471
22908 2 14.5846 103.098 60.3202
14958 1 15.4889 101.505 59.0174
14932 1 13.6799 101.468 61.5652
17059 1 18.2173 103.115 59.0471
20505 2 17.3123 101.487 60.2906
17044 1 16.4082 103.078 61.5954
22595 2 20.0408 103.098 60.3202
14752 1 20.9451 101.505 59.0174
14750 1 19.1361 101.468 61.5652
17931 1 1.84894 106.334 59.1029
23478 2 0.944234 104.707 60.3488
17650 1 2.7678 104.688 61.6244
17893 1 0.0398054 106.298 61.6524
17654 1 4.57687 104.725 59.0756
23476 2 3.67258 106.316 60.3763
17651 1 5.49604 106.298 61.6524
17652 1 7.30518 106.334 59.1029
23214 2 6.40047 104.707 60.3488
23215 2 9.12882 106.316 60.3763
17338 1 8.22404 104.688 61.6244
17366 1 10.0331 104.725 59.0756
22890 2 11.8567 104.707 60.3488
17336 1 10.9523 106.298 61.6524
17049 1 15.4893 104.725 59.0756
17367 1 12.7614 106.334 59.1029
22888 2 14.5851 106.316 60.3763
17045 1 13.6803 104.688 61.6244
17047 1 18.2177 106.334 59.1029
22596 2 17.3129 104.707 60.3488
17046 1 16.4085 106.298 61.6524
16797 1 20.9456 104.725 59.0756
22597 2 20.0413 106.316 60.3763
16794 1 19.1365 104.688 61.6244
17895 1 1.84932 109.55 59.1539
23477 2 0.944669 107.925 60.4027
17612 1 2.76803 107.907 61.6791
17653 1 4.57724 107.942 59.129
23479 2 3.67299 109.533 60.4278
17655 1 7.30556 109.55 59.1539
23180 2 9.12923 109.533 60.4278
23182 2 6.40091 107.925 60.4027
17337 1 8.22427 107.907 61.6791
17342 1 10.0335 107.942 59.129
22889 2 11.8571 107.925 60.4027
17048 1 15.4897 107.942 59.129
17340 1 12.7618 109.55 59.1539
22891 2 14.5855 109.533 60.4278
17029 1 13.6805 107.907 61.6791
17050 1 18.218 109.55 59.1539
22588 2 17.3134 107.925 60.4027
16796 1 20.946 107.942 59.129
22586 2 20.0417 109.533 60.4278
16793 1 19.1367 107.907 61.6791
23439 2 0.945091 111.141 60.4518
17616 1 4.57766 111.157 59.1777
23181 2 6.40133 111.141 60.4518
17341 1 10.0339 111.157 59.1777
22866 2 11.8576 111.141 60.4518
17033 1 15.4901 111.157 59.1777
22587 2 17.3138 111.141 60.4518
16795 1 20.9464 111.157 59.1777
17896 1 1.84979 112.764 59.2003
23438 2 0.945587 114.356 60.4963
23437 2 3.67345 112.748 60.4746
17615 1 4.57818 114.37 59.2217
17614 1 7.30602 112.764 59.2003
23183 2 9.12968 112.748 60.4746
23142 2 6.40183 114.356 60.4963
17310 1 10.0344 114.37 59.2217
22865 2 11.8581 114.356 60.4963
17343 1 12.7623 112.764 59.2003
22864 2 14.5859 112.748 60.4746
17032 1 15.4907 114.37 59.2217
17031 1 18.2185 112.764 59.2003
22572 2 17.3143 114.356 60.4963
22589 2 20.0422 112.748 60.4746
16788 1 20.9469 114.37 59.2217
17859 1 1.85037 115.976 59.242
23399 2 0.946189 117.569 60.5362
17571 1 4.57882 117.582 59.2612
23440 2 3.67399 115.962 60.5168
17617 1 7.30661 115.976 59.242
23140 2 9.13023 115.962 60.5168
23141 2 6.40243 117.569 60.5362
17309 1 10.0351 117.582 59.2612
22834 2 11.8587 117.569 60.5362
17009 1 15.4913 117.582 59.2612
17308 1 12.7628 115.976 59.242
22867 2 14.5865 115.962 60.5168
17034 1 18.2191 115.976 59.242
22571 2 17.3149 117.569 60.5362
16787 1 20.9475 117.582 59.2612
22570 2 20.0427 115.962 60.5168
17860 1 1.85106 119.188 59.2793
23398 2 0.946894 120.781 60.5717
17570 1 4.57956 120.793 59.2963
23397 2 3.67465 119.175 60.5545
17569 1 7.3073 119.188 59.2793
23095 2 6.40313 120.781 60.5717
23143 2 9.13089 119.175 60.5545
17270 1 10.0358 120.793 59.2963
22833 2 11.8594 120.781 60.5717
17008 1 15.492 120.793 59.2963
17311 1 12.7635 119.188 59.2793
22832 2 14.5871 119.175 60.5545
17007 1 18.2198 119.188 59.2793
22548 2 17.3156 120.781 60.5717
16772 1 20.9483 120.793 59.2963
22573 2 20.0434 119.175 60.5545
17824 1 1.85185 122.398 59.3123
23363 2 0.947676 123.993 60.6028
17527 1 4.58038 124.003 59.3272
23400 2 3.6754 122.387 60.5878
17572 1 7.30808 122.398 59.3123
23093 2 9.13163 122.387 60.5878
23094 2 6.40391 123.993 60.6028
17269 1 10.0366 124.003 59.3272
22794 2 11.8602 123.993 60.6028
16977 1 15.4929 124.003 59.3272
17268 1 12.7643 122.398 59.3123
22835 2 14.5879 122.387 60.5878
17010 1 18.2206 122.398 59.3123
22547 2 17.3164 123.993 60.6028
16771 1 20.9491 124.003 59.3272
22546 2 20.0441 122.387 60.5878
17825 1 1.85268 125.608 59.3411
23362 2 0.948495 127.204 60.6298
17526 1 4.58122 127.213 59.3539
23361 2 3.6762 125.599 60.6168
17525 1 7.30892 125.608 59.3411
23051 2 6.40473 127.204 60.6298
23096 2 9.13244 125.599 60.6168
17224 1 10.0375 127.213 59.3539
22793 2 11.861 127.204 60.6298
16976 1 15.4937 127.213 59.3539
17271 1 12.7652 125.608 59.3411
22792 2 14.5887 125.599 60.6168
16975 1 18.2214 125.608 59.3411
22517 2 17.3172 127.204 60.6298
16749 1 20.9499 127.213 59.3539
22549 2 20.0449 125.599 60.6168
17796 1 1.85353 128.818 59.3658
23335 2 0.949307 130.415 60.6527
17491 1 4.58206 130.422 59.3767
23364 2 3.67702 128.81 60.6418
17528 1 7.30976 128.818 59.3658
23049 2 9.13326 128.81 60.6418
23050 2 6.40555 130.415 60.6527
17223 1 10.0383 130.422 59.3767
22750 2 11.8618 130.415 60.6527
16941 1 15.4945 130.422 59.3767
17222 1 12.766 128.818 59.3658
22795 2 14.5895 128.81 60.6418
16978 1 18.2222 128.818 59.3658
22516 2 17.318 130.415 60.6527
16748 1 20.9508 130.422 59.3767
22515 2 20.0457 128.81 60.6418
17797 1 1.85434 132.027 59.3866
23333 2 3.67782 132.02 60.6627
17489 1 7.31057 132.027 59.3866
23052 2 9.13405 132.02 60.6627
17225 1 12.7668 132.027 59.3866
22748 2 14.5903 132.02 60.6627
16939 1 18.2231 132.027 59.3866
22518 2 20.0465 132.02 60.6627
17776 1 1.85507 135.235 59.4036
23334 2 0.95007 133.626 60.6718
17490 1 4.58283 133.631 59.3956
23336 2 3.67854 135.231 60.6798
17492 1 7.31131 135.235 59.4036
23013 2 9.13478 135.231 60.6798
23015 2 6.40631 133.626 60.6718
17182 1 10.0391 133.631 59.3956
22749 2 11.8625 133.626 60.6718
16940 1 15.4953 133.631 59.3956
17180 1 12.7675 135.235 59.4036
22751 2 14.591 135.231 60.6798
16942 1 18.2238 135.235 59.4036
22485 2 17.3188 133.626 60.6718
16725 1 20.9515 133.631 59.3956
22483 2 20.0473 135.231 60.6798
17777 1 1.8557 138.444 59.4168
23315 2 0.950745 136.836 60.6869
17463 1 4.58352 136.84 59.4107
23313 2 3.67916 138.441 60.6931
17461 1 7.31194 138.444 59.4168
23014 2 6.40698 136.836 60.6869
23016 2 9.1354 138.441 60.6931
17181 1 10.0398 136.84 59.4107
22710 2 11.8632 136.836 60.6869
16905 1 15.496 136.84 59.4107
17183 1 12.7682 138.444 59.4168
22708 2 14.5916 138.441 60.6931
16903 1 18.2244 138.444 59.4168
22484 2 17.3195 136.836 60.6869
16724 1 20.9522 136.84 59.4107
22486 2 20.0479 138.441 60.6931
17764 1 1.85619 141.653 59.4263
23314 2 0.951302 140.046 60.6983
17462 1 4.58408 140.049 59.422
23316 2 3.67965 141.652 60.7026
17464 1 7.31243 141.653 59.4263
22985 2 9.13589 141.652 60.7026
22987 2 6.40754 140.046 60.6983
17148 1 10.0403 140.049 59.422
22709 2 11.8638 140.046 60.6983
16904 1 15.4966 140.049 59.422
17146 1 12.7687 141.653 59.4263
22711 2 14.5921 141.652 60.7026
16906 1 18.2249 141.653 59.4263
22453 2 17.32 140.046 60.6983
16701 1 20.9528 140.049 59.422
22451 2 20.0484 141.652 60.7026
17765 1 1.85653 144.861 59.432
23303 2 0.951716 143.257 60.706
17443 1 4.5845 143.257 59.4296
23301 2 3.67998 144.862 60.7084
17441 1 7.31276 144.861 59.432
22986 2 6.40795 143.257 60.706
22988 2 9.13622 144.862 60.7084
17147 1 10.0407 143.257 59.4296
22678 2 11.8642 143.257 60.706
16873 1 15.497 143.257 59.4296
17149 1 12.769 144.861 59.432
22676 2 14.5925 144.862 60.7084
16871 1 18.2252 144.861 59.432
22452 2 17.3204 143.257 60.706
16700 1 20.9532 143.257 59.4296
22454 2 20.0487 144.862 60.7084
17760 1 1.8567 148.07 59.4341
23302 2 0.951969 146.467 60.7099
17442 1 4.58475 146.466 59.4335
23304 2 3.68015 148.072 60.7105
17444 1 7.31293 148.07 59.4341
22965 2 9.13639 148.072 60.7105
22967 2 6.40821 146.467 60.7099
17122 1 10.041 146.466 59.4335
22677 2 11.8644 146.467 60.7099
16872 1 15.4972 146.466 59.4335
17120 1 12.7692 148.07 59.4341
22679 2 14.5926 148.072 60.7105
16874 1 18.2254 148.07 59.4341
22425 2 17.3207 146.467 60.7099
16677 1 20.9535 146.466 59.4335
22423 2 20.0489 148.072 60.7105
23296 2 0.952053 149.677 60.7101
17428 1 4.58483 149.674 59.4338
22966 2 6.40829 149.677 60.7101
17121 1 10.0411 149.674 59.4338
22651 2 11.8645 149.677 60.7101
16846 1 15.4973 149.674 59.4338
22424 2 17.3208 149.677 60.7101
16676 1 20.9535 149.674 59.4338
23474 2 1.86295 103.061 62.8689
15559 1 0.958155 101.433 64.1147
21087 2 4.59075 101.451 62.8389
17648 1 3.68652 103.043 64.1451
23212 2 7.31919 103.061 62.8689
17333 1 9.14276 103.043 64.1451
15204 1 6.41439 101.433 64.1147
20748 2 10.047 101.451 62.8389
14930 1 11.8706 101.433 64.1147
22885 2 12.7754 103.061 62.8689
20503 2 15.5032 101.451 62.8389
17043 1 14.599 103.043 64.1451
22594 2 18.2317 103.061 62.8689
14729 1 17.3269 101.433 64.1147
20331 2 20.9595 101.451 62.8389
16790 1 20.0552 103.043 64.1451
23475 2 1.86339 106.281 62.9259
17608 1 0.958573 104.653 64.1745
23178 2 4.59132 104.671 62.8979
17606 1 3.68681 106.263 64.2028
23176 2 7.31963 106.281 62.9259
17334 1 6.41481 104.653 64.1745
17335 1 9.14305 106.263 64.2028
22886 2 10.0476 104.671 62.8979
17025 1 11.871 104.653 64.1745
22584 2 15.5038 104.671 62.8979
22887 2 12.7759 106.281 62.9259
17023 1 14.5993 106.263 64.2028
22582 2 18.2321 106.281 62.9259
16791 1 17.3273 104.653 64.1745
22362 2 20.96 104.671 62.8979
16792 1 20.0555 106.263 64.2028
17894 1 0.0400284 109.516 61.7047
23435 2 1.86371 109.5 62.9784
17607 1 0.95878 107.873 64.23
17610 1 5.49627 109.516 61.7047
23177 2 4.59167 107.89 62.9527
17609 1 3.68698 109.483 64.256
23179 2 7.31995 109.5 62.9784
17300 1 9.14322 109.483 64.256
17302 1 6.41502 107.873 64.23
17339 1 10.9525 109.516 61.7047
22862 2 10.0479 107.89 62.9527
17024 1 11.8713 107.873 64.23
22583 2 15.5042 107.89 62.9527
22860 2 12.7762 109.5 62.9784
17026 1 14.5995 109.483 64.256
17027 1 16.4087 109.516 61.7047
22585 2 18.2324 109.5 62.9784
16783 1 17.3275 107.873 64.23
22361 2 20.9604 107.89 62.9527
16781 1 20.0557 109.483 64.256
17611 1 2.76828 111.124 61.7291
17857 1 0.0403194 112.733 61.7522
23436 2 1.86405 112.717 63.0262
17563 1 0.958964 111.092 64.2808
17613 1 5.49656 112.733 61.7522
23138 2 4.59199 111.108 63.0029
17561 1 3.6872 112.702 64.3044
17306 1 8.22452 111.124 61.7291
23136 2 7.32028 112.717 63.0262
17301 1 6.4152 111.092 64.2808
17303 1 9.14344 112.702 64.3044
17304 1 10.9528 112.733 61.7522
22861 2 10.0482 111.108 63.0029
17001 1 11.8714 111.092 64.2808
17028 1 13.6808 111.124 61.7291
22568 2 15.5045 111.108 63.0029
22863 2 12.7765 112.717 63.0262
16999 1 14.5997 112.702 64.3044
17030 1 16.409 112.733 61.7522
22566 2 18.2328 112.717 63.0262
16782 1 17.3277 111.092 64.2808
16786 1 19.137 111.124 61.7291
22360 2 20.9607 111.108 63.0029
16784 1 20.0559 112.702 64.3044
17567 1 2.76863 114.34 61.7742
17562 1 0.95925 114.311 64.3268
23137 2 4.59237 114.326 63.0484
17305 1 8.22487 114.34 61.7742
17262 1 6.41549 114.311 64.3268
22830 2 10.0486 114.326 63.0484
17000 1 11.8717 114.311 64.3268
17005 1 13.6811 114.34 61.7742
22567 2 15.5048 114.326 63.0484
16767 1 17.328 114.311 64.3268
16785 1 19.1373 114.34 61.7742
22353 2 20.9611 114.326 63.0484
17566 1 2.76912 117.555 61.8146
17858 1 0.040739 115.948 61.795
23395 2 1.86449 115.934 63.0693
17519 1 0.959665 117.529 64.3679
17565 1 5.49698 115.948 61.795
23091 2 4.59288 117.542 63.0891
17564 1 3.68756 115.92 64.3479
17266 1 8.22536 117.555 61.8146
23139 2 7.32073 115.934 63.0693
17260 1 9.1438 115.92 64.3479
17261 1 6.4159 117.529 64.3679
17307 1 10.9532 115.948 61.795
22829 2 10.0491 117.542 63.0891
16969 1 11.8721 117.529 64.3679
17004 1 13.6816 117.555 61.8146
22544 2 15.5054 117.542 63.0891
22828 2 12.777 115.934 63.0693
17002 1 14.6 115.92 64.3479
17003 1 16.4095 115.948 61.795
22569 2 18.2332 115.934 63.0693
16766 1 17.3284 117.529 64.3679
16770 1 19.1378 117.555 61.8146
22352 2 20.9616 117.542 63.0891
16765 1 20.0563 115.92 64.3479
17523 1 2.76975 120.769 61.8505
17822 1 0.0412975 119.162 61.8331
23396 2 1.86506 119.15 63.1077
17518 1 0.960252 120.746 64.4043
17568 1 5.49754 119.162 61.8331
23090 2 4.59351 120.757 63.1252
17517 1 3.68806 119.137 64.3866
17265 1 8.22598 120.769 61.8505
23089 2 7.3213 119.15 63.1077
17216 1 6.41649 120.746 64.4043
17263 1 9.1443 119.137 64.3866
17264 1 10.9538 119.162 61.8331
22790 2 10.0497 120.757 63.1252
16968 1 11.8727 120.746 64.4043
16973 1 13.6822 120.769 61.8505
22543 2 15.506 120.757 63.1252
22831 2 12.7775 119.15 63.1077
16967 1 14.6005 119.137 64.3866
17006 1 16.41 119.162 61.8331
22542 2 18.2338 119.15 63.1077
16744 1 17.329 120.746 64.4043
16769 1 19.1385 120.769 61.8505
22337 2 20.9622 120.757 63.1252
16768 1 20.0568 119.137 64.3866
17522 1 2.77048 123.983 61.8819
17823 1 0.0419817 122.376 61.8667
23359 2 1.86574 122.365 63.1415
17483 1 0.960956 123.962 64.4362
17521 1 5.49822 122.376 61.8667
23047 2 4.59424 123.972 63.1568
17520 1 3.68871 122.354 64.4208
17220 1 8.22671 123.983 61.8819
23092 2 7.32198 122.365 63.1415
17214 1 9.14495 122.354 64.4208
17215 1 6.41719 123.962 64.4362
17267 1 10.9545 122.376 61.8667
22789 2 10.0505 123.972 63.1568
16933 1 11.8734 123.962 64.4362
16972 1 13.683 123.983 61.8819
22513 2 15.5067 123.972 63.1568
22788 2 12.7782 122.365 63.1415
16970 1 14.6012 122.354 64.4208
16971 1 16.4107 122.376 61.8667
22545 2 18.2345 122.365 63.1415
16743 1 17.3297 123.962 64.4362
16747 1 19.1392 123.983 61.8819
22336 2 20.963 123.972 63.1568
16742 1 20.0574 122.354 64.4208
17487 1 2.77126 127.196 61.9091
17794 1 0.0427472 125.589 61.896
23360 2 1.86651 125.58 63.1711
17482 1 0.961731 127.179 64.4638
17524 1 5.49899 125.589 61.896
23046 2 4.59502 127.187 63.1842
17481 1 3.68946 125.571 64.4505
17219 1 8.2275 127.196 61.9091
23045 2 7.32275 125.58 63.1711
17174 1 6.41797 127.179 64.4638
17217 1 9.1457 125.571 64.4505
17218 1 10.9552 125.589 61.896
22746 2 10.0513 127.187 63.1842
16932 1 11.8742 127.179 64.4638
16937 1 13.6837 127.196 61.9091
22512 2 15.5075 127.187 63.1842
22791 2 12.779 125.58 63.1711
16931 1 14.6019 125.571 64.4505
16974 1 16.4115 125.589 61.896
22511 2 18.2352 125.58 63.1711
16720 1 17.3304 127.179 64.4638
16746 1 19.14 127.196 61.9091
22317 2 20.9637 127.187 63.1842
16745 1 20.0582 125.571 64.4505
17486 1 2.77206 130.408 61.9322
17795 1 0.0435443 128.802 61.9211
23331 2 1.8673 128.794 63.1964
17455 1 0.962523 130.395 64.4871
17485 1 5.49978 128.802 61.9211
23011 2 4.59582 130.401 63.2075
17484 1 3.69025 128.787 64.476
17178 1 8.2283 130.408 61.9322
23048 2 7.32354 128.794 63.1964
17172 1 9.14649 128.787 64.476
17173 1 6.41876 130.395 64.4871
17221 1 10.956 128.802 61.9211
22745 2 10.0521 130.401 63.2075
16897 1 11.875 130.395 64.4871
16936 1 13.6845 130.408 61.9322
22481 2 15.5083 130.401 63.2075
22744 2 12.7798 128.794 63.1964
16934 1 14.6027 128.787 64.476
16935 1 16.4123 128.802 61.9211
22514 2 18.236 128.794 63.1964
16719 1 17.3312 130.395 64.4871
16723 1 19.1408 130.408 61.9322
22316 2 20.9645 130.401 63.2075
16718 1 20.059 128.787 64.476
17774 1 0.0443253 132.014 61.9422
23332 2 1.86808 132.008 63.2176
17488 1 5.50056 132.014 61.9422
17453 1 3.69103 132.002 64.4973
23009 2 7.32432 132.008 63.2176
17175 1 9.14727 132.002 64.4973
17176 1 10.9568 132.014 61.9422
22747 2 12.7806 132.008 63.2176
16895 1 14.6035 132.002 64.4973
16938 1 16.413 132.014 61.9422
22479 2 18.2368 132.008 63.2176
16721 1 20.0597 132.002 64.4973
17459 1 2.77281 133.621 61.9513
17775 1 0.0450457 135.227 61.9594
23311 2 1.8688 135.222 63.2349
17454 1 0.963285 133.61 64.5065
17457 1 5.50128 135.227 61.9594
23010 2 4.59657 133.615 63.2267
17456 1 3.69176 135.218 64.5146
17177 1 8.22905 133.621 61.9513
23012 2 7.32504 135.222 63.2349
17138 1 9.148 135.218 64.5146
17140 1 6.41952 133.61 64.5065
17179 1 10.9575 135.227 61.9594
22706 2 10.0528 133.615 63.2267
16896 1 11.8758 133.61 64.5065
16901 1 13.6853 133.621 61.9513
22480 2 15.509 133.615 63.2267
22704 2 12.7813 135.222 63.2349
16898 1 14.6042 135.218 64.5146
16899 1 16.4138 135.227 61.9594
22482 2 18.2375 135.222 63.2349
16696 1 17.332 133.61 64.5065
16722 1 19.1415 133.621 61.9513
22297 2 20.9653 133.615 63.2267
16694 1 20.0605 135.218 64.5146
17458 1 2.77349 136.833 61.9666
17762 1 0.0456662 138.439 61.9727
23312 2 1.86942 138.436 63.2483
17460 1 5.5019 138.439 61.9727
22983 2 4.59725 136.829 63.242
17144 1 8.22973 136.833 61.9666
22981 2 7.32566 138.436 63.2483
17142 1 10.9581 138.439 61.9727
22705 2 10.0535 136.829 63.242
16900 1 13.686 136.833 61.9666
22449 2 15.5097 136.829 63.242
22707 2 12.7819 138.436 63.2483
16902 1 16.4144 138.439 61.9727
22447 2 18.2381 138.436 63.2483
16699 1 19.1422 136.833 61.9666
22296 2 20.966 136.829 63.242
17439 1 2.77405 140.045 61.978
17763 1 0.0461563 141.651 61.9823
23299 2 1.86992 141.649 63.2578
17437 1 5.50239 141.651 61.9823
22982 2 4.59781 140.043 63.2535
17143 1 8.23029 140.045 61.978
22984 2 7.32615 141.649 63.2578
17145 1 10.9586 141.651 61.9823
22674 2 10.054 140.043 63.2535
16869 1 13.6865 140.045 61.978
22448 2 15.5103 140.043 63.2535
22672 2 12.7824 141.649 63.2578
16867 1 16.4149 141.651 61.9823
22450 2 18.2386 141.649 63.2578
16698 1 19.1428 140.045 61.978
22277 2 20.9665 140.043 63.2535
17438 1 2.77446 143.257 61.9857
17758 1 0.0464938 144.862 61.9881
23300 2 1.87025 144.863 63.2637
17440 1 5.50273 144.862 61.9881
22963 2 4.59822 143.256 63.2612
17118 1 8.2307 143.257 61.9857
22961 2 7.32649 144.863 63.2637
17116 1 10.959 144.862 61.9881
22673 2 10.0545 143.256 63.2612
16868 1 13.6869 143.257 61.9857
22421 2 15.5107 143.256 63.2612
22675 2 12.7827 144.863 63.2637
16870 1 16.4152 144.862 61.9881
22419 2 18.239 144.863 63.2637
16675 1 19.1432 143.257 61.9857
22276 2 20.9669 143.256 63.2612
17427 1 2.77472 146.468 61.9896
17759 1 0.046664 148.074 61.9902
23295 2 1.87043 148.076 63.2658
17425 1 5.5029 148.074 61.9902
22962 2 4.59848 146.47 63.2652
17117 1 8.23096 146.468 61.9896
22964 2 7.32666 148.076 63.2658
17119 1 10.9591 148.074 61.9902
22650 2 10.0547 146.47 63.2652
16845 1 13.6872 146.468 61.9896
22420 2 15.511 146.47 63.2652
22648 2 12.7829 148.076 63.2658
16843 1 16.4154 148.074 61.9902
22422 2 18.2391 148.076 63.2658
16674 1 19.1434 146.468 61.9896
22257 2 20.9672 146.47 63.2652
17426 1 2.7748 149.68 61.9898
22948 2 4.59857 149.683 63.2654
17097 1 8.23104 149.68 61.9898
22649 2 10.0548 149.683 63.2654
16844 1 13.6873 149.68 61.9898
22398 2 15.511 149.683 63.2654
16653 1 19.1435 149.68 61.9898
22256 2 20.9673 149.683 63.2654
23473 2 0.0537093 103.025 65.4182
21073 2 2.78148 101.415 65.388
17604 1 1.8769 103.009 66.6972
23173 2 5.50995 103.025 65.4182
15202 1 4.60472 101.398 66.6668
20746 2 8.23772 101.415 65.388
17332 1 7.33314 103.009 66.6972
22884 2 10.9662 103.025 65.4182
14912 1 10.061 101.398 66.6668
20481 2 13.694 101.415 65.388
17020 1 12.7894 103.009 66.6972
14727 1 15.5172 101.398 66.6668
22579 2 16.4224 103.025 65.4182
16789 1 18.2456 103.009 66.6972
20329 2 19.1502 101.415 65.388
14623 1 20.9734 101.398 66.6668
23174 2 2.78209 104.636 65.4474
23433 2 0.0541661 106.246 65.4757
17605 1 1.87726 106.23 66.7552
23175 2 5.5104 106.246 65.4757
17298 1 4.60523 104.619 66.7267
22858 2 8.23833 104.636 65.4474
17296 1 7.3335 106.23 66.7552
22856 2 10.9666 106.246 65.4757
17021 1 10.0615 104.619 66.7267
22580 2 13.6946 104.636 65.4474
16779 1 15.5177 104.619 66.7267
17022 1 12.7897 106.23 66.7552
22581 2 16.4229 106.246 65.4757
16777 1 18.246 106.23 66.7552
22359 2 19.1508 104.636 65.4474
16617 1 20.9739 104.619 66.7267
23134 2 2.78245 107.856 65.5028
23434 2 0.0544766 109.466 65.5288
17559 1 1.87749 109.451 66.8088
23132 2 5.51071 109.466 65.5288
17297 1 4.6055 107.84 66.7825
22857 2 8.23869 107.856 65.5028
17299 1 7.33373 109.451 66.8088
22859 2 10.967 109.466 65.5288
16997 1 10.0617 107.84 66.7825
22564 2 13.6949 107.856 65.5028
16778 1 15.518 107.84 66.7825
16995 1 12.79 109.451 66.8088
22562 2 16.4232 109.466 65.5288
16780 1 18.2462 109.451 66.8088
22358 2 19.1512 107.856 65.5028
16616 1 20.9742 107.84 66.7825
23133 2 2.78274 111.076 65.5537
23393 2 0.0547908 112.686 65.5773
17560 1 1.87775 112.671 66.8576
23135 2 5.51103 112.686 65.5773
17258 1 4.60573 111.061 66.8338
22826 2 8.23898 111.076 65.5537
17256 1 7.33399 112.671 66.8576
22824 2 10.9673 112.686 65.5773
16996 1 10.062 111.061 66.8338
22563 2 13.6952 111.076 65.5537
16763 1 15.5182 111.061 66.8338
16998 1 12.7902 112.671 66.8576
22565 2 16.4235 112.686 65.5773
16761 1 18.2465 112.671 66.8576
22351 2 19.1515 111.076 65.5537
16615 1 20.9744 111.061 66.8338
23087 2 2.7831 114.296 65.5998
17257 1 4.60604 114.282 66.8803
22825 2 8.23933 114.296 65.5998
16965 1 10.0623 114.282 66.8803
22540 2 13.6956 114.296 65.5998
16762 1 15.5185 114.282 66.8803
22350 2 19.1518 114.296 65.5998
16608 1 20.9748 114.282 66.8803
23086 2 2.78359 117.515 65.6411
23394 2 0.0552019 115.906 65.621
17515 1 1.87813 115.893 66.9017
23085 2 5.51144 115.906 65.621
17212 1 4.6065 117.503 66.9219
22786 2 8.23983 117.515 65.6411
17259 1 7.33437 115.893 66.9017
22827 2 10.9677 115.906 65.621
16964 1 10.0627 117.503 66.9219
22539 2 13.6961 117.515 65.6411
16740 1 15.519 117.503 66.9219
16963 1 12.7906 115.893 66.9017
22538 2 16.4239 115.906 65.621
16764 1 18.2468 115.893 66.9017
22335 2 19.1523 117.515 65.6411
16607 1 20.9752 117.503 66.9219
23043 2 2.78422 120.734 65.6777
23357 2 0.0557707 119.125 65.6599
17516 1 1.87867 119.113 66.9409
23088 2 5.51201 119.125 65.6599
17211 1 4.60712 120.723 66.9588
22785 2 8.24046 120.734 65.6777
17210 1 7.33491 119.113 66.9409
22784 2 10.9682 119.125 65.6599
16929 1 10.0634 120.723 66.9588
22509 2 13.6967 120.734 65.6777
16739 1 15.5196 120.723 66.9588
16966 1 12.7911 119.113 66.9409
22541 2 16.4245 119.125 65.6599
16738 1 18.2474 119.113 66.9409
22334 2 19.1529 120.734 65.6777
16596 1 20.9758 120.723 66.9588
23042 2 2.78495 123.952 65.7098
23358 2 0.0564566 122.343 65.6943
17479 1 1.87935 122.333 66.9755
23041 2 5.5127 122.343 65.6943
17170 1 4.60786 123.943 66.991
22742 2 8.24119 123.952 65.7098
17213 1 7.33559 122.333 66.9755
22787 2 10.9689 122.343 65.6943
16928 1 10.0641 123.943 66.991
22508 2 13.6974 123.952 65.7098
16716 1 15.5203 123.943 66.991
16927 1 12.7918 122.333 66.9755
22507 2 16.4252 122.343 65.6943
16741 1 18.2481 122.333 66.9755
22315 2 19.1537 123.952 65.7098
16595 1 20.9766 123.943 66.991
23007 2 2.78575 127.17 65.7375
23329 2 0.0572274 125.561 65.7242
17480 1 1.88014 125.553 67.0055
23044 2 5.51347 125.561 65.7242
17169 1 4.60867 127.163 67.0189
22741 2 8.24199 127.17 65.7375
17168 1 7.33638 125.553 67.0055
22740 2 10.9697 125.561 65.7242
16893 1 10.0649 127.163 67.0189
22477 2 13.6982 127.17 65.7375
16715 1 15.5211 127.163 67.0189
16930 1 12.7926 125.553 67.0055
22510 2 16.4259 125.561 65.7242
16714 1 18.2489 125.553 67.0055
22314 2 19.1545 127.17 65.7375
16584 1 20.9774 127.163 67.0189
23006 2 2.78656 130.387 65.761
23330 2 0.0580368 128.779 65.7497
17451 1 1.88097 128.772 67.0312
23005 2 5.51428 128.779 65.7497
17136 1 4.6095 130.382 67.0425
22702 2 8.2428 130.387 65.761
17171 1 7.33721 128.772 67.0312
22743 2 10.9705 128.779 65.7497
16892 1 10.0657 130.382 67.0425
22476 2 13.699 130.387 65.761
16692 1 15.522 130.382 67.0425
16891 1 12.7934 128.772 67.0312
22475 2 16.4268 128.779 65.7497
16717 1 18.2497 128.772 67.0312
22295 2 19.1553 130.387 65.761
16583 1 20.9782 130.382 67.0425
23309 2 0.0588348 131.996 65.7712
17452 1 1.88179 131.991 67.0528
23008 2 5.51507 131.996 65.7712
17134 1 7.33803 131.991 67.0528
22700 2 10.9713 131.996 65.7712
16894 1 12.7943 131.991 67.0528
22478 2 16.4275 131.996 65.7712
16690 1 18.2505 131.991 67.0528
22979 2 2.78733 133.605 65.7804
23310 2 0.0595739 135.213 65.7886
17431 1 1.88255 135.21 67.0703
22977 2 5.51581 135.213 65.7886
17135 1 4.6103 133.601 67.062
22701 2 8.24357 133.605 65.7804
17137 1 7.33879 135.21 67.0703
22703 2 10.9721 135.213 65.7886
16861 1 10.0665 133.601 67.062
22445 2 13.6998 133.605 65.7804
16691 1 15.5228 133.601 67.062
16859 1 12.795 135.21 67.0703
22443 2 16.4283 135.213 65.7886
16693 1 18.2513 135.21 67.0703
22294 2 19.156 133.605 65.7804
16572 1 20.979 133.601 67.062
17435 1 0.963969 136.826 64.5219
22978 2 2.78803 136.822 65.7959
23297 2 0.0602127 138.43 65.8021
17432 1 1.88321 138.429 67.0838
17433 1 3.69239 138.433 64.5281
22980 2 5.51645 138.43 65.8021
17110 1 4.61102 136.819 67.0776
17139 1 6.42021 136.826 64.5219
17141 1 9.14863 138.433 64.5281
22670 2 8.24427 136.822 65.7959
17108 1 7.33945 138.429 67.0838
16865 1 11.8764 136.826 64.5219
22668 2 10.9727 138.43 65.8021
16860 1 10.0673 136.819 67.0776
16863 1 14.6049 138.433 64.5281
22444 2 13.7005 136.822 65.7959
16668 1 15.5235 136.819 67.0776
16862 1 12.7957 138.429 67.0838
16695 1 17.3327 136.826 64.5219
22446 2 16.4289 138.43 65.8021
16666 1 18.2519 138.429 67.0838
16697 1 20.0611 138.433 64.5281
22275 2 19.1567 136.822 65.7959
16571 1 20.9797 136.819 67.0776
17434 1 0.964536 140.041 64.5334
22959 2 2.7886 140.039 65.8074
23298 2 0.0607183 141.647 65.8118
17419 1 1.88373 141.647 67.0935
17436 1 3.69289 141.649 64.5377
22957 2 5.51696 141.647 65.8118
17109 1 4.61161 140.038 67.0892
17112 1 9.14913 141.649 64.5377
17114 1 6.42077 140.041 64.5334
22669 2 8.24484 140.039 65.8074
17111 1 7.33997 141.647 67.0935
16864 1 11.877 140.041 64.5334
22671 2 10.9732 141.647 65.8118
16837 1 10.0678 140.038 67.0892
16866 1 14.6054 141.649 64.5377
22417 2 13.7011 140.039 65.8074
16667 1 15.5241 140.038 67.0892
16835 1 12.7962 141.647 67.0935
16672 1 17.3333 140.041 64.5334
22415 2 16.4294 141.647 65.8118
16669 1 18.2524 141.647 67.0935
16670 1 20.0616 141.649 64.5377
22274 2 19.1573 140.039 65.8074
16560 1 20.9803 140.038 67.0892
17423 1 0.96496 143.256 64.5411
22958 2 2.78903 143.255 65.8152
23293 2 0.0610675 144.864 65.8177
17420 1 1.88409 144.866 67.0994
17421 1 3.69323 144.864 64.5436
22960 2 5.51731 144.864 65.8177
17092 1 4.61205 143.256 67.097
17113 1 6.4212 143.256 64.5411
17115 1 9.14947 144.864 64.5436
22646 2 8.24527 143.255 65.8152
17090 1 7.34033 144.866 67.0994
16841 1 11.8774 143.256 64.5411
22644 2 10.9735 144.864 65.8177
16836 1 10.0683 143.256 67.097
16839 1 14.6057 144.864 64.5436
22416 2 13.7015 143.255 65.8152
16648 1 15.5245 143.256 67.097
16838 1 12.7966 144.866 67.0994
16671 1 17.3337 143.256 64.5411
22418 2 16.4298 144.864 65.8177
16646 1 18.2528 144.866 67.0994
16673 1 20.0619 144.864 64.5436
22255 2 19.1577 143.255 65.8152
16559 1 20.9808 143.256 67.097
17422 1 0.96522 146.471 64.5451
22947 2 2.7893 146.472 65.8192
23294 2 0.0612448 148.081 65.8198
17415 1 1.88427 148.084 67.1015
17424 1 3.6934 148.079 64.5457
22945 2 5.51748 148.081 65.8198
17091 1 4.61232 146.475 67.101
17094 1 9.14964 148.079 64.5457
17096 1 6.42146 146.471 64.5451
22645 2 8.24554 146.472 65.8192
17093 1 7.34051 148.084 67.1015
16840 1 11.8777 146.471 64.5451
22647 2 10.9737 148.081 65.8198
16821 1 10.0686 146.475 67.101
16842 1 14.6059 148.079 64.5457
22397 2 13.7018 146.472 65.8192
16647 1 15.5248 146.475 67.101
16819 1 12.7967 148.084 67.1015
16652 1 17.3339 146.471 64.5451
22395 2 16.43 148.081 65.8198
16649 1 18.253 148.084 67.1015
16650 1 20.0621 148.079 64.5457
22254 2 19.158 146.472 65.8192
16548 1 20.981 146.475 67.101
17416 1 0.965306 149.686 64.5453
22946 2 2.78939 149.689 65.8194
17079 1 4.61241 149.693 67.1012
17095 1 6.42154 149.686 64.5453
22627 2 8.24562 149.689 65.8194
16822 1 11.8778 149.686 64.5453
16820 1 10.0686 149.693 67.1012
22396 2 13.7019 149.689 65.8194
16633 1 15.5249 149.693 67.1012
16651 1 17.334 149.686 64.5453
22237 2 19.1581 149.689 65.8194
16547 1 20.9811 149.693 67.1012
17603 1 0.0661961 102.975 69.255
15190 1 2.79397 101.365 69.2247
21071 2 0.972007 101.379 67.937
17293 1 5.52243 102.975 69.255
23172 2 3.70052 102.989 67.9672
22853 2 9.15675 102.989 67.9672
14910 1 8.25021 101.365 69.2247
20728 2 6.42825 101.379 67.937
17019 1 10.9787 102.975 69.255
20479 2 11.8845 101.379 67.937
22578 2 14.613 102.989 67.9672
14713 1 13.7064 101.365 69.2247
16774 1 16.4349 102.975 69.255
20312 2 17.3407 101.379 67.937
22355 2 20.0692 102.989 67.9672
14621 1 19.1627 101.365 69.2247
17294 1 2.79459 104.586 69.2844
17557 1 0.0666795 106.196 69.3128
23130 2 0.972697 104.6 67.9965
17295 1 5.52292 106.196 69.3128
23128 2 3.70105 106.211 68.0248
16993 1 8.25083 104.586 69.2844
22854 2 6.42894 104.6 67.9965
22855 2 9.15729 106.211 68.0248
16991 1 10.9792 106.196 69.3128
22560 2 11.8852 104.6 67.9965
16775 1 13.7071 104.586 69.2844
22558 2 14.6135 106.211 68.0248
16776 1 16.4354 106.196 69.3128
22356 2 17.3414 104.6 67.9965
16614 1 19.1633 104.586 69.2844
22357 2 20.0698 106.211 68.0248
17254 1 2.79498 107.808 69.3402
17558 1 0.0670345 109.419 69.3665
23129 2 0.973135 107.822 68.0521
17252 1 5.52327 109.419 69.3665
23131 2 3.70144 109.433 68.0782
16992 1 8.25122 107.808 69.3402
22820 2 9.15768 109.433 68.0782
22822 2 6.42937 107.822 68.0521
16994 1 10.9795 109.419 69.3665
22559 2 11.8856 107.822 68.0521
16759 1 13.7075 107.808 69.3402
22561 2 14.6139 109.433 68.0782
16757 1 16.4357 109.419 69.3665
22348 2 17.3418 107.822 68.0521
16613 1 19.1637 107.808 69.3402
22346 2 20.0702 109.433 68.0782
17253 1 2.79533 111.03 69.3916
17513 1 0.0674237 112.642 69.4155
23083 2 0.973508 111.044 68.1032
17255 1 5.52366 112.642 69.4155
23081 2 3.70183 112.655 68.1271
16961 1 8.25157 111.03 69.3916
22821 2 6.42975 111.044 68.1033
22823 2 9.15807 112.655 68.1271
16959 1 10.9799 112.642 69.4155
22536 2 11.886 111.044 68.1032
16758 1 13.7078 111.03 69.3916
22534 2 14.6143 112.655 68.1271
16760 1 16.4361 112.642 69.4155
22347 2 17.3422 111.044 68.1033
16606 1 19.164 111.03 69.3916
22349 2 20.0705 112.655 68.1271
17208 1 2.79577 114.253 69.4382
23082 2 0.973947 114.266 68.1497
16960 1 8.252 114.253 69.4382
22782 2 6.43019 114.266 68.1497
22535 2 11.8864 114.266 68.1497
16736 1 13.7082 114.253 69.4382
22332 2 17.3427 114.266 68.1497
16605 1 19.1645 114.253 69.4382
17207 1 2.79636 117.477 69.4801
17514 1 0.0679172 115.865 69.4598
23039 2 0.974482 117.488 68.1914
17206 1 5.52416 115.865 69.4598
23084 2 3.70232 115.877 68.1711
16925 1 8.2526 117.477 69.4801
22780 2 9.15856 115.877 68.1711
22781 2 6.43072 117.488 68.1914
16962 1 10.9804 115.865 69.4598
22505 2 11.887 117.488 68.1914
16735 1 13.7088 117.477 69.4801
22537 2 14.6148 115.877 68.1711
16734 1 16.4366 115.865 69.4598
22331 2 17.3432 117.488 68.1914
16594 1 19.1651 117.477 69.4801
22330 2 20.071 115.877 68.1711
17166 1 2.79709 120.7 69.5173
17477 1 0.0685841 119.088 69.4993
23038 2 0.975155 120.71 68.2284
17209 1 5.52482 119.088 69.4993
23037 2 3.70292 119.099 68.2105
16924 1 8.25333 120.7 69.5173
22738 2 6.43139 120.71 68.2284
22783 2 9.15916 119.099 68.2105
16923 1 10.9811 119.088 69.4993
22504 2 11.8876 120.71 68.2284
16712 1 13.7096 120.7 69.5173
22503 2 14.6154 119.099 68.2105
16737 1 16.4373 119.088 69.4993
22312 2 17.3439 120.71 68.2284
16593 1 19.1658 120.7 69.5173
22333 2 20.0716 119.099 68.2105
17165 1 2.79794 123.923 69.5499
17478 1 0.0693834 122.311 69.5342
23003 2 0.975944 123.932 68.2608
17164 1 5.52562 122.311 69.5342
23040 2 3.70366 122.321 68.2451
16889 1 8.25418 123.923 69.5499
22736 2 9.1599 122.321 68.2451
22737 2 6.43218 123.932 68.2608
16926 1 10.9819 122.311 69.5342
22473 2 11.8884 123.932 68.2608
16711 1 13.7104 123.923 69.5499
22506 2 14.6161 122.321 68.2451
16710 1 16.4381 122.311 69.5342
22311 2 17.3447 123.932 68.2608
16582 1 19.1667 123.923 69.5499
22310 2 20.0724 122.321 68.2451
17132 1 2.79886 127.145 69.578
17449 1 0.0702772 125.534 69.5645
23002 2 0.976798 127.153 68.2887
17167 1 5.52652 125.534 69.5645
23001 2 3.70449 125.542 68.2753
16888 1 8.2551 127.145 69.578
22698 2 6.43304 127.153 68.2887
22739 2 9.16072 125.542 68.2753
16887 1 10.9828 125.534 69.5645
22472 2 11.8893 127.153 68.2887
16688 1 13.7113 127.145 69.578
22471 2 14.617 125.542 68.2753
16713 1 16.439 125.534 69.5645
22292 2 17.3455 127.153 68.2887
16581 1 19.1676 127.145 69.578
22313 2 20.0732 125.542 68.2753
17131 1 2.79978 130.368 69.6018
17450 1 0.071206 128.757 69.5904
22975 2 0.977662 130.374 68.3125
17130 1 5.52744 128.757 69.5904
23004 2 3.70535 128.763 68.3011
16857 1 8.25602 130.368 69.6018
22696 2 9.16159 128.763 68.3011
22697 2 6.4339 130.374 68.3125
16890 1 10.9837 128.757 69.5904
22441 2 11.8901 130.374 68.3125
16687 1 13.7123 130.368 69.6018
22474 2 14.6178 128.763 68.3011
16686 1 16.4399 128.757 69.5904
22291 2 17.3464 130.374 68.3125
16570 1 19.1685 130.368 69.6018
22290 2 20.0741 128.763 68.3011
17429 1 0.0721109 131.979 69.6121
17133 1 5.52835 131.979 69.6121
22973 2 3.7062 131.984 68.3228
22699 2 9.16244 131.984 68.3228
16855 1 10.9846 131.979 69.6121
22439 2 14.6187 131.984 68.3228
16689 1 16.4408 131.979 69.6121
22293 2 20.0749 131.984 68.3228
17106 1 2.80066 133.59 69.6214
17430 1 0.0729395 135.201 69.6297
22974 2 0.978482 133.594 68.332
17104 1 5.52918 135.201 69.6297
22976 2 3.70698 135.204 68.3403
16856 1 8.2569 133.59 69.6214
22664 2 9.16322 135.204 68.3403
22666 2 6.43472 133.594 68.332
16858 1 10.9854 135.201 69.6297
22440 2 11.891 133.594 68.332
16664 1 13.7131 133.59 69.6214
22442 2 14.6195 135.204 68.3403
16662 1 16.4417 135.201 69.6297
22272 2 17.3472 133.594 68.332
16569 1 19.1694 133.59 69.6214
22270 2 20.0757 135.204 68.3403
17105 1 2.80143 136.812 69.637
17417 1 0.0736481 138.423 69.6434
22955 2 0.979214 136.814 68.3476
17107 1 5.52989 138.423 69.6434
22953 2 3.70765 138.425 68.3539
16833 1 8.25767 136.812 69.637
22665 2 6.43545 136.814 68.3476
22667 2 9.16389 138.425 68.3539
16831 1 10.9861 138.423 69.6434
22413 2 11.8917 136.814 68.3476
16663 1 13.7139 136.812 69.637
22411 2 14.6201 138.425 68.3539
16665 1 16.4424 138.423 69.6434
22271 2 17.3479 136.814 68.3476
16558 1 19.1701 136.812 69.637
22273 2 20.0764 138.425 68.3539
17088 1 2.80207 140.034 69.6488
17418 1 0.074204 141.645 69.6532
22954 2 0.979819 140.035 68.3593
17086 1 5.53044 141.645 69.6532
22956 2 3.70818 141.645 68.3637
16832 1 8.2583 140.034 69.6488
22640 2 9.16442 141.645 68.3637
22642 2 6.43606 140.035 68.3593
16834 1 10.9867 141.645 69.6532
22412 2 11.8923 140.035 68.3593
16644 1 13.7145 140.034 69.6488
22414 2 14.6207 141.645 68.3637
16642 1 16.4429 141.645 69.6532
22252 2 17.3485 140.035 68.3593
16557 1 19.1708 140.034 69.6488
22250 2 20.0769 141.645 68.3637
17087 1 2.80254 143.256 69.6566
17413 1 0.074585 144.866 69.6591
22943 2 0.98027 143.255 68.3671
17089 1 5.53082 144.866 69.6591
22941 2 3.70855 144.865 68.3696
16817 1 8.25878 143.256 69.6566
22641 2 6.43651 143.255 68.3671
22643 2 9.16479 144.865 68.3696
16815 1 10.9871 144.866 69.6591
22393 2 11.8927 143.255 68.3671
16643 1 13.715 143.256 69.6566
22391 2 14.621 144.865 68.3696
16645 1 16.4433 144.866 69.6591
22251 2 17.349 143.255 68.3671
16546 1 19.1713 143.256 69.6566
22253 2 20.0773 144.865 68.3696
17078 1 2.80282 146.477 69.6606
17414 1 0.0747765 148.088 69.6612
22942 2 0.980547 146.475 68.3711
17076 1 5.53101 148.088 69.6612
22944 2 3.70874 148.085 68.3717
16816 1 8.25906 146.477 69.6606
22624 2 9.16498 148.085 68.3717
22626 2 6.43679 146.475 68.3711
16818 1 10.9873 148.088 69.6612
22392 2 11.893 146.475 68.3711
16632 1 13.7153 146.477 69.6606
22394 2 14.6212 148.085 68.3717
16630 1 16.4435 148.088 69.6612
22236 2 17.3493 146.475 68.3711
16545 1 19.1715 146.477 69.6606
22234 2 20.0775 148.085 68.3717
17077 1 2.80292 149.699 69.6608
22936 2 0.980641 149.694 68.3713
16806 1 8.25916 149.699 69.6608
22625 2 6.43688 149.694 68.3713
22378 2 11.8931 149.694 68.3713
16631 1 13.7154 149.699 69.6608
22235 2 17.3494 149.694 68.3713
16536 1 19.1716 149.699 69.6608
23126 2 1.89066 102.952 70.5129
15188 1 0.978377 101.33 71.8005
23125 2 0.0789515 102.913 73.0454
20716 2 2.80659 101.301 73.0158
17292 1 3.70682 102.94 71.8306
20726 2 4.61833 101.341 70.4829
22813 2 5.53519 102.913 73.0454
16988 1 9.16306 102.94 71.8306
22852 2 7.3469 102.952 70.5129
14900 1 6.43462 101.33 71.8005
20463 2 8.26283 101.301 73.0158
14711 1 11.8909 101.33 71.8005
20465 2 10.0746 101.341 70.4829
22554 2 10.9914 102.913 73.0454
16773 1 14.6193 102.94 71.8306
22555 2 12.8031 102.952 70.5129
20310 2 15.5308 101.341 70.4829
20300 2 13.7191 101.301 73.0158
22354 2 18.2594 102.952 70.5129
14612 1 17.3471 101.33 71.8005
22339 2 16.4477 102.913 73.0454
16610 1 20.0755 102.94 71.8306
20240 2 20.987 101.341 70.4829
20238 2 19.1753 101.301 73.0158
17250 1 0.97896 104.551 71.8598
23127 2 1.89131 106.174 70.5703
22814 2 2.80744 104.524 73.0743
23077 2 0.0796437 106.137 73.1023
17248 1 3.7073 106.163 71.8881
22818 2 4.61913 104.563 70.542
22815 2 5.53588 106.137 73.1023
16989 1 6.4352 104.551 71.8598
16990 1 9.16353 106.163 71.8881
22816 2 7.34755 106.174 70.5703
22528 2 8.26368 104.524 73.0743
16755 1 11.8914 104.551 71.8598
22556 2 10.0754 104.563 70.542
22526 2 10.9921 106.137 73.1023
16753 1 14.6198 106.163 71.8881
22344 2 15.5316 104.563 70.542
22557 2 12.8038 106.174 70.5703
22340 2 13.7199 104.524 73.0743
16611 1 17.3477 104.551 71.8598
22342 2 18.26 106.174 70.5703
22341 2 16.4484 106.137 73.1023
16612 1 20.076 106.163 71.8881
22212 2 20.9878 104.563 70.542
22209 2 19.1762 104.524 73.0743
17249 1 0.979379 107.775 71.9154
23079 2 1.89181 109.398 70.6237
22774 2 2.80805 107.75 73.1294
17251 1 3.70771 109.387 71.9417
22817 2 4.61968 107.786 70.5976
16955 1 9.16395 109.387 71.9417
16957 1 6.43562 107.775 71.9154
22819 2 7.34804 109.398 70.6237
22527 2 8.26429 107.75 73.1294
16754 1 11.8919 107.775 71.9154
22532 2 10.0759 107.786 70.5976
16756 1 14.6202 109.387 71.9417
22343 2 15.5322 107.786 70.5976
22530 2 12.8043 109.398 70.6237
22324 2 13.7205 107.75 73.1294
16603 1 17.3481 107.775 71.9154
22345 2 18.2605 109.398 70.6237
16601 1 20.0764 109.387 71.9417
22211 2 20.9884 107.786 70.5976
22208 2 19.1768 107.75 73.1294
17204 1 0.979821 110.999 71.9667
23080 2 1.89231 112.623 70.6727
17202 1 3.70821 112.612 71.9907
22778 2 4.62017 111.011 70.6488
16956 1 6.43606 110.999 71.9667
16958 1 9.16445 112.612 71.9907
22776 2 7.34855 112.623 70.6727
16732 1 11.8923 110.999 71.9667
22531 2 10.0764 111.011 70.6488
16730 1 14.6207 112.612 71.9907
22328 2 15.5326 111.011 70.6488
22533 2 12.8048 112.623 70.6727
16602 1 17.3485 110.999 71.9667
22326 2 18.261 112.623 70.6727
16604 1 20.0769 112.612 71.9907
22210 2 20.9889 111.011 70.6488
17203 1 0.980402 114.224 72.0134
22777 2 4.62071 114.236 70.6954
16921 1 6.43664 114.224 72.0134
16731 1 11.8929 114.224 72.0134
22501 2 10.077 114.236 70.6954
22327 2 15.5332 114.236 70.6954
16591 1 17.3491 114.224 72.0134
22204 2 20.9894 114.236 70.6954
17162 1 0.98117 117.45 72.0554
23035 2 1.89291 115.848 70.7169
17205 1 3.70888 115.837 72.035
22734 2 4.62139 117.461 70.7372
16919 1 9.16512 115.837 72.035
16920 1 6.43741 117.45 72.0554
22779 2 7.34915 115.848 70.7169
16708 1 11.8936 117.45 72.0554
22500 2 10.0776 117.461 70.7372
16733 1 14.6214 115.837 72.035
22308 2 15.5339 117.461 70.7372
22499 2 12.8054 115.848 70.7169
16590 1 17.3499 117.45 72.0554
22329 2 18.2616 115.848 70.7169
16589 1 20.0776 115.837 72.035
22203 2 20.9901 117.461 70.7372
17161 1 0.982106 120.676 72.0927
23036 2 1.89366 119.073 70.7564
17160 1 3.70974 119.063 72.0746
22733 2 4.62219 120.686 70.7744
16885 1 6.43834 120.676 72.0927
16922 1 9.16598 119.063 72.0746
22732 2 7.34989 119.073 70.7564
16707 1 11.8946 120.676 72.0927
22469 2 10.0784 120.686 70.7744
16706 1 14.6222 119.063 72.0746
22307 2 15.5347 120.686 70.7744
22502 2 12.8061 119.073 70.7564
16579 1 17.3508 120.676 72.0927
22306 2 18.2624 119.073 70.7564
16592 1 20.0785 119.063 72.0746
22196 2 20.9909 120.686 70.7744
17128 1 0.983159 123.902 72.1254
22999 2 1.89452 122.298 70.7913
17163 1 3.71074 122.289 72.1096
22694 2 4.6231 123.91 70.807
16883 1 9.16698 122.289 72.1096
16884 1 6.4394 123.902 72.1254
22735 2 7.35075 122.298 70.7913
16684 1 11.8956 123.902 72.1254
22468 2 10.0793 123.91 70.807
16709 1 14.6232 122.289 72.1096
22288 2 15.5356 123.91 70.807
22467 2 12.807 122.298 70.7913
16578 1 17.3519 123.902 72.1254
22309 2 18.2632 122.298 70.7913
16577 1 20.0795 122.289 72.1096
22195 2 20.9918 123.91 70.807
17127 1 0.984262 127.128 72.1536
23000 2 1.89546 125.523 70.8216
17126 1 3.71183 125.515 72.1401
22693 2 4.62406 127.135 70.8352
16853 1 6.4405 127.128 72.1536
16886 1 9.16807 125.515 72.1401
22692 2 7.35169 125.523 70.8216
16683 1 11.8967 127.128 72.1536
22437 2 10.0803 127.135 70.8352
16682 1 14.6243 125.515 72.1401
22287 2 15.5365 127.135 70.8352
22470 2 12.8079 125.523 70.8216
16567 1 17.353 127.128 72.1536
22286 2 18.2642 125.523 70.8216
16580 1 20.0805 125.515 72.1401
22188 2 20.9928 127.135 70.8352
17102 1 0.985347 130.354 72.1776
22971 2 1.89642 128.747 70.8476
17129 1 3.71293 128.741 72.1661
22662 2 4.62501 130.359 70.859
16851 1 9.16917 128.741 72.1661
16852 1 6.44159 130.354 72.1776
22695 2 7.35266 128.747 70.8476
16660 1 11.8978 130.354 72.1776
22436 2 10.0813 130.359 70.859
16685 1 14.6254 128.741 72.1661
22268 2 15.5375 130.359 70.859
22435 2 12.8089 128.747 70.8476
16566 1 17.3541 130.354 72.1776
22289 2 18.2651 128.747 70.8476
16565 1 20.0816 128.741 72.1661
22187 2 20.9937 130.359 70.859
22972 2 1.89735 131.971 70.8694
17100 1 3.71398 131.966 72.188
16854 1 9.17022 131.966 72.188
22660 2 7.35359 131.971 70.8694
16658 1 14.6265 131.966 72.188
22438 2 12.8098 131.971 70.8694
22266 2 18.2661 131.971 70.8694
16568 1 20.0827 131.966 72.188
17101 1 0.986351 133.579 72.1974
22951 2 1.8982 135.195 70.8871
17103 1 3.71493 135.192 72.2057
22661 2 4.62591 133.583 70.8787
16827 1 9.17116 135.192 72.2057
16829 1 6.44259 133.579 72.1974
22663 2 7.35444 135.195 70.8871
16659 1 11.8988 133.579 72.1974
22409 2 10.0821 133.583 70.8787
16661 1 14.6274 135.192 72.2057
22267 2 15.5384 133.583 70.8787
22407 2 12.8107 135.195 70.8871
16555 1 17.3551 133.579 72.1974
22269 2 18.2669 135.195 70.8871
16553 1 20.0836 135.192 72.2057
22180 2 20.9946 133.583 70.8787
17084 1 0.987226 136.805 72.2131
22952 2 1.89892 138.418 70.9008
17082 1 3.71572 138.417 72.2195
22638 2 4.6267 136.806 70.8944
16828 1 6.44346 136.805 72.2131
16830 1 9.17196 138.417 72.2195
22636 2 7.35516 138.418 70.9008
16640 1 11.8997 136.805 72.2131
22408 2 10.0829 136.806 70.8944
16638 1 14.6282 138.417 72.2195
22248 2 15.5392 136.806 70.8944
22410 2 12.8114 138.418 70.9008
16554 1 17.3559 136.805 72.2131
22246 2 18.2676 138.418 70.9008
16556 1 20.0844 138.417 72.2195
22179 2 20.9954 136.806 70.8944
17083 1 0.987936 140.03 72.2248
22939 2 1.89949 141.641 70.9106
17085 1 3.71634 141.642 72.2293
22637 2 4.62734 140.03 70.9062
16811 1 9.17258 141.642 72.2293
16813 1 6.44417 140.03 72.2248
22639 2 7.35572 141.641 70.9106
16639 1 11.9004 140.03 72.2248
22389 2 10.0836 140.03 70.9062
16641 1 14.6288 141.642 72.2293
22247 2 15.5398 140.03 70.9062
22387 2 12.812 141.641 70.9106
16543 1 17.3567 140.03 72.2248
22249 2 18.2682 141.641 70.9106
16541 1 20.0851 141.642 72.2293
22172 2 20.9961 140.03 70.9062
17074 1 0.988457 143.255 72.2327
22940 2 1.89988 144.864 70.9165
17072 1 3.71676 144.867 72.2352
22622 2 4.62782 143.253 70.914
16812 1 6.4447 143.255 72.2327
16814 1 9.173 144.867 72.2352
22620 2 7.35611 144.864 70.9165
16628 1 11.9009 143.255 72.2327
22388 2 10.0841 143.253 70.914
16626 1 14.6292 144.867 72.2352
22232 2 15.5403 143.253 70.914
22390 2 12.8124 144.864 70.9165
16542 1 17.3572 143.255 72.2327
22230 2 18.2686 144.864 70.9165
16544 1 20.0855 144.867 72.2352
22171 2 20.9965 143.253 70.914
17073 1 0.988772 146.48 72.2368
22935 2 1.90007 148.087 70.9186
17075 1 3.71697 148.092 72.2374
22621 2 4.62812 146.476 70.918
16803 1 9.17321 148.092 72.2374
16805 1 6.44501 146.48 72.2368
22623 2 7.35631 148.087 70.9186
16627 1 11.9012 146.48 72.2368
22377 2 10.0844 146.476 70.918
16629 1 14.6294 148.092 72.2374
22231 2 15.5406 146.476 70.918
22375 2 12.8126 148.087 70.9186
16535 1 17.3575 146.48 72.2368
22233 2 18.2688 148.087 70.9186
16533 1 20.0857 148.092 72.2374
22164 2 20.9968 146.476 70.918
17069 1 0.988872 149.705 72.237
22611 2 4.62822 149.699 70.9182
16804 1 6.44511 149.705 72.237
16621 1 11.9013 149.705 72.237
22376 2 10.0845 149.699 70.9182
22221 2 15.5407 149.699 70.9182
16534 1 17.3576 149.705 72.237
22163 2 20.9969 149.699 70.9182
17246 1 1.83616 102.918 74.4837
20714 2 0.969179 101.274 75.4935
22812 2 3.69736 102.886 75.5223
14898 1 4.56503 101.308 74.4541
16987 1 7.29239 102.918 74.4837
22523 2 9.1536 102.886 75.5223
20457 2 6.42542 101.274 75.4935
14705 1 10.0213 101.308 74.4541
20298 2 11.8817 101.274 75.4935
16750 1 12.7486 102.918 74.4837
22338 2 14.6098 102.886 75.5223
14610 1 15.4775 101.308 74.4541
16609 1 18.2049 102.918 74.4837
20233 2 17.3379 101.274 75.4935
22205 2 20.0661 102.886 75.5223
14593 1 20.9337 101.308 74.4541
17247 1 1.83494 106.141 74.5406
22770 2 0.96926 104.498 75.5507
16953 1 4.56362 104.529 74.5126
22768 2 3.69741 106.11 75.5782
16951 1 7.29118 106.141 74.5406
22524 2 6.4255 104.498 75.5507
22525 2 9.15365 106.11 75.5782
16751 1 10.0199 104.529 74.5126
22320 2 11.8817 104.498 75.5507
16599 1 15.4761 104.529 74.5126
16752 1 12.7474 106.141 74.5406
22318 2 14.6099 106.11 75.5782
16597 1 18.2037 106.141 74.5406
22206 2 17.338 104.498 75.5507
16527 1 20.9323 104.529 74.5126
22207 2 20.0661 106.11 75.5782
17200 1 1.83424 109.365 74.5936
22769 2 0.969347 107.724 75.605
23078 2 0.0802118 109.363 73.1555
16952 1 4.56264 107.752 74.5676
22771 2 3.69759 109.337 75.6307
22772 2 5.53645 109.363 73.1555
16954 1 7.29048 109.365 74.5936
22491 2 9.15382 109.337 75.6307
22493 2 6.42559 107.724 75.605
16728 1 10.0189 107.752 74.5676
22319 2 11.8818 107.724 75.605
22529 2 10.9927 109.363 73.1555
16598 1 15.4751 107.752 74.5676
16726 1 12.7467 109.365 74.5936
22321 2 14.6101 109.337 75.6307
16600 1 18.203 109.365 74.5936
22199 2 17.3381 107.724 75.605
22322 2 16.4489 109.363 73.1555
16526 1 20.9314 107.752 74.5676
22197 2 20.0663 109.337 75.6307
17201 1 1.83413 112.59 74.6424
22726 2 0.969661 110.952 75.6555
22773 2 2.80863 110.976 73.1804
23033 2 0.0808265 112.59 73.2043
16917 1 4.56223 110.977 74.6186
22724 2 3.69806 112.566 75.6791
22775 2 5.53706 112.59 73.2043
16915 1 7.29037 112.59 74.6424
22492 2 6.4259 110.952 75.6555
22494 2 9.1543 112.566 75.6791
22497 2 8.26486 110.976 73.1804
16727 1 10.0185 110.977 74.6186
22300 2 11.8821 110.952 75.6555
22495 2 10.9933 112.59 73.2043
16587 1 15.4747 110.977 74.6186
16729 1 12.7466 112.59 74.6424
22298 2 14.6105 112.566 75.6791
22323 2 13.7211 110.976 73.1804
16585 1 18.2028 112.59 74.6424
22198 2 17.3384 110.952 75.6555
22325 2 16.4495 112.59 73.2043
16525 1 20.9309 110.977 74.6186
22200 2 20.0668 112.566 75.6791
22202 2 19.1773 110.976 73.1804
22725 2 0.970301 114.181 75.7017
22730 2 2.8093 114.204 73.2269
16916 1 4.56241 114.203 74.665
22461 2 6.42654 114.181 75.7017
22496 2 8.26554 114.204 73.2269
16704 1 10.0186 114.203 74.665
22299 2 11.8828 114.181 75.7017
16586 1 15.4749 114.203 74.665
22304 2 13.7218 114.204 73.2269
22191 2 17.339 114.181 75.7017
16524 1 20.9311 114.203 74.665
22201 2 19.178 114.204 73.2269
17158 1 1.83458 115.816 74.6865
22686 2 0.971258 117.411 75.7434
22729 2 2.81014 117.432 73.2688
23034 2 0.0815818 115.818 73.2485
16881 1 4.5631 117.43 74.7068
22727 2 3.69886 115.796 75.7231
22728 2 5.53782 115.818 73.2485
16918 1 7.29082 115.816 74.6865
22459 2 9.1551 115.796 75.7231
22460 2 6.4275 117.411 75.7434
22465 2 8.26638 117.432 73.2688
16703 1 10.0193 117.43 74.7068
22280 2 11.8837 117.411 75.7434
22498 2 10.9941 115.818 73.2485
16575 1 15.4756 117.43 74.7068
16702 1 12.7471 115.816 74.6865
22301 2 14.6113 115.796 75.7231
22303 2 13.7226 117.432 73.2688
16588 1 18.2033 115.816 74.6865
22190 2 17.34 117.411 75.7434
22302 2 16.4503 115.818 73.2485
16523 1 20.9318 117.43 74.7068
22189 2 20.0676 115.796 75.7231
22194 2 19.1789 117.432 73.2688
17159 1 1.83548 119.043 74.726
22685 2 0.972458 120.641 75.7805
22690 2 2.81112 120.661 73.3061
22997 2 0.0824946 119.047 73.288
16880 1 4.56417 120.657 74.744
22684 2 3.69995 119.026 75.7625
22731 2 5.53873 119.047 73.288
16879 1 7.29171 119.043 74.726
22429 2 6.4287 120.641 75.7805
22462 2 9.15619 119.026 75.7625
22464 2 8.26736 120.661 73.3061
16680 1 10.0204 120.657 74.744
22279 2 11.8849 120.641 75.7805
22463 2 10.995 119.047 73.288
16574 1 15.4766 120.657 74.744
16705 1 12.748 119.043 74.726
22278 2 14.6124 119.026 75.7625
22284 2 13.7236 120.661 73.3061
16573 1 18.2042 119.043 74.726
22183 2 17.3412 120.641 75.7805
22305 2 16.4512 119.047 73.288
16522 1 20.9329 120.657 74.744
22192 2 20.0687 119.026 75.7625
22193 2 19.1798 120.661 73.3061
17124 1 1.83669 122.271 74.7609
22654 2 0.973807 123.871 75.8132
22689 2 2.8122 123.889 73.3388
22998 2 0.0835319 122.275 73.323
16849 1 4.56549 123.885 74.7767
22687 2 3.70124 122.256 75.7974
22688 2 5.53977 122.275 73.323
16882 1 7.29293 122.271 74.7609
22427 2 9.15748 122.256 75.7974
22428 2 6.43005 123.871 75.8132
22433 2 8.26844 123.889 73.3388
16679 1 10.0217 123.885 74.7767
22260 2 11.8863 123.871 75.8132
22466 2 10.996 122.275 73.323
16563 1 15.478 123.885 74.7767
16678 1 12.7492 122.271 74.7609
22281 2 14.6137 122.256 75.7974
22283 2 13.7247 123.889 73.3388
16576 1 18.2054 122.271 74.7609
22182 2 17.3425 123.871 75.8132
22282 2 16.4522 122.275 73.323
16521 1 20.9342 123.885 74.7767
22181 2 20.07 122.256 75.7974
22186 2 19.1809 123.889 73.3388
17125 1 1.83809 125.499 74.7914
22653 2 0.975201 127.102 75.8415
22658 2 2.81332 127.116 73.367
22969 2 0.0846383 125.503 73.3534
16848 1 4.56693 127.114 74.8049
22652 2 3.70262 125.486 75.8279
22691 2 5.54088 125.503 73.3534
16847 1 7.29432 125.499 74.7914
22401 2 6.43144 127.102 75.8415
22430 2 9.15886 125.486 75.8279
22432 2 8.26955 127.116 73.367
16656 1 10.0232 127.114 74.8049
22259 2 11.8877 127.102 75.8415
22431 2 10.9971 125.503 73.3534
16562 1 15.4794 127.114 74.8049
16681 1 12.7506 125.499 74.7914
22258 2 14.6151 125.486 75.8279
22264 2 13.7258 127.116 73.367
16561 1 18.2068 125.499 74.7914
22175 2 17.3439 127.102 75.8415
22285 2 16.4534 125.503 73.3534
16520 1 20.9356 127.114 74.8049
22184 2 20.0713 125.486 75.8279
22185 2 19.182 127.116 73.367
17098 1 1.83952 128.728 74.8174
22630 2 0.976545 130.332 75.8655
22657 2 2.8144 130.344 73.391
22970 2 0.0857487 128.73 73.3795
16825 1 4.56834 130.342 74.8289
22655 2 3.704 128.717 75.854
22656 2 5.54199 128.73 73.3795
16850 1 7.29576 128.728 74.8174
22399 2 9.16024 128.717 75.854
22400 2 6.43278 130.332 75.8655
22405 2 8.27064 130.344 73.391
16655 1 10.0246 130.342 74.8289
22240 2 11.889 130.332 75.8655
22434 2 10.9982 128.73 73.3795
16551 1 15.4808 130.342 74.8289
16654 1 12.752 128.728 74.8174
22261 2 14.6165 128.717 75.854
22263 2 13.7269 130.344 73.391
16564 1 18.2082 128.728 74.8174
22174 2 17.3453 130.332 75.8655
22262 2 16.4545 128.73 73.3795
16519 1 20.9371 130.342 74.8289
22173 2 20.0727 128.717 75.854
22178 2 19.1831 130.344 73.391
17099 1 1.84089 131.957 74.8393
22949 2 0.0868008 131.957 73.4014
22628 2 3.70529 131.947 75.8759
22659 2 5.54304 131.957 73.4014
16823 1 7.29713 131.957 74.8393
22402 2 9.16153 131.947 75.8759
22403 2 10.9993 131.957 73.4014
16657 1 12.7534 131.957 74.8393
22238 2 14.6178 131.947 75.8759
16549 1 18.2096 131.957 74.8393
22265 2 16.4555 131.957 73.4014
22176 2 20.074 131.947 75.8759
17080 1 1.84211 135.186 74.8571
22629 2 0.977766 133.562 75.8854
22634 2 2.81541 133.571 73.4108
22950 2 0.0877429 135.184 73.4192
16824 1 4.56964 133.571 74.8487
22631 2 3.70643 135.177 75.8938
22632 2 5.54398 135.184 73.4192
16826 1 7.29835 135.186 74.8571
22379 2 9.16267 135.177 75.8938
22381 2 6.434 133.562 75.8854
22404 2 8.27165 133.571 73.4108
16636 1 10.0259 133.571 74.8487
22239 2 11.8902 133.562 75.8854
22406 2 11.0002 135.184 73.4192
16550 1 15.4821 133.571 74.8487
16634 1 12.7546 135.186 74.8571
22241 2 14.6189 135.177 75.8938
22244 2 13.7279 133.571 73.4108
16552 1 18.2108 135.186 74.8571
22167 2 17.3465 133.562 75.8854
22242 2 16.4565 135.184 73.4192
16518 1 20.9384 133.571 74.8487
22165 2 20.0751 135.177 75.8938
22177 2 19.1841 133.571 73.4108
17081 1 1.84313 138.415 74.8709
22614 2 0.978811 136.792 75.9012
22633 2 2.81628 136.798 73.4266
22937 2 0.0885357 138.411 73.4329
16809 1 4.57077 136.801 74.8645
22612 2 3.70738 138.407 75.9076
22635 2 5.54477 138.411 73.4329
16807 1 7.29937 138.415 74.8709
22380 2 6.43505 136.792 75.9012
22382 2 9.16361 138.407 75.9076
22385 2 8.27252 136.798 73.4266
16635 1 10.027 136.801 74.8645
22224 2 11.8913 136.792 75.9012
22383 2 11.001 138.411 73.4329
16539 1 15.4832 136.801 74.8645
16637 1 12.7556 138.415 74.8709
22222 2 14.6199 138.407 75.9076
22243 2 13.7288 136.798 73.4266
16537 1 18.2118 138.415 74.8709
22166 2 17.3475 136.792 75.9012
22245 2 16.4573 138.411 73.4329
16517 1 20.9395 136.801 74.8645
22168 2 20.0761 138.407 75.9076
22170 2 19.185 136.798 73.4266
17070 1 1.84392 141.645 74.8807
22613 2 0.979646 140.022 75.913
22618 2 2.81699 140.024 73.4384
22938 2 0.0891519 141.637 73.4428
16808 1 4.57167 140.03 74.8763
22615 2 3.7081 141.637 75.9174
22616 2 5.54539 141.637 73.4428
16810 1 7.30015 141.645 74.8807
22367 2 9.16434 141.637 75.9174
22369 2 6.43588 140.022 75.913
22384 2 8.27322 140.024 73.4384
16624 1 10.0279 140.03 74.8763
22223 2 11.8921 140.022 75.913
22386 2 11.0016 141.637 73.4428
16538 1 15.4842 140.03 74.8763
16622 1 12.7564 141.645 74.8807
22225 2 14.6206 141.637 75.9174
22228 2 13.7295 140.024 73.4384
16540 1 18.2126 141.645 74.8807
22159 2 17.3484 140.022 75.913
22226 2 16.4579 141.637 73.4428
16516 1 20.9404 140.03 74.8763
22157 2 20.0768 141.637 75.9174
22169 2 19.1857 140.024 73.4384
17071 1 1.84444 144.874 74.8867
22606 2 0.980251 143.252 75.9209
22617 2 2.81751 143.25 73.4463
22933 2 0.0895731 144.863 73.4487
16801 1 4.57233 143.259 74.8842
22604 2 3.70858 144.867 75.9234
22619 2 5.54581 144.863 73.4487
16799 1 7.30068 144.874 74.8867
22368 2 6.43649 143.252 75.9209
22370 2 9.16482 144.867 75.9234
22373 2 8.27375 143.25 73.4463
16623 1 10.0286 143.259 74.8842
22216 2 11.8927 143.252 75.9209
22371 2 11.002 144.863 73.4487
16531 1 15.4848 143.259 74.8842
16625 1 12.7569 144.874 74.8867
22214 2 14.6211 144.867 75.9234
22227 2 13.73 143.25 73.4463
16529 1 18.2132 144.874 74.8867
22158 2 17.349 143.252 75.9209
22229 2 16.4583 144.863 73.4487
16515 1 20.941 143.259 74.8842
22160 2 20.0773 144.867 75.9234
22162 2 19.1862 143.25 73.4463
17068 1 1.8447 148.103 74.8888
22605 2 0.980614 146.482 75.9249
22610 2 2.81783 146.476 73.4503
22934 2 0.0897873 148.09 73.4509
16800 1 4.57272 146.489 74.8882
22607 2 3.70882 148.097 75.9255
22608 2 5.54603 148.09 73.4509
16802 1 7.30094 148.103 74.8888
22363 2 9.16506 148.097 75.9255
22365 2 6.43685 146.482 75.9249
22372 2 8.27406 146.476 73.4503
16620 1 10.029 146.489 74.8882
22215 2 11.8931 146.482 75.9249
22374 2 11.0023 148.09 73.4509
16530 1 15.4852 146.489 74.8882
16618 1 12.7572 148.103 74.8888
22217 2 14.6213 148.097 75.9255
22220 2 13.7303 146.476 73.4503
16532 1 18.2134 148.103 74.8888
22155 2 17.3493 146.482 75.9249
22218 2 16.4585 148.09 73.4509
16514 1 20.9414 146.489 74.8882
22153 2 20.0775 148.097 75.9255
22161 2 19.1865 146.476 73.4503
22603 2 0.980726 149.712 75.9251
22609 2 2.81793 149.703 73.4505
16798 1 4.57284 149.718 74.8884
22366 2 8.27417 149.703 73.4505
22364 2 6.43696 149.712 75.9251
22213 2 11.8932 149.712 75.9251
16619 1 10.0291 149.718 74.8884
22219 2 13.7304 149.703 73.4505
16528 1 15.4853 149.718 74.8884
22154 2 17.3494 149.712 75.9251
22156 2 19.1866 149.703 73.4505
16513 1 20.9416 149.718 74.8884
